 vasp.5.4.4.18Apr17-6-g9f103f2a35 (build Oct 03 2018 13:58:34) complex

 executed on             LinuxIFC date 2019.06.04  01:07:21

 INCAR:
 POTCAR:    PAW_PBE La 06Sep2000
 POTCAR:    PAW_PBE Mn 06Sep2000
 POTCAR:    PAW_PBE Ni 02Aug2007
 POTCAR:    PAW_PBE O 08Apr2002

 POTCAR:    PAW_PBE La 06Sep2000
   VRHFIN =La : [core=Kr4d]

   TITEL  = PAW_PBE La 06Sep2000
   POMASS =  138.900; ZVAL   =   11.000    mass and valenz
   ENMAX  =  219.292; ENMIN  =  164.469 eV

 POTCAR:    PAW_PBE Mn 06Sep2000
   VRHFIN =Mn: d6 s1

   TITEL  = PAW_PBE Mn 06Sep2000
   POMASS =   54.938; ZVAL   =    7.000    mass and valenz
   ENMAX  =  269.864; ENMIN  =  202.398 eV

 POTCAR:    PAW_PBE Ni 02Aug2007
   VRHFIN =Ni:

   TITEL  = PAW_PBE Ni 02Aug2007
   POMASS =   58.690; ZVAL   =   10.000    mass and valenz
   ENMAX  =  269.532; ENMIN  =  202.149 eV

 POTCAR:    PAW_PBE O 08Apr2002
   VRHFIN =O: s2p4

   TITEL  = PAW_PBE O 08Apr2002
   POMASS =   16.000; ZVAL   =    6.000    mass and valenz
   ENMAX  =  400.000; ENMIN  =  300.000 eV

 Optimization of the real space projectors (new method)

 maximal supplied QI-value         = 13.42
 optimisation between [QCUT,QGAM] = [ 11.67, 23.35] = [ 38.16,152.62] Ry
 Optimized for a Real-space Cutoff    1.63 Angstroem

   l    n(q)    QCUT    max X(q) W(low)/X(q) W(high)/X(q)  e(spline)
   0     11    11.673    13.882    0.27E-04    0.79E-05    0.11E-06
   0     11    11.673    12.184    0.39E-04    0.13E-04    0.19E-06
   1     11    11.673     4.523    0.73E-05    0.76E-05    0.12E-06
   1     11    11.673     4.424    0.87E-05    0.13E-04    0.19E-06
   2     10    11.673    52.481    0.65E-04    0.36E-04    0.18E-06
   2     10    11.673    38.501    0.61E-04    0.33E-04    0.17E-06
   3     10    11.673    65.631    0.17E-03    0.14E-03    0.37E-06
   3     10    11.673    56.854    0.17E-03    0.14E-03    0.37E-06
 Optimization of the real space projectors (new method)

[...]

   l    n(q)    QCUT    max X(q) W(low)/X(q) W(high)/X(q)  e(spline)
   2      9    11.539    60.317    0.19E-03    0.47E-04    0.16E-06
   2      9    11.539    55.921    0.19E-03    0.48E-04    0.16E-06
   0     10    11.539    51.690    0.80E-04    0.50E-04    0.24E-06
   0     10    11.539    30.015    0.73E-04    0.45E-04    0.22E-06
   1     10    11.539    18.849    0.87E-04    0.16E-03    0.71E-07
   1     10    11.539    14.624    0.73E-04    0.13E-03    0.64E-07
 Optimization of the real space projectors (new method)

 maximal supplied QI-value         = 24.76
 optimisation between [QCUT,QGAM] = [ 11.64, 23.27] = [ 37.91,151.63] Ry
 Optimized for a Real-space Cutoff    1.14 Angstroem

   l    n(q)    QCUT    max X(q) W(low)/X(q) W(high)/X(q)  e(spline)
   0      8    11.635    20.381    0.10E-03    0.33E-03    0.24E-06
   0      8    11.635    15.268    0.11E-03    0.35E-03    0.26E-06
   1      7    11.635     5.964    0.24E-03    0.31E-03    0.30E-06
   1      7    11.635     5.382    0.22E-03    0.25E-03    0.26E-06
  PAW_PBE La 06Sep2000                  :
  PAW_PBE Mn 06Sep2000                  :
  PAW_PBE Ni 02Aug2007                  :
  PAW_PBE O 08Apr2002                   :

 POSCAR: SCEL6_3_2_1_1_1_0/6
  positions in direct lattice
  velocities in cartesian coordinates
 exchange correlation table for  LEXCH =        8
   RHO(1)=    0.500       N(1)  =     2000
   RHO(2)=  100.500       N(2)  =     4000

 ion  position               nearest neighbor table
   1  0.167  0.167  0.333-  20 2.73  23 2.73  24 2.73  19 2.73  16 2.74  17 2.74  30 2.74  26 2.74
                            14 2.74  13 2.74  27 2.74  29 2.74  10 3.35  12 3.35  11 3.35   9 3.35
   2  0.332  0.337  0.663-  23 2.70  16 2.70  29 2.71  13 2.73  22 2.73  26 2.73  19 2.74  28 2.74
                            18 2.74  24 2.76  15 2.76  25 2.76  11 3.32   9 3.33   7 3.34  10 3.34
   3  0.497  0.501  0.003-  23 2.70  17 2.70  27 2.71  14 2.73  24 2.73  30 2.73  21 2.74  28 2.74
                            15 2.74  22 2.76  18 2.76  25 2.76  11 3.32   9 3.33   8 3.34  12 3.34
   4  0.667  0.667  0.333-  23 2.73  20 2.73  21 2.73  22 2.73  16 2.74  17 2.74  30 2.74  26 2.74
                            14 2.74  13 2.74  27 2.74  29 2.74  10 3.35  12 3.35  11 3.35   9 3.35
   5  0.837  0.832  0.663-  20 2.70  16 2.70  29 2.71  13 2.73  19 2.73  26 2.73  22 2.74  28 2.74
                            18 2.74  21 2.76  15 2.76  25 2.76  11 3.32   9 3.33   7 3.34  10 3.34
   6  0.001  0.997  0.003-  20 2.70  17 2.70  27 2.71  14 2.73  21 2.73  30 2.73  24 2.74  28 2.74
                            15 2.74  19 2.76  18 2.76  25 2.76  11 3.32   9 3.33   8 3.34  12 3.34
   7  0.834  0.334  0.667-  29 1.88  13 1.89  22 1.90  19 1.90  18 1.90  25 1.93   2 3.34   5 3.34
                             4 3.35   1 3.35   5 3.36   2 3.36   3 3.38   6 3.38
   8  0.499  0.999  1.000-  27 1.88  14 1.89  24 1.90  21 1.90  15 1.90  25 1.93   3 3.34   6 3.34
                             4 3.35   1 3.35   6 3.36   3 3.36   5 3.38   2 3.38
   9  0.667  0.167  0.333-  26 1.93  30 1.93  20 1.95  23 1.95  13 1.98  14 1.98   2 3.33   5 3.33
                             3 3.33   6 3.33   1 3.35   4 3.35   1 3.35   4 3.35
  10  0.333  0.833  0.667-  28 1.93  26 1.93  16 1.95  15 1.96  19 1.98  22 1.98   2 3.34   5 3.34
                             4 3.35   1 3.35   5 3.36   2 3.36   3 3.36   6 3.36
  11  0.167  0.667  0.333-  17 1.92  16 1.92  20 1.93  23 1.93  29 1.98  27 1.98   2 3.32   5 3.32
                             3 3.32   6 3.32   1 3.35   4 3.35   1 3.35   4 3.35
  12  0.000  0.500  0.000-  28 1.93  30 1.93  17 1.95  18 1.96  21 1.98  24 1.98   3 3.34   6 3.34
                             4 3.35   1 3.35   6 3.36   3 3.36   5 3.36   2 3.36
  13  0.752  0.252  0.504-   7 1.89   9 1.98   2 2.73   5 2.73   4 2.74   1 2.74
  14  0.582  0.082  0.162-   8 1.89   9 1.98   3 2.73   6 2.73   4 2.74   1 2.74
  15  0.418  0.918  0.835-   8 1.90  10 1.96   3 2.74   6 2.74   5 2.76   2 2.76
  16  0.249  0.749  0.499-  11 1.92  10 1.95   2 2.70   5 2.70   4 2.74   1 2.74
  17  0.084  0.584  0.168-  11 1.92  12 1.95   3 2.70   6 2.70   4 2.74   1 2.74
  18  0.916  0.416  0.831-   7 1.90  12 1.96   2 2.74   5 2.74   3 2.76   6 2.76
  19  0.078  0.088  0.667-   7 1.90  10 1.98   5 2.73   1 2.73   2 2.74   6 2.76
  20  0.918  0.916  0.333-  11 1.93   9 1.95   6 2.70   5 2.70   1 2.73   4 2.73
  21  0.745  0.756  1.000-   8 1.90  12 1.98   6 2.73   4 2.73   3 2.74   5 2.76
  22  0.588  0.578  0.667-   7 1.90  10 1.98   2 2.73   4 2.73   5 2.74   3 2.76
  23  0.416  0.418  0.333-  11 1.93   9 1.95   3 2.70   2 2.70   4 2.73   1 2.73
  24  0.256  0.245  1.000-   8 1.90  12 1.98   3 2.73   1 2.73   6 2.74   2 2.76
  25  0.667  0.167  0.833-   7 1.93   8 1.93   2 2.76   5 2.76   3 2.76   6 2.76
  26  0.500  0.000  0.500-   9 1.93  10 1.93   2 2.73   5 2.73   4 2.74   1 2.74
  27  0.338  0.838  0.162-   8 1.88  11 1.98   3 2.71   6 2.71   4 2.74   1 2.74
  28  0.167  0.667  0.833-  10 1.93  12 1.93   2 2.74   5 2.74   3 2.74   6 2.74
  29  0.996  0.496  0.505-   7 1.88  11 1.98   2 2.71   5 2.71   4 2.74   1 2.74
  30  0.833  0.333  0.167-   9 1.93  12 1.93   3 2.73   6 2.73   4 2.74   1 2.74

  LATTYP: Found a base centered monoclinic cell.
 ALAT       =    10.9254029434
 B/A-ratio  =     0.7091039417
 C/A-ratio  =     2.3728315755
 COS(beta)  =    -0.7739303335

  Lattice vectors:

 A1 = (   3.8594960265,   3.8736231460,   3.8659278046)
 A2 = (   3.8594960265,  -3.8736231460,   3.8659278046)
 A3 = ( -11.5799799707,   0.0000000000, -23.1940758501)

Analysis of symmetry for initial positions (statically):
 Subroutine PRICEL returns:
 Original cell was already a primitive cell.

 Routine SETGRP: Setting up the symmetry group for a
 base centered monoclinic supercell.

 Subroutine GETGRP returns: Found  2 space group operations
 (whereof  1 operations were pure point group operations)
 out of a pool of  4 trial point group operations.

The static configuration has the point symmetry C_1 .
 The point group associated with its full space group is C_1h.

Analysis of symmetry for dynamics (positions and initial velocities):
 Subroutine PRICEL returns:
 Original cell was already a primitive cell.

[...]

The dynamic configuration has the point symmetry C_1 .
 The point group associated with its full space group is C_1h.

Analysis of structural, dynamic, and magnetic symmetry:
 Subroutine PRICEL returns:
 Original cell was already a primitive cell.

 Routine SETGRP: Setting up the symmetry group for a
 base centered monoclinic supercell.

 Subroutine GETGRP returns: Found  2 space group operations
 (whereof  1 operations were pure point group operations)
 out of a pool of  4 trial point group operations.

The magnetic configuration has the point symmetry C_1 .
 The point group associated with its full space group is C_1h.

 Subroutine INISYM returns: Found  2 space group operations
 (whereof  1 operations are pure point group operations),
 and found     1 'primitive' translations

 KPOINTS: Automatic mesh

Automatic generation of k-mesh.
 generate k-points for:    3    3    2
Space group operators:
 irot       det(A)        alpha          n_x          n_y          n_z        tau_x        tau_y        tau_z
    1     1.000000     0.000000     1.000000     0.000000     0.000000     0.000000     0.000000     0.000000
    2    -1.000000   180.000000     0.000000     1.000000     0.000000     0.500000     0.500000     0.000000

 Subroutine IBZKPT returns following result:

 Found      8 irreducible k-points:

 Following reciprocal coordinates:
            Coordinates               Weight
  0.000000  0.000000  0.000000      1.000000
  0.333333  0.000000  0.000000      4.000000
  0.333333  0.333333  0.000000      2.000000
 -0.333333  0.333333  0.000000      2.000000
 -0.000000 -0.000000  0.500000      1.000000
  0.333333  0.000000  0.500000      4.000000
  0.333333  0.333333  0.500000      2.000000
 -0.333333  0.333333  0.500000      2.000000

 Following cartesian coordinates:
            Coordinates               Weight
  0.000000  0.000000  0.000000      1.000000
  0.028791 -0.043026  0.014369      4.000000
  0.057582  0.000000  0.028737      2.000000
  0.000000  0.086052  0.000000      2.000000
 -0.043195  0.000000  0.043123      1.000000
 -0.014404 -0.043026  0.057491      4.000000
  0.014387  0.000000  0.071860      2.000000
 -0.043195  0.086052  0.043123      2.000000

 TETIRR: Found     25 inequivalent tetrahedra from      108

 SYSTEM =  final
 POSCAR =  SCEL6_3_2_1_1_1_0/6

 Startparameter for this run:
   NWRITE =      2    write-flag & timer
   PREC   = accura    normal or accurate (medium, high low for compatibility)
   ISTART =      0    job   : 0-new  1-cont  2-samecut
   ICHARG =      1    charge: 1-file 2-atom 10-const
   ISPIN  =      2    spin polarized calculation?
   LNONCOLLINEAR =      F non collinear calculations
   LSORBIT =      F    spin-orbit coupling
   INIWAV =      1    electr: 0-lowe 1-rand  2-diag
   LASPH  =      F    aspherical Exc in radial PAW
   METAGGA=      F    non-selfconsistent MetaGGA calc.

 Electronic Relaxation 1
   ENCUT  =  520.0 eV  38.22 Ry    6.18 a.u.  12.45 12.45 16.06*2*pi/ulx,y,z
[...]
     30      -7.0446      1.00000
     31      -7.0263      1.00000
     32      -6.9621      1.00000
     33      -6.8836      1.00000
     34      -6.8760      1.00000
     35      -6.8356      1.00000
     36      -6.8129      1.00000
     37      -6.8052      1.00000
     38      -6.7849      1.00000
     39      -6.7217      1.00000
     40      -6.6910      1.00000
     41      -6.6694      1.00000
     42      -6.6423      1.00000
     43       0.2664      1.00000
     44       0.3650      1.00000
     45       0.3918      1.00000
     46       0.5145      1.00000
     47       0.7182      1.00000
     48       0.8419      1.00000
     49       0.9786      1.00000
     50       1.0555      1.00000
     51       1.1485      1.00000
     52       1.3092      1.00000
     53       1.3282      1.00000
     54       1.4331      1.00000
     55       1.5346      1.00000
     56       1.5364      1.00000
     57       1.6646      1.00000
     58       1.8939      1.00000
     59       1.8963      1.00000
     60       1.8986      1.00000
[...]
    132      11.1000      0.00000
    133      11.1033      0.00000
    134      11.1709      0.00000
    135      11.2292      0.00000
    136      11.2412      0.00000
    137      11.2779      0.00000
    138      11.2942      0.00000
    139      11.3204      0.00000
    140      11.3316      0.00000
    141      11.3420      0.00000
    142      11.3607      0.00000
    143      11.3750      0.00000
    144      11.3873      0.00000
    145      11.4292      0.00000
    146      11.4658      0.00000

[...]

 spin component 2

[...]

 k-point     8 :      -0.3333    0.3333    0.5000
  band No.  band energies     occupation
      1     -23.6192      1.00000
      2     -23.6176      1.00000
      3     -23.6160      1.00000
      4     -23.6133      1.00000
      5     -23.6107      1.00000
      6     -23.5317      1.00000
      7     -11.0117      1.00000
      8     -10.9875      1.00000
      9     -10.8619      1.00000
     10     -10.6966      1.00000
     11     -10.6945      1.00000
     12      -9.9422      1.00000
     13      -9.8042      1.00000
     14      -9.7535      1.00000
     15      -9.7313      1.00000
     16      -9.7262      1.00000
     17      -9.7011      1.00000
     18      -9.6193      1.00000
     19      -9.6150      1.00000
     20      -9.4957      1.00000
     21      -9.4314      1.00000
     22      -9.2853      1.00000
     23      -9.2612      1.00000
     24      -9.1635      1.00000
     25      -7.5452      1.00000
     26      -7.4470      1.00000
     27      -7.4428      1.00000
     28      -7.2200      1.00000
     29      -7.2047      1.00000
     30      -7.1670      1.00000
     31      -7.1659      1.00000
     32      -7.0509      1.00000
     33      -6.9853      1.00000
     34      -6.9244      1.00000
     35      -6.9215      1.00000
     36      -6.9126      1.00000
     37      -6.8870      1.00000
     38      -6.6420      1.00000
     39      -6.5963      1.00000
     40      -6.5661      1.00000
     41      -6.5512      1.00000
     42      -6.4294      1.00000
     43       1.1771      1.00000
     44       2.1396      1.00000
     45       2.1533      1.00000
     46       2.1610      1.00000
     47       2.1805      1.00000
     48       2.3789      1.00000
     49       2.4767      1.00000
     50       2.5566      1.00000
     51       2.6393      1.00000
     52       2.7137      1.00000
     53       2.8164      1.00000
     54       2.8252      1.00000
     55       2.8997      1.00000
     56       2.9136      1.00000
     57       2.9663      1.00000
     58       3.0485      1.00000
     59       3.0922      1.00000
     60       3.1203      1.00000
[...]
    132      11.3042      0.00000
    133      11.3141      0.00000
    134      11.3254      0.00000
    135      11.3333      0.00000
    136      11.3405      0.00000
    137      11.3513      0.00000
    138      11.3615      0.00000
    139      11.3765      0.00000
    140      11.3778      0.00000
    141      11.4111      0.00000
    142      11.4322      0.00000
    143      11.4340      0.00000
    144      11.4535      0.00000
    145      11.4688      0.00000
    146      11.5066      0.00000

 soft charge-density along one line, spin component           1
         0         1         2         3         4         5         6         7         8         9
 total charge-density along one line

 soft charge-density along one line, spin component           2
         0         1         2         3         4         5         6         7         8         9
 total charge-density along one line

------------------------ aborting loop because EDIFF is reached ----------------------------------------

 total charge

# of ion       s       p       d       f       tot
    1        2.000   5.700   0.492   0.191   8.383
    2        2.000   5.700   0.496   0.192   8.388
    3        2.000   5.701   0.493   0.193   8.386
    4        2.000   5.700   0.492   0.191   8.383
    5        2.000   5.701   0.493   0.193   8.386
    6        2.001   5.700   0.496   0.192   8.388
    7        0.362   0.582   4.870   0.000   5.814
    8        0.362   0.582   4.870   0.000   5.814
    9        0.410   0.607   8.309   0.000   9.325
   10        0.404   0.596   8.311   0.000   9.312
   11        0.419   0.623   8.319   0.000   9.361
   12        0.404   0.596   8.311   0.000   9.312
   13        1.563   3.459   0.000   0.000   5.022
   14        1.563   3.459   0.000   0.000   5.022
   15        1.561   3.459   0.000   0.000   5.020
   16        1.560   3.439   0.000   0.000   4.999
   17        1.560   3.439   0.000   0.000   4.999
   18        1.561   3.459   0.000   0.000   5.020
   19        1.562   3.459   0.000   0.000   5.021
   20        1.560   3.438   0.000   0.000   4.998
   21        1.562   3.461   0.000   0.000   5.023
   22        1.562   3.461   0.000   0.000   5.023
   23        1.560   3.438   0.000   0.000   4.998
   24        1.562   3.459   0.000   0.000   5.021
   25        1.562   3.476   0.000   0.000   5.038
   26        1.560   3.437   0.000   0.000   4.996
   27        1.564   3.461   0.000   0.000   5.026
   28        1.560   3.434   0.000   0.000   4.995
   29        1.564   3.461   0.000   0.000   5.026
   30        1.560   3.437   0.000   0.000   4.996
tot         42.468  99.923  45.951   1.152 189.494

 magnetization (x)

[...]

  FORCE on cell =-STRESS in cart. coord.  units (eV):
  Direction    XX          YY          ZZ          XY          YZ          ZX
  Alpha Z   991.03432   991.03432   991.03432
  Ewald   -5306.36967 -5343.29906 -5328.77216    -0.00000     0.00000     2.16520
  Hartree  1238.41469  1219.94286  1224.96746    -0.00000    -0.00000     2.74439
  E(xc)   -1066.75199 -1066.88932 -1066.83598     0.00000    -0.00000    -0.00511
  Local    -775.36111  -727.51315  -744.62147     0.00000     0.00000    -4.81497
  n-local   429.97359   428.66579   428.80151     0.84777     0.67958     0.04116
  augment   633.29238   635.88481   635.04829    -0.00000    -0.00000    -0.04097
  Kinetic  3856.05062  3862.04075  3860.27293    -1.87001    -1.22916    -0.09124
  Fock        0.00000     0.00000     0.00000     0.00000     0.00000     0.00000
  Total       0.28282    -0.13300    -0.10509     0.00000     0.00000    -0.00154
  in kB       1.30701    -0.61462    -0.48565     0.00000     0.00000    -0.00710

 VOLUME and BASIS-vectors are now :
  energy-cutoff  :      520.00
  volume of cell :      346.69
      direct lattice vectors                 reciprocal lattice vectors
     3.859496027 -3.873623146  3.865927805     0.086372640 -0.129078122  0.043106117
     3.859496027  3.873623146  3.865927805     0.086372640  0.129078122  0.043106117
    -3.858004135  0.000000000  7.730364632    -0.086389299  0.000000000  0.086245573

  length of vectors
     6.696720365  6.696720365  8.639602610     0.161181674  0.161181674  0.122071331

 FORCES acting on ions
    electron-ion (+dipol)            ewald-force                    non-local-force                 convergence-correction
   0.291E-03 -.183E-01 -.393E-01   -.112E-02 0.186E-01 0.386E-01   -.208E-03 0.775E-03 0.766E-03   0.722E-03 0.876E-03 0.109E-03
   0.282E+02 0.220E+02 -.267E+02   -.279E+02 -.218E+02 0.264E+02   -.220E+00 -.164E+00 0.169E+00   0.122E-02 0.419E-02 -.277E-02
   -.282E+02 0.220E+02 0.267E+02   0.279E+02 -.218E+02 -.265E+02   0.218E+00 -.163E+00 -.171E+00   -.209E-02 0.405E-02 0.267E-02
   0.291E-03 0.183E-01 -.393E-01   -.112E-02 -.186E-01 0.386E-01   -.208E-03 -.775E-03 0.766E-03   0.722E-03 -.876E-03 0.109E-03
   0.282E+02 -.220E+02 -.267E+02   -.279E+02 0.218E+02 0.264E+02   -.220E+00 0.164E+00 0.169E+00   0.122E-02 -.419E-02 -.277E-02
   -.282E+02 -.220E+02 0.267E+02   0.279E+02 0.218E+02 -.265E+02   0.218E+00 0.163E+00 -.171E+00   -.209E-02 -.405E-02 0.267E-02
   0.268E+02 0.108E-11 -.893E+01   -.264E+02 -.377E-13 0.891E+01   -.402E+00 0.000E+00 0.618E-01   0.643E-02 -.197E-12 0.172E-03
   -.268E+02 0.489E-13 0.895E+01   0.265E+02 -.569E-13 -.893E+01   0.401E+00 0.000E+00 -.617E-01   -.695E-02 0.822E-13 0.895E-03
   0.368E-01 -.282E-11 -.213E-02   -.330E-01 -.218E-13 0.280E-02   -.127E-02 0.000E+00 -.536E-03   -.223E-02 -.245E-12 -.168E-03
   0.367E+01 0.141E-11 -.228E+02   -.361E+01 0.163E-13 0.226E+02   -.591E-01 -.173E-17 0.236E+00   -.334E-02 0.293E-12 0.630E-03
   0.309E-01 -.667E-12 -.391E-01   -.324E-01 -.622E-13 0.393E-01   -.803E-05 0.000E+00 0.395E-02   0.630E-03 0.146E-12 -.296E-02
   -.373E+01 -.200E-12 0.227E+02   0.367E+01 -.589E-13 -.225E+02   0.604E-01 0.000E+00 -.234E+00   0.553E-02 -.183E-12 0.102E-02
   0.940E+01 0.760E-12 -.426E+02   -.936E+01 0.595E-13 0.373E+02   -.631E-01 0.000E+00 0.526E+01   0.128E-02 -.232E-12 -.311E-02
   -.941E+01 -.696E-12 0.426E+02   0.937E+01 -.430E-13 -.373E+02   0.632E-01 0.000E+00 -.527E+01   -.105E-02 -.146E-13 0.540E-02
   -.919E+01 0.109E-11 -.411E+02   0.949E+01 -.907E-14 0.369E+02   -.286E+00 0.000E+00 0.423E+01   -.319E-02 0.129E-12 -.516E-02
   0.725E-01 0.716E-12 -.152E+02   0.291E+00 0.251E-13 0.162E+02   -.377E+00 0.000E+00 -.103E+01   0.451E-03 0.210E-12 -.311E-02
   -.729E-01 -.223E-12 0.153E+02   -.286E+00 0.412E-13 -.163E+02   0.372E+00 0.000E+00 0.104E+01   0.741E-03 0.472E-14 0.164E-02
   0.917E+01 0.164E-11 0.412E+02   -.947E+01 -.460E-13 -.369E+02   0.289E+00 0.000E+00 -.423E+01   0.231E-02 -.156E-12 0.428E-02
   0.104E+02 -.373E+02 -.999E+01   -.106E+02 0.321E+02 0.101E+02   0.146E+00 0.522E+01 -.105E+00   0.127E-02 -.215E-02 -.469E-04
   0.132E-01 -.827E+01 0.306E-03   -.123E-01 0.890E+01 -.977E-03   0.121E-02 -.646E+00 0.676E-03   -.126E-04 -.241E-02 -.687E-03
   -.105E+02 -.373E+02 0.998E+01   0.106E+02 0.321E+02 -.101E+02   -.152E+00 0.521E+01 0.105E+00   -.109E-02 -.688E-02 0.803E-03
   0.104E+02 0.373E+02 -.999E+01   -.106E+02 -.321E+02 0.101E+02   0.146E+00 -.522E+01 -.105E+00   0.127E-02 0.215E-02 -.469E-04
   0.132E-01 0.827E+01 0.306E-03   -.123E-01 -.890E+01 -.977E-03   0.121E-02 0.646E+00 0.676E-03   -.126E-04 0.241E-02 -.687E-03
   -.105E+02 0.373E+02 0.998E+01   0.106E+02 -.321E+02 -.101E+02   -.152E+00 -.521E+01 0.105E+00   -.109E-02 0.688E-02 0.803E-03
   0.337E-01 0.844E-12 0.110E-01   -.394E-01 -.385E-13 -.114E-01   0.218E-02 0.000E+00 -.188E-02   0.262E-02 -.100E-12 0.681E-03
   0.764E+01 0.130E-13 -.809E+01   -.788E+01 -.324E-13 0.812E+01   0.258E+00 0.000E+00 -.515E-01   0.182E-02 0.434E-13 -.659E-03
   -.417E+02 -.522E-12 0.609E+00   0.354E+02 0.175E-13 -.314E+00   0.632E+01 0.000E+00 -.308E+00   -.696E-02 0.179E-12 -.128E-02
   0.190E-01 0.103E-11 -.240E-01   -.181E-01 -.592E-13 0.172E-01   0.183E-02 0.000E+00 0.861E-02   -.234E-02 0.120E-12 -.495E-03
   0.417E+02 -.561E-12 -.597E+00   -.354E+02 -.267E-13 0.300E+00   -.632E+01 0.000E+00 0.312E+00   0.416E-02 -.964E-13 0.347E-03
   -.764E+01 -.292E-12 0.807E+01   0.788E+01 -.171E-13 -.809E+01   -.258E+00 0.000E+00 0.403E-01   0.533E-03 -.199E-12 0.161E-02
   0.197E-02 0.134E-11 -.127E-01   -.355E-13 -.164E-12 -.533E-14   -.873E-02 -.888E-15 0.199E-01   0.502E-03 -.199E-12 -.102E-03

 POSITION                                       TOTAL-FORCE (eV/Angst)
      0.00052     -0.00005      3.86539        -0.000105      0.001962     -0.000030
      0.02255      0.01651      7.71244         0.051306      0.040880     -0.040294
      3.83799      0.01646      3.88438        -0.053602      0.041763      0.038780
      3.86001      0.00005      7.73132        -0.000105     -0.001962     -0.000030
      3.88205     -0.01651     11.57837         0.051306     -0.040880     -0.040294
      3.83799      3.85716      3.88438        -0.053602     -0.041763      0.038780
      1.93463     -1.93681      9.66897        -0.069554      0.000000      0.037417
      1.92726      1.93681     13.52411         0.070932      0.000000     -0.038135
      1.93024     -1.93681      5.79841         0.000501      0.000000     -0.000267
      1.93060      1.93681      9.66283        -0.006399      0.000000      0.015037
      1.93024      1.93681      5.79841        -0.000733      0.000000      0.000906
      1.92989      1.93681      1.93389         0.006306      0.000000     -0.013012
      1.92584     -1.93681      7.77596        -0.013575      0.000000     -0.011391
      1.93476     -1.93681      3.82081         0.017894      0.000000      0.011703
      1.93233      1.93681     11.62050         0.008827      0.000000     -0.002143
      1.92583      1.93681      7.71552        -0.012169      0.000000     -0.012766
      1.93472      1.93681      3.88147         0.014358      0.000000      0.015824
      1.92955     -1.93681     11.57256        -0.009336      0.000000      0.002603
     -1.93179      0.04152      5.79899        -0.010149      0.000124     -0.009853
      5.78982     -0.00823      9.66429         0.002271     -0.014855     -0.000919
      1.93414      0.04140     13.52818         0.006508     -0.002341      0.010398
      1.92771     -0.04152      9.66492        -0.010149     -0.000124     -0.009853
      1.93032      0.00823      5.79836         0.002271      0.014855     -0.000919
     -1.92536     -0.04140      9.66226         0.006508      0.002341      0.010398
      0.00126     -1.93681      9.66351        -0.000737      0.000000     -0.001902
      0.00270     -1.93681      5.79984         0.019627      0.000000     -0.021952
      3.91013      1.93681      5.79544         0.001707      0.000000     -0.014306
      0.00126      1.93681      9.66348         0.000688      0.000000      0.001033
      3.80985     -1.93681      9.66729        -0.002724      0.000000      0.014490
      3.85778     -1.93681      5.79702        -0.018073      0.000000      0.020697
    total drift:                               -0.006261      0.000000      0.007112

  FREE ENERGIE OF THE ION-ELECTRON SYSTEM (eV)
  free  energy   TOTEN  =      -213.97205479 eV

  energy  without entropy=     -213.97205479  energy(sigma->0) =     -213.97205479

 total charge

[...]

 magnetization (x)

# of ion       s       p       d       f       tot
    1        0.000   0.000   0.006   0.003   0.010
    2        0.000   0.001   0.005   0.004   0.010
    3        0.001   0.000   0.009   0.002   0.013
    4        0.000   0.000   0.006   0.003   0.010
    5        0.001   0.000   0.009   0.002   0.013
    6        0.000   0.001   0.005   0.004   0.010
    7        0.025   0.033   3.191   0.000   3.249
    8        0.025   0.033   3.192   0.000   3.249
    9        0.012   0.005   1.485   0.000   1.503
   10        0.010   0.002   1.525   0.000   1.537
   11        0.014   0.005   1.447   0.000   1.465
   12        0.010   0.002   1.525   0.000   1.537
   13        0.005  -0.022   0.000   0.000  -0.017
   14        0.005  -0.022   0.000   0.000  -0.017
   15        0.004  -0.021   0.000   0.000  -0.016
   16        0.005  -0.074   0.000   0.000  -0.069
   17        0.005  -0.074   0.000   0.000  -0.069
   18        0.004  -0.021   0.000   0.000  -0.016
   19        0.005  -0.016   0.000   0.000  -0.011
   20        0.005  -0.071   0.000   0.000  -0.066
   21        0.005  -0.012   0.000   0.000  -0.007
   22        0.005  -0.012   0.000   0.000  -0.007
   23        0.005  -0.071   0.000   0.000  -0.066
   24        0.005  -0.016   0.000   0.000  -0.011
   25        0.001  -0.012   0.000   0.000  -0.011
   26        0.005  -0.075   0.000   0.000  -0.070
   27        0.005  -0.034   0.000   0.000  -0.029
   28        0.005  -0.085   0.000   0.000  -0.080
   29        0.005  -0.034   0.000   0.000  -0.029
   30        0.005  -0.075   0.000   0.000  -0.070
tot          0.184  -0.661  12.406   0.017  11.945

 BZINTS: Fermi energy:  7.445920;228.000000 electrons
         Band energy:-288.003741;  BLOECHL correction: -0.038556