 vasp.5.4.4.18Apr17-6-g9f103f2a35 (build Oct 03 2018 13:58:34) complex

 executed on             LinuxIFC date 2019.06.04  01:53:46

 INCAR:
 POTCAR:    PAW_PBE La 06Sep2000
 POTCAR:    PAW_PBE Mn 06Sep2000
 POTCAR:    PAW_PBE Ni 02Aug2007
 POTCAR:    PAW_PBE O 08Apr2002

 POTCAR:    PAW_PBE La 06Sep2000
   VRHFIN =La : [core=Kr4d]

   TITEL  = PAW_PBE La 06Sep2000
   POMASS =  138.900; ZVAL   =   11.000    mass and valenz
   ENMAX  =  219.292; ENMIN  =  164.469 eV

 POTCAR:    PAW_PBE Mn 06Sep2000
   VRHFIN =Mn: d6 s1

   TITEL  = PAW_PBE Mn 06Sep2000
   POMASS =   54.938; ZVAL   =    7.000    mass and valenz
   ENMAX  =  269.864; ENMIN  =  202.398 eV

 POTCAR:    PAW_PBE Ni 02Aug2007
   VRHFIN =Ni:

   TITEL  = PAW_PBE Ni 02Aug2007
   POMASS =   58.690; ZVAL   =   10.000    mass and valenz
   ENMAX  =  269.532; ENMIN  =  202.149 eV

 POTCAR:    PAW_PBE O 08Apr2002
   VRHFIN =O: s2p4

   TITEL  = PAW_PBE O 08Apr2002
   POMASS =   16.000; ZVAL   =    6.000    mass and valenz
   ENMAX  =  400.000; ENMIN  =  300.000 eV

 Optimization of the real space projectors (new method)

 maximal supplied QI-value         = 13.42
 optimisation between [QCUT,QGAM] = [ 11.67, 23.35] = [ 38.16,152.62] Ry
 Optimized for a Real-space Cutoff    1.63 Angstroem

   l    n(q)    QCUT    max X(q) W(low)/X(q) W(high)/X(q)  e(spline)
   0     11    11.673    13.882    0.27E-04    0.79E-05    0.11E-06
   0     11    11.673    12.184    0.39E-04    0.13E-04    0.19E-06
   1     11    11.673     4.523    0.73E-05    0.76E-05    0.12E-06
   1     11    11.673     4.424    0.87E-05    0.13E-04    0.19E-06
   2     10    11.673    52.481    0.65E-04    0.36E-04    0.18E-06
   2     10    11.673    38.501    0.61E-04    0.33E-04    0.17E-06
   3     10    11.673    65.631    0.17E-03    0.14E-03    0.37E-06
   3     10    11.673    56.854    0.17E-03    0.14E-03    0.37E-06
 Optimization of the real space projectors (new method)

[...]

   l    n(q)    QCUT    max X(q) W(low)/X(q) W(high)/X(q)  e(spline)
   2      9    11.539    60.317    0.19E-03    0.47E-04    0.16E-06
   2      9    11.539    55.921    0.19E-03    0.48E-04    0.16E-06
   0     10    11.539    51.690    0.80E-04    0.50E-04    0.24E-06
   0     10    11.539    30.015    0.73E-04    0.45E-04    0.22E-06
   1     10    11.539    18.849    0.87E-04    0.16E-03    0.71E-07
   1     10    11.539    14.624    0.73E-04    0.13E-03    0.64E-07
 Optimization of the real space projectors (new method)

 maximal supplied QI-value         = 24.76
 optimisation between [QCUT,QGAM] = [ 11.64, 23.27] = [ 37.91,151.63] Ry
 Optimized for a Real-space Cutoff    1.14 Angstroem

   l    n(q)    QCUT    max X(q) W(low)/X(q) W(high)/X(q)  e(spline)
   0      8    11.635    20.381    0.10E-03    0.33E-03    0.24E-06
   0      8    11.635    15.268    0.11E-03    0.35E-03    0.26E-06
   1      7    11.635     5.964    0.24E-03    0.31E-03    0.30E-06
   1      7    11.635     5.382    0.22E-03    0.25E-03    0.26E-06
  PAW_PBE La 06Sep2000                  :
  PAW_PBE Mn 06Sep2000                  :
  PAW_PBE Ni 02Aug2007                  :
  PAW_PBE O 08Apr2002                   :

 POSCAR: SCEL4_1_2_2_0_0_0/1
  positions in direct lattice
  velocities in cartesian coordinates
 exchange correlation table for  LEXCH =        8
   RHO(1)=    0.500       N(1)  =     2000
   RHO(2)=  100.500       N(2)  =     4000

 ion  position               nearest neighbor table
   1  0.000  0.496  0.004-  20 2.69  15 2.71  12 2.71  12 2.71  15 2.71  19 2.73  18 2.73  11 2.75
                            11 2.75  13 2.75  13 2.75  17 2.77   6 3.31   6 3.31   7 3.34   7 3.34
   2  0.000  0.004  0.496-  20 2.69  16 2.71  10 2.71  10 2.71  16 2.71  19 2.73  18 2.73   9 2.75
                             9 2.75  14 2.75  14 2.75  17 2.77   6 3.31   6 3.31   7 3.34   7 3.34
   3  0.000  0.496  0.496-  20 2.69  15 2.71  10 2.71  10 2.71  15 2.71  19 2.73  18 2.73   9 2.75
                             9 2.75  13 2.75  13 2.75  17 2.77   6 3.31   6 3.31   7 3.34   7 3.34
   4  0.000  0.004  0.004-  20 2.69  16 2.71  12 2.71  12 2.71  16 2.71  19 2.73  18 2.73  11 2.75
                            11 2.75  14 2.75  14 2.75  17 2.77   6 3.31   6 3.31   7 3.34   7 3.34
   5  0.500  0.750  0.750-   9 1.89  11 1.89  13 1.89  14 1.89  17 1.93  17 1.93   3 3.38   4 3.38
                             1 3.38   1 3.38   2 3.38   3 3.38   4 3.38   2 3.38
   6  0.500  0.250  0.250-  20 1.93  20 1.93  15 1.93  16 1.93  10 1.93  12 1.93   3 3.31   4 3.31
                             1 3.31   1 3.31   2 3.31   3 3.31   4 3.31   2 3.31
   7  0.500  0.750  0.250-  19 1.93  19 1.93  15 1.94  16 1.94   9 1.97  11 1.97   3 3.34   4 3.34
                             1 3.34   1 3.34   2 3.34   3 3.34   4 3.34   2 3.34
   8  0.500  0.250  0.750-  18 1.93  18 1.93  10 1.94  12 1.94  13 1.97  14 1.97   3 3.34   4 3.34
                             1 3.34   1 3.34   2 3.34   3 3.34   4 3.34   2 3.34
   9  0.500  0.750  0.505-   5 1.89   7 1.97   2 2.75   3 2.75   2 2.75   3 2.75
  10  0.500  0.250  0.499-   6 1.93   8 1.94   2 2.71   3 2.71   2 2.71   3 2.71
  11  0.500  0.750  0.995-   5 1.89   7 1.97   1 2.75   4 2.75   1 2.75   4 2.75
  12  0.500  0.250  0.001-   6 1.93   8 1.94   1 2.71   4 2.71   1 2.71   4 2.71
  13  0.500  0.505  0.750-   5 1.89   8 1.97   1 2.75   3 2.75   1 2.75   3 2.75
  14  0.500  0.995  0.750-   5 1.89   8 1.97   2 2.75   4 2.75   2 2.75   4 2.75
  15  0.500  0.499  0.250-   6 1.93   7 1.94   1 2.71   3 2.71   1 2.71   3 2.71
  16  0.500  0.001  0.250-   6 1.93   7 1.94   2 2.71   4 2.71   2 2.71   4 2.71
  17  0.000  0.750  0.750-   5 1.93   5 1.93   3 2.77   4 2.77   1 2.77   2 2.77
  18  0.000  0.250  0.750-   8 1.93   8 1.93   3 2.73   4 2.73   1 2.73   2 2.73
  19  0.000  0.750  0.250-   7 1.93   7 1.93   3 2.73   4 2.73   1 2.73   2 2.73
  20  0.000  0.250  0.250-   6 1.93   6 1.93   3 2.69   4 2.69   1 2.69   2 2.69

  LATTYP: Found a simple tetragonal cell.
 ALAT       =     7.7271933445
 C/A-ratio  =     0.4983880605

  Lattice vectors:

 A1 = (   0.0000000000,   7.7271933445,   0.0000000000)
 A2 = (   0.0000000000,   0.0000000000,  -7.7271933445)
 A3 = (  -3.8511409039,   0.0000000000,   0.0000000000)

Analysis of symmetry for initial positions (statically):
 Subroutine PRICEL returns:
 Original cell was already a primitive cell.

 Routine SETGRP: Setting up the symmetry group for a
 simple tetragonal supercell.

 Subroutine GETGRP returns: Found 16 space group operations
 (whereof  4 operations were pure point group operations)
 out of a pool of 16 trial point group operations.

The static configuration has the point symmetry C_2v.
 The point group associated with its full space group is D_4h.

Analysis of symmetry for dynamics (positions and initial velocities):
 Subroutine PRICEL returns:
 Original cell was already a primitive cell.

[...]

The dynamic configuration has the point symmetry C_2v.
 The point group associated with its full space group is D_4h.

Analysis of structural, dynamic, and magnetic symmetry:
 Subroutine PRICEL returns:
 Original cell was already a primitive cell.

 Routine SETGRP: Setting up the symmetry group for a
 simple tetragonal supercell.

 Subroutine GETGRP returns: Found 16 space group operations
 (whereof  4 operations were pure point group operations)
 out of a pool of 16 trial point group operations.

The magnetic configuration has the point symmetry C_2v.
 The point group associated with its full space group is D_4h.

 Subroutine INISYM returns: Found 16 space group operations
 (whereof  4 operations are pure point group operations),
 and found     1 'primitive' translations

 KPOINTS: Automatic mesh

Automatic generation of k-mesh.
 generate k-points for:    5    3    3
Space group operators:
 irot       det(A)        alpha          n_x          n_y          n_z        tau_x        tau_y        tau_z
    1     1.000000     0.000000     1.000000     0.000000     0.000000     0.000000     0.000000     0.000000
    2    -1.000000   180.000000     1.000000     0.000000     0.000000     0.000000     0.000000     0.000000
    3    -1.000000   180.000000     0.000000    -0.707107     0.707107     0.000000     0.000000     0.000000
    4     1.000000   180.000000     0.000000     0.707107     0.707107     0.000000     0.000000     0.000000
    5    -1.000000     0.000000     1.000000     0.000000     0.000000     0.000000     0.500000    -0.500000
    6     1.000000    90.000000     1.000000     0.000000     0.000000     0.000000     0.000000    -0.500000
    7    -1.000000    90.000000     1.000000     0.000000     0.000000     0.000000     0.500000     0.000000
    8     1.000000   180.000000     1.000000     0.000000     0.000000     0.000000     0.500000    -0.500000
    9     1.000000    90.000000    -1.000000     0.000000     0.000000     0.000000     0.500000     0.000000
   10    -1.000000    90.000000    -1.000000     0.000000     0.000000     0.000000     0.000000    -0.500000
   11     1.000000   180.000000     0.000000     0.000000     1.000000     0.000000     0.500000     0.000000
   12    -1.000000   180.000000     0.000000     0.000000     1.000000     0.000000     0.000000    -0.500000
   13     1.000000   180.000000     0.000000    -0.707107     0.707107     0.000000     0.500000    -0.500000
   14     1.000000   180.000000     0.000000     1.000000     0.000000     0.000000     0.000000    -0.500000
   15    -1.000000   180.000000     0.000000     1.000000     0.000000     0.000000     0.500000     0.000000
   16    -1.000000   180.000000     0.000000     0.707107     0.707107     0.000000     0.500000    -0.500000

 Subroutine IBZKPT returns following result:

 Found      9 irreducible k-points:

 Following reciprocal coordinates:
            Coordinates               Weight
  0.000000  0.000000  0.000000      1.000000
  0.200000  0.000000  0.000000      2.000000
  0.400000  0.000000  0.000000      2.000000
  0.000000  0.333333  0.000000      4.000000
  0.200000  0.333333  0.000000      8.000000
  0.400000  0.333333  0.000000      8.000000
  0.000000  0.333333  0.333333      4.000000
  0.200000  0.333333  0.333333      8.000000
  0.400000  0.333333  0.333333      8.000000

 Following cartesian coordinates:
            Coordinates               Weight
  0.000000  0.000000  0.000000      1.000000
  0.051933  0.000000  0.000000      2.000000
  0.103865  0.000000  0.000000      2.000000
  0.000000  0.043138  0.000000      4.000000
  0.051933  0.043138  0.000000      8.000000
  0.103865  0.043138  0.000000      8.000000
  0.000000  0.043138  0.043138      4.000000
  0.051933  0.043138  0.043138      8.000000
  0.103865  0.043138  0.043138      8.000000

 TETIRR: Found     59 inequivalent tetrahedra from      270

 SYSTEM =  final
 POSCAR =  SCEL4_1_2_2_0_0_0/1

 Startparameter for this run:
   NWRITE =      2    write-flag & timer
   PREC   = accura    normal or accurate (medium, high low for compatibility)
   ISTART =      0    job   : 0-new  1-cont  2-samecut
   ICHARG =      1    charge: 1-file 2-atom 10-const
   ISPIN  =      2    spin polarized calculation?
   LNONCOLLINEAR =      F non collinear calculations
[...]
  0.5231  0.5231

[...]

--------------------------------------- Iteration      1(  18)  ---------------------------------------

atom =   1  type =  1  l = 0

[...]

  o =  0.7850  v =  0.0000  1.0000      0.0000  0.0000
  o =  0.7901  v =  1.0000  0.0000      0.0000  0.0000
atom =  20  type =  4  l = 0

 onsite density matrix

[...]

  0.7861

 occupancies and eigenvectors

  o =  0.7861  v =  0.0000  1.0000      0.0000  0.0000
  o =  0.7918  v =  1.0000  0.0000      0.0000  0.0000
 BZINTS: Fermi energy:  7.491613;153.000000 electrons
         Band energy:-178.447571;  BLOECHL correction: -0.044351

 eigenvalue-minimisations  :  3464
 total energy-change (2. order) :-0.8808369E-03  (-0.8778189E-03)
 number of electron     153.0000093 magnetization       7.0031891
 augmentation part       22.2558084 magnetization       5.7741188

 Free energy of the ion-electron system (eV)
  alpha Z        PSCENC =       662.25881728
  Ewald energy   TEWEN  =    -10787.17024581
  -Hartree energ DENC   =     -2544.83284699
  -exchange      EXHF   =         0.00000000
  -V(xc)+E(xc)   XCENC  =       551.63561760
  PAW double counting   =     13029.00965766   -13174.58388083
  entropy T*S    EENTRO =         0.00000000
  eigenvalues    EBANDS =      -178.44757066
  atomic energy  EATOM  =     12301.96174248
  Solvation  Ediel_sol  =         0.00000000
  free energy    TOTEN  =      -140.16870927 eV

  energy without entropy =     -140.16870927  energy(sigma->0) =     -140.16870927

 average (electrostatic) potential at core
  the test charge radii are     1.1480  1.0210  0.9791  0.7215
  (the norm of the test charge is              1.0000)
       1 -95.0517       2 -95.0517       3 -95.0517       4 -95.0517       5 -43.1191
       6 -83.9302       7 -83.7338       8 -83.7338       9 -66.7002      10 -66.6417
      11 -66.7002      12 -66.6417      13 -66.7002      14 -66.7002      15 -66.6417
      16 -66.6417      17 -67.0659      18 -66.4934      19 -66.4934      20 -66.7711

 E-fermi :   7.4916     XC(G=0): -11.8250     alpha+bet :-16.8606

[...]

 k-point     1 :       0.0000    0.0000    0.0000
  band No.  band energies     occupation
      1     -23.5831      1.00000
      2     -23.5127      1.00000
      3     -23.5127      1.00000
      4     -23.4535      1.00000
      5     -11.2507      1.00000
      6     -10.9658      1.00000
      7     -10.6545      1.00000
      8     -10.0749      1.00000
      9     -10.0749      1.00000
     10      -9.9317      1.00000
     11      -9.4543      1.00000
     12      -9.4208      1.00000
     13      -9.4208      1.00000
     14      -9.3812      1.00000
     15      -9.2645      1.00000
     16      -9.1710      1.00000
     17      -7.0931      1.00000
     18      -7.0931      1.00000
     19      -7.0880      1.00000
     20      -7.0034      1.00000
     21      -6.9692      1.00000
     22      -6.9692      1.00000
     23      -6.9471      1.00000
     24      -6.8403      1.00000
     25      -6.5856      1.00000
     26      -6.5856      1.00000
     27      -6.2429      1.00000
     28      -6.1819      1.00000
     29       0.3336      1.00000
     30       0.4048      1.00000
     31       0.6487      1.00000
     32       0.7666      1.00000
     33       1.1097      1.00000
     34       1.9301      1.00000
     35       1.9301      1.00000
     36       2.1652      1.00000
     37       2.2363      1.00000
     38       2.2363      1.00000
     39       2.3279      1.00000
     40       2.6186      1.00000
     41       2.6186      1.00000
     42       2.7332      1.00000
     43       2.8306      1.00000
     44       2.8306      1.00000
     45       3.0456      1.00000
     46       3.1917      1.00000
     47       3.1922      1.00000
     48       3.1922      1.00000
     49       3.2439      1.00000
     50       3.3407      1.00000
     51       3.4911      1.00000
     52       3.5252      1.00000
     53       3.5252      1.00000
     54       3.9049      1.00000
     55       4.0932      1.00000
     56       4.3931      1.00000
     57       4.5596      1.00000
     58       4.5596      1.00000
     59       4.6534      1.00000
     60       4.6535      1.00000
[...]
     84      10.0451      0.00000
     85      10.5471      0.00000
     86      10.6780      0.00000
     87      11.1530      0.00000
     88      11.1622      0.00000
     89      11.2456      0.00000
     90      11.3378      0.00000
     91      11.4091      0.00000
     92      11.4373      0.00000
     93      11.4728      0.00000
     94      11.4927      0.00000
     95      11.5054      0.00000
     96      11.5403      0.00000
     97      11.5919      0.00000
     98      11.6431      0.00000

[...]

 spin component 2

[...]

 k-point     9 :       0.4000    0.3333    0.3333
  band No.  band energies     occupation
      1     -23.4858      1.00000
      2     -23.4555      1.00000
      3     -23.4554      1.00000
      4     -23.4271      1.00000
      5     -10.7788      1.00000
      6     -10.5295      1.00000
      7     -10.3969      1.00000
      8     -10.1994      1.00000
      9     -10.0575      1.00000
     10      -9.8835      1.00000
     11      -9.7584      1.00000
     12      -9.5468      1.00000
     13      -9.4904      1.00000
     14      -9.3980      1.00000
     15      -9.3889      1.00000
     16      -9.2216      1.00000
     17      -7.3798      1.00000
     18      -7.2315      1.00000
     19      -7.1618      1.00000
     20      -7.1315      1.00000
     21      -7.0859      1.00000
     22      -6.8853      1.00000
     23      -6.8549      1.00000
     24      -6.7958      1.00000
     25      -6.7277      1.00000
     26      -6.6255      1.00000
     27      -6.5720      1.00000
     28      -6.4454      1.00000
     29       1.4515      1.00000
     30       1.8161      1.00000
     31       1.8331      1.00000
     32       2.0933      1.00000
     33       2.1621      1.00000
     34       2.1799      1.00000
     35       2.4250      1.00000
     36       2.5181      1.00000
     37       2.6051      1.00000
     38       2.6735      1.00000
     39       2.7372      1.00000
     40       2.8449      1.00000
     41       2.9286      1.00000
     42       3.3113      1.00000
     43       3.3476      1.00000
     44       3.5650      1.00000
     45       3.5748      1.00000
     46       3.6933      1.00000
     47       3.7183      1.00000
     48       3.8954      1.00000
     49       3.9243      1.00000
     50       4.1068      1.00000
     51       4.1098      1.00000
     52       4.4122      1.00000
     53       5.3175      1.00000
     54       5.3933      1.00000
     55       5.6312      1.00000
     56       5.6313      1.00000
     57       5.8121      1.00000
     58       5.8497      1.00000
     59       5.8973      1.00000
     60       5.9193      1.00000
[...]
     84      11.3083      0.00000
     85      11.3327      0.00000
     86      11.3787      0.00000
     87      11.3919      0.00000
     88      11.4207      0.00000
     89      11.4280      0.00000
     90      11.4386      0.00000
     91      11.4611      0.00000
     92      11.4753      0.00000
     93      11.4857      0.00000
     94      11.5040      0.00000
     95      11.5145      0.00000
     96      11.5701      0.00000
     97      11.6045      0.00000
     98      11.6250      0.00000

 soft charge-density along one line, spin component           1
         0         1         2         3         4         5         6         7         8         9
 total charge-density along one line

 soft charge-density along one line, spin component           2
         0         1         2         3         4         5         6         7         8         9
 total charge-density along one line

------------------------ aborting loop because EDIFF is reached ----------------------------------------

 total charge

# of ion       s       p       d       f       tot
    1        2.000   5.701   0.497   0.193   8.391
    2        2.000   5.701   0.497   0.193   8.391
    3        2.000   5.701   0.496   0.193   8.390
    4        2.000   5.701   0.496   0.193   8.391
    5        0.352   0.569   4.864   0.000   5.784
    6        0.432   0.655   8.323   0.000   9.410
    7        0.413   0.619   8.316   0.000   9.347
    8        0.414   0.616   8.311   0.000   9.341
    9        1.564   3.466   0.000   0.000   5.029
   10        1.562   3.443   0.000   0.000   5.005
   11        1.564   3.466   0.000   0.000   5.029
   12        1.562   3.443   0.000   0.000   5.005
   13        1.563   3.446   0.000   0.000   5.009
   14        1.563   3.446   0.000   0.000   5.009
   15        1.561   3.434   0.000   0.000   4.995
   16        1.561   3.434   0.000   0.000   4.995
   17        1.561   3.471   0.000   0.000   5.032
   18        1.560   3.442   0.000   0.000   5.001
   19        1.560   3.438   0.000   0.000   4.998
   20        1.563   3.442   0.000   0.000   5.004
tot         28.354  66.634  31.799   0.772 127.559

 magnetization (x)

[...]

  FORCE on cell =-STRESS in cart. coord.  units (eV):
  Direction    XX          YY          ZZ          XY          YZ          ZX
  Alpha Z   662.25882   662.25882   662.25882
  Ewald   -3556.35873 -3615.42098 -3615.42098     0.00000     0.00000    -0.00000
  Hartree   879.13278   832.67085   832.67085    -0.00000    -0.00000    -0.00000
  E(xc)    -717.95693  -718.16456  -718.16456    -0.00000     0.00000    -0.00000
  Local    -602.74076  -501.85777  -501.85777    -0.00000     0.00000    -0.00000
  n-local   290.92294   290.74521   290.06620     0.90456     0.21839     0.43574
  augment   470.28229   471.87530   471.87530     0.00000    -0.00000     0.00000
  Kinetic  2573.95022  2576.09713  2580.38878    -2.61811    -1.34653    -1.42068
  Fock        0.00000     0.00000     0.00000     0.00000     0.00000     0.00000
  Total      -0.50937     0.01032     0.01032     0.00000    -0.00000     0.00000
  in kB      -3.54904     0.07187     0.07187     0.00000    -0.00000     0.00000

 VOLUME and BASIS-vectors are now :
  energy-cutoff  :      520.00
  volume of cell :      229.95
      direct lattice vectors                 reciprocal lattice vectors
     3.851140904  0.000000000  0.000000000     0.259663311  0.000000000  0.000000000
     0.000000000  7.727193344  0.000000000     0.000000000  0.129413094  0.000000000
     0.000000000  0.000000000  7.727193344     0.000000000  0.000000000  0.129413094

  length of vectors
     3.851140904  7.727193344  7.727193344     0.259663311  0.129413094  0.129413094

 FORCES acting on ions
    electron-ion (+dipol)            ewald-force                    non-local-force                 convergence-correction
   -.700E-14 -.551E+02 0.551E+02   0.241E-14 0.548E+02 -.548E+02   0.000E+00 0.289E+00 -.289E+00   0.360E-14 0.104E-01 -.104E-01
   -.892E-14 0.551E+02 -.551E+02   -.668E-14 -.548E+02 0.548E+02   0.000E+00 -.289E+00 0.289E+00   0.429E-14 -.104E-01 0.104E-01
   -.778E-14 -.551E+02 -.551E+02   -.390E-13 0.548E+02 0.548E+02   0.000E+00 0.289E+00 0.289E+00   0.197E-14 0.104E-01 0.104E-01
   -.226E-14 0.551E+02 0.551E+02   0.117E-13 -.548E+02 -.548E+02   0.000E+00 -.289E+00 -.289E+00   0.665E-14 -.104E-01 -.104E-01
   0.686E-13 0.166E-11 0.131E-11   0.155E-13 -.221E-13 0.980E-14   0.000E+00 0.000E+00 0.296E-20   0.797E-14 -.849E-13 -.283E-12
   0.306E-12 0.456E-11 -.932E-13   -.803E-15 -.371E-14 0.207E-13   0.000E+00 0.000E+00 0.000E+00   0.402E-13 0.258E-12 0.448E-12
   0.308E-12 0.271E-12 -.142E-11   0.144E-13 0.417E-14 0.484E-13   0.000E+00 0.000E+00 0.169E-20   0.483E-13 -.148E-12 0.493E-12
   0.307E-12 0.295E-13 0.215E-11   0.918E-14 0.745E-13 0.634E-13   0.000E+00 0.000E+00 0.000E+00   0.429E-13 0.199E-12 -.341E-12
   0.119E-12 0.129E-11 -.566E+02   0.172E-13 -.187E-13 0.517E+02   0.000E+00 0.000E+00 0.492E+01   0.951E-14 -.715E-13 0.628E-02
   0.119E-12 0.164E-11 -.220E+02   -.989E-14 -.101E-13 0.225E+02   -.108E-18 -.108E-18 -.476E+00   0.207E-13 0.149E-12 -.146E-02
   0.120E-12 0.171E-11 0.566E+02   -.924E-14 -.336E-13 -.517E+02   0.000E+00 -.542E-19 -.492E+01   0.187E-13 -.753E-13 -.628E-02
   0.125E-12 0.145E-11 0.220E+02   0.497E-14 0.266E-13 -.225E+02   0.000E+00 0.108E-18 0.476E+00   0.105E-13 0.134E-12 0.146E-02
   0.121E-12 -.566E+02 -.189E-06   0.975E-14 0.517E+02 -.829E-14   0.000E+00 0.492E+01 0.000E+00   0.197E-13 0.628E-02 -.254E-12
   0.115E-12 0.566E+02 0.189E-06   0.168E-14 -.517E+02 -.309E-13   0.000E+00 -.492E+01 0.136E-18   0.114E-13 -.628E-02 -.233E-12
   0.120E-12 -.220E+02 -.646E-06   -.223E-13 0.225E+02 -.611E-14   -.109E-18 -.476E+00 0.542E-19   0.139E-13 -.146E-02 0.295E-12
   0.124E-12 0.220E+02 0.646E-06   0.166E-13 -.225E+02 -.121E-13   -.271E-19 0.476E+00 0.000E+00   0.154E-13 0.146E-02 0.298E-12
   -.547E-14 0.400E-12 0.386E-12   -.101E-13 0.709E-13 0.181E-13   0.000E+00 0.000E+00 -.678E-20   -.596E-14 -.697E-13 -.280E-12
   -.759E-14 0.921E-13 0.371E-12   0.122E-14 -.455E-13 0.453E-13   0.339E-20 0.000E+00 0.542E-19   -.116E-13 0.139E-12 -.240E-12
   -.941E-14 0.391E-12 0.858E-13   0.130E-14 0.313E-13 -.178E-13   0.000E+00 -.424E-19 0.000E+00   -.117E-13 -.785E-13 0.281E-12
   -.802E-14 0.806E-13 0.833E-13   0.841E-14 -.745E-13 -.254E-14   0.000E+00 -.271E-19 0.339E-20   -.105E-13 0.149E-12 0.245E-12
   0.190E-11 0.155E-10 0.387E-11   0.163E-13 0.249E-13 0.711E-13   -.241E-18 0.554E-16 -.388E-15   0.236E-12 0.301E-12 0.289E-12

 POSITION                                       TOTAL-FORCE (eV/Angst)
      0.00000      3.83372      0.02988        -0.000000     -0.091322      0.091322
      0.00000      0.02988      3.83372        -0.000000      0.091322     -0.091322
      0.00000      3.83372      3.83372        -0.000000     -0.091322     -0.091322
      0.00000      0.02988      0.02988        -0.000000      0.091322      0.091322
      1.92557      5.79540      5.79540        -0.000000      0.000000     -0.000000
      1.92557      1.93180      1.93180        -0.000000      0.000000     -0.000000
      1.92557      5.79540      1.93180         0.000000      0.000000     -0.000000
      1.92557      1.93180      5.79540         0.000000      0.000000     -0.000000
      1.92557      5.79540      3.90203         0.000000      0.000000      0.032975
      1.92557      1.93180      3.85955        -0.000000      0.000000     -0.018225
      1.92557      5.79540      7.68876        -0.000000      0.000000     -0.032975
      1.92557      1.93180      0.00405        -0.000000      0.000000      0.018225
      1.92557      3.90203      5.79540        -0.000000      0.032975     -0.000000
      1.92557      7.68876      5.79540         0.000000     -0.032975     -0.000000
      1.92557      3.85955      1.93180        -0.000000     -0.018225     -0.000000
      1.92557      0.00405      1.93180        -0.000000      0.018225     -0.000000
      0.00000      5.79540      5.79540        -0.000000      0.000000     -0.000000
      0.00000      1.93180      5.79540        -0.000000      0.000000     -0.000000
      0.00000      5.79540      1.93180        -0.000000      0.000000     -0.000000
      0.00000      1.93180      1.93180        -0.000000      0.000000     -0.000000
    total drift:                                0.000000      0.000000      0.000000

  FREE ENERGIE OF THE ION-ELECTRON SYSTEM (eV)
  free  energy   TOTEN  =      -140.16870927 eV

  energy  without entropy=     -140.16870927  energy(sigma->0) =     -140.16870927

 total charge

[...]

 magnetization (x)

# of ion       s       p       d       f       tot
    1        0.000   0.000   0.006   0.003   0.009
    2        0.000   0.000   0.006   0.003   0.009
    3        0.000   0.000   0.006   0.003   0.009
    4        0.000   0.000   0.006   0.003   0.009
    5        0.019   0.028   3.213   0.000   3.260
    6        0.017   0.012   1.345   0.000   1.374
    7        0.013   0.008   1.474   0.000   1.494
    8        0.013   0.006   1.461   0.000   1.479
    9        0.006  -0.022   0.000   0.000  -0.015
   10        0.007  -0.086   0.000   0.000  -0.079
   11        0.006  -0.022   0.000   0.000  -0.015
   12        0.007  -0.086   0.000   0.000  -0.079
   13        0.004  -0.026   0.000   0.000  -0.022
   14        0.004  -0.026   0.000   0.000  -0.022
   15        0.005  -0.075   0.000   0.000  -0.070
   16        0.005  -0.075   0.000   0.000  -0.070
   17       -0.001  -0.043   0.000   0.000  -0.044
   18        0.005  -0.069   0.000   0.000  -0.064
   19        0.005  -0.071   0.000   0.000  -0.066
   20        0.006  -0.087   0.000   0.000  -0.082
tot          0.120  -0.632   7.516   0.010   7.014

 BZINTS: Fermi energy:  7.491613;153.000000 electrons
         Band energy:-178.447571;  BLOECHL correction: -0.044351