 vasp.5.4.4.18Apr17-6-g9f103f2a35 (build Oct 03 2018 13:58:34) complex

 executed on             LinuxIFC date 2019.06.04  02:05:09

 INCAR:
 POTCAR:    PAW_PBE La 06Sep2000
 POTCAR:    PAW_PBE Mn 06Sep2000
 POTCAR:    PAW_PBE Ni 02Aug2007
 POTCAR:    PAW_PBE O 08Apr2002

 POTCAR:    PAW_PBE La 06Sep2000
   VRHFIN =La : [core=Kr4d]

   TITEL  = PAW_PBE La 06Sep2000
   POMASS =  138.900; ZVAL   =   11.000    mass and valenz
   ENMAX  =  219.292; ENMIN  =  164.469 eV

 POTCAR:    PAW_PBE Mn 06Sep2000
   VRHFIN =Mn: d6 s1

   TITEL  = PAW_PBE Mn 06Sep2000
   POMASS =   54.938; ZVAL   =    7.000    mass and valenz
   ENMAX  =  269.864; ENMIN  =  202.398 eV

 POTCAR:    PAW_PBE Ni 02Aug2007
   VRHFIN =Ni:

   TITEL  = PAW_PBE Ni 02Aug2007
   POMASS =   58.690; ZVAL   =   10.000    mass and valenz
   ENMAX  =  269.532; ENMIN  =  202.149 eV

 POTCAR:    PAW_PBE O 08Apr2002
   VRHFIN =O: s2p4

   TITEL  = PAW_PBE O 08Apr2002
   POMASS =   16.000; ZVAL   =    6.000    mass and valenz
   ENMAX  =  400.000; ENMIN  =  300.000 eV

 Optimization of the real space projectors (new method)

 maximal supplied QI-value         = 13.42
 optimisation between [QCUT,QGAM] = [ 11.67, 23.35] = [ 38.16,152.62] Ry
 Optimized for a Real-space Cutoff    1.63 Angstroem

   l    n(q)    QCUT    max X(q) W(low)/X(q) W(high)/X(q)  e(spline)
   0     11    11.673    13.882    0.27E-04    0.79E-05    0.11E-06
   0     11    11.673    12.184    0.39E-04    0.13E-04    0.19E-06
   1     11    11.673     4.523    0.73E-05    0.76E-05    0.12E-06
   1     11    11.673     4.424    0.87E-05    0.13E-04    0.19E-06
   2     10    11.673    52.481    0.65E-04    0.36E-04    0.18E-06
   2     10    11.673    38.501    0.61E-04    0.33E-04    0.17E-06
   3     10    11.673    65.631    0.17E-03    0.14E-03    0.37E-06
   3     10    11.673    56.854    0.17E-03    0.14E-03    0.37E-06
 Optimization of the real space projectors (new method)

[...]

   l    n(q)    QCUT    max X(q) W(low)/X(q) W(high)/X(q)  e(spline)
   2      9    11.539    60.317    0.19E-03    0.47E-04    0.16E-06
   2      9    11.539    55.921    0.19E-03    0.48E-04    0.16E-06
   0     10    11.539    51.690    0.80E-04    0.50E-04    0.24E-06
   0     10    11.539    30.015    0.73E-04    0.45E-04    0.22E-06
   1     10    11.539    18.849    0.87E-04    0.16E-03    0.71E-07
   1     10    11.539    14.624    0.73E-04    0.13E-03    0.64E-07
 Optimization of the real space projectors (new method)

 maximal supplied QI-value         = 24.76
 optimisation between [QCUT,QGAM] = [ 11.64, 23.27] = [ 37.91,151.63] Ry
 Optimized for a Real-space Cutoff    1.14 Angstroem

   l    n(q)    QCUT    max X(q) W(low)/X(q) W(high)/X(q)  e(spline)
   0      8    11.635    20.381    0.10E-03    0.33E-03    0.24E-06
   0      8    11.635    15.268    0.11E-03    0.35E-03    0.26E-06
   1      7    11.635     5.964    0.24E-03    0.31E-03    0.30E-06
   1      7    11.635     5.382    0.22E-03    0.25E-03    0.26E-06
  PAW_PBE La 06Sep2000                  :
  PAW_PBE Mn 06Sep2000                  :
  PAW_PBE Ni 02Aug2007                  :
  PAW_PBE O 08Apr2002                   :

 POSCAR: SCEL6_1_3_2_1_0_0/4
  positions in direct lattice
  velocities in cartesian coordinates
 exchange correlation table for  LEXCH =        8
   RHO(1)=    0.500       N(1)  =     2000
   RHO(2)=  100.500       N(2)  =     4000

 ion  position               nearest neighbor table
   1  0.000  0.666  0.168-  22 2.72  22 2.72  17 2.74  17 2.74  28 2.74  30 2.74  29 2.75  23 2.75
                            23 2.75  13 2.75  13 2.75  25 2.77  12 3.34  12 3.34   9 3.35   9 3.35
   2  0.000  0.322  0.330-  29 2.66  21 2.71  21 2.71  18 2.71  18 2.71  30 2.76  27 2.77  22 2.81
                            22 2.81  16 2.82  16 2.82  11 3.30  11 3.30  12 3.37  12 3.37  10 3.37
   3  0.000  0.012  0.494-  21 2.63  21 2.63  29 2.65  27 2.66  17 2.76  17 2.76  15 2.76  15 2.76
                            11 3.28  11 3.28  10 3.29  10 3.29   2 3.67
   4  0.000  0.656  0.663-  27 2.65  16 2.68  16 2.68  19 2.71  19 2.71  28 2.72  25 2.76  20 2.77
                            20 2.77  14 2.79  14 2.79  10 3.28  10 3.28   9 3.35   9 3.35   8 3.38
   5  0.000  0.332  0.833-  30 2.73  27 2.73  24 2.73  24 2.73  15 2.73  15 2.73  26 2.74  13 2.75
                            13 2.75  25 2.75  19 2.75  19 2.75  12 3.35  12 3.35   7 3.36   7 3.36
   6  0.000  0.013  0.012-  18 2.63  18 2.63  30 2.64  29 2.65  24 2.75  24 2.75  23 2.76  23 2.76
                            11 3.28  11 3.28  12 3.29  12 3.29   2 3.67
   7  0.500  0.999  0.750-  24 1.89  15 1.89  20 1.94  26 1.94  26 1.94  14 1.94   5 3.36   5 3.36
                             4 3.43   4 3.43
   8  0.500  0.668  0.917-  23 1.89  13 1.89  19 1.90  14 1.93  25 1.94  25 1.94   1 3.37   1 3.37
                             5 3.38   5 3.38   4 3.38   4 3.38
   9  0.500  0.667  0.417-  22 1.89  17 1.89  16 1.90  28 1.94  28 1.94  20 1.94   1 3.35   1 3.35
                             4 3.35   4 3.35
  10  0.500  0.334  0.584-  27 1.94  27 1.94  21 1.95  19 1.97  16 1.99  15 2.00   4 3.28   4 3.28
                             3 3.29   3 3.29   5 3.36   5 3.36   2 3.37   2 3.37
  11  0.500  0.997  0.249-  29 1.94  29 1.94  21 1.96  18 1.96  17 1.97  23 1.97   6 3.28   6 3.28
                             3 3.28   3 3.28   2 3.30   2 3.30   1 3.35   1 3.35
  12  0.500  0.335  0.083-  30 1.94  30 1.94  18 1.95  13 1.97  22 2.00  24 2.01   6 3.29   6 3.29
                             1 3.34   1 3.34   5 3.35   5 3.35   2 3.37   2 3.37
  13  0.500  0.504  0.997-   8 1.89  12 1.97   5 2.75   5 2.75   1 2.75   1 2.75
  14  0.500  0.832  0.832-   8 1.93   7 1.94   4 2.79   4 2.79
  15  0.500  0.163  0.670-   7 1.89  10 2.00   5 2.73   5 2.73   3 2.76   3 2.76
  16  0.500  0.507  0.500-   9 1.90  10 1.99   4 2.68   4 2.68   2 2.82   2 2.82
  17  0.500  0.829  0.335-   9 1.89  11 1.97   1 2.74   1 2.74   3 2.76   3 2.76
  18  0.500  0.165  0.164-  12 1.95  11 1.96   6 2.63   6 2.63   2 2.71   2 2.71
  19  0.500  0.504  0.754-   8 1.90  10 1.97   4 2.71   4 2.71   5 2.75   5 2.75
  20  0.500  0.832  0.584-   7 1.94   9 1.94   4 2.77   4 2.77
  21  0.500  0.165  0.418-  10 1.95  11 1.96   3 2.63   3 2.63   2 2.71   2 2.71
  22  0.500  0.506  0.254-   9 1.89  12 2.00   1 2.72   1 2.72   2 2.81   2 2.81
  23  0.500  0.829  0.080-   8 1.89  11 1.97   1 2.75   1 2.75   6 2.76   6 2.76
  24  0.500  0.162  0.911-   7 1.89  12 2.01   5 2.73   5 2.73   6 2.75   6 2.75
  25  0.000  0.666  0.916-   8 1.94   8 1.94   5 2.75   4 2.76   1 2.77
  26  0.000  0.999  0.750-   7 1.94   7 1.94   5 2.74
  27  0.000  0.334  0.585-  10 1.94  10 1.94   4 2.65   3 2.66   5 2.73   2 2.77
  28  0.000  0.668  0.418-   9 1.94   9 1.94   4 2.72   1 2.74
  29  0.000  0.999  0.250-  11 1.94  11 1.94   6 2.65   3 2.65   2 2.66   1 2.75
  30  0.000  0.333  0.082-  12 1.94  12 1.94   6 2.64   5 2.73   1 2.74   2 2.76

  LATTYP: Found a simple monoclinic cell.
 ALAT       =    11.6558944624
 B/A-ratio  =     0.3329099773
 C/A-ratio  =     1.4903157915
 COS(beta)  =    -0.8945522871

  Lattice vectors:

 A1 = (   0.0000000000, -11.6558943699,   0.0014688250)
 A2 = (   3.8803635614,   0.0000000000,   0.0000000000)
 A3 = (   0.0000000000,  15.5402134860,   7.7622252321)

Analysis of symmetry for initial positions (statically):
 Subroutine PRICEL returns:
 Original cell was already a primitive cell.

 Routine SETGRP: Setting up the symmetry group for a
 simple monoclinic supercell.

 Subroutine GETGRP returns: Found  2 space group operations
 (whereof  2 operations were pure point group operations)
 out of a pool of  4 trial point group operations.

The static configuration has the point symmetry C_1h.

Analysis of symmetry for dynamics (positions and initial velocities):
 Subroutine PRICEL returns:
 Original cell was already a primitive cell.

[...]

The dynamic configuration has the point symmetry C_1h.

Analysis of structural, dynamic, and magnetic symmetry:
 Subroutine PRICEL returns:
 Original cell was already a primitive cell.

 Routine SETGRP: Setting up the symmetry group for a
 simple monoclinic supercell.

 Subroutine GETGRP returns: Found  2 space group operations
 (whereof  2 operations were pure point group operations)
 out of a pool of  4 trial point group operations.

The magnetic configuration has the point symmetry C_1h.

 Subroutine INISYM returns: Found  2 space group operations
 (whereof  2 operations are pure point group operations),
 and found     1 'primitive' translations

 KPOINTS: Automatic mesh

Automatic generation of k-mesh.
 generate k-points for:    5    2    2
Space group operators:
 irot       det(A)        alpha          n_x          n_y          n_z        tau_x        tau_y        tau_z
    1     1.000000     0.000000     1.000000     0.000000     0.000000     0.000000     0.000000     0.000000
    2    -1.000000   180.000000     1.000000     0.000000     0.000000     0.000000     0.000000     0.000000

 Subroutine IBZKPT returns following result:

 Found     12 irreducible k-points:

 Following reciprocal coordinates:
            Coordinates               Weight
  0.000000  0.000000  0.000000      1.000000
  0.200000  0.000000  0.000000      2.000000
  0.400000  0.000000  0.000000      2.000000
  0.000000  0.500000  0.000000      1.000000
  0.200000  0.500000  0.000000      2.000000
  0.400000  0.500000  0.000000      2.000000
  0.000000 -0.000000  0.500000      1.000000
  0.200000 -0.000000  0.500000      2.000000
  0.400000 -0.000000  0.500000      2.000000
  0.000000  0.500000  0.500000      1.000000
  0.200000  0.500000  0.500000      2.000000
  0.400000  0.500000  0.500000      2.000000

 Following cartesian coordinates:
            Coordinates               Weight
  0.000000  0.000000  0.000000      1.000000
 -0.051542  0.000000  0.000000      2.000000
 -0.103083  0.000000  0.000000      2.000000
  0.000000  0.042902  0.042938      1.000000
 -0.051542  0.042902  0.042938      2.000000
 -0.103083  0.042902  0.042938      2.000000
  0.000000  0.042894 -0.021461      1.000000
 -0.051542  0.042894 -0.021461      2.000000
 -0.103083  0.042894 -0.021461      2.000000
  0.000000  0.085796  0.021477      1.000000
 -0.051542  0.085796  0.021477      2.000000
 -0.103083  0.085796  0.021477      2.000000

 TETIRR: Found     60 inequivalent tetrahedra from      120

 SYSTEM =  final
 POSCAR =  SCEL6_1_3_2_1_0_0/4

 Startparameter for this run:
   NWRITE =      2    write-flag & timer
   PREC   = accura    normal or accurate (medium, high low for compatibility)
   ISTART =      0    job   : 0-new  1-cont  2-samecut
   ICHARG =      1    charge: 1-file 2-atom 10-const
   ISPIN  =      2    spin polarized calculation?
   LNONCOLLINEAR =      F non collinear calculations
   LSORBIT =      F    spin-orbit coupling
   INIWAV =      1    electr: 0-lowe 1-rand  2-diag
   LASPH  =      F    aspherical Exc in radial PAW
   METAGGA=      F    non-selfconsistent MetaGGA calc.

 Electronic Relaxation 1
   ENCUT  =  520.0 eV  38.22 Ry    6.18 a.u.   7.21 16.14 20.43*2*pi/ulx,y,z
   ENINI  =  520.0     initial cutoff
   ENAUG  =  605.4 eV  augmentation charge cutoff
[...]
     30      -7.3516      1.00000
     31      -7.3253      1.00000
     32      -7.3160      1.00000
     33      -7.2518      1.00000
     34      -7.2485      1.00000
     35      -7.2307      1.00000
     36      -7.0951      1.00000
     37      -7.0358      1.00000
     38      -7.0094      1.00000
     39      -6.8897      1.00000
     40      -6.8489      1.00000
     41      -6.7581      1.00000
     42      -6.5793      1.00000
     43       0.4053      1.00000
     44       0.5547      1.00000
     45       0.8010      1.00000
     46       0.9189      1.00000
     47       1.1268      1.00000
     48       1.2143      1.00000
     49       1.3816      1.00000
     50       1.5347      1.00000
     51       1.5706      1.00000
     52       1.8747      1.00000
     53       1.9909      1.00000
     54       2.0200      1.00000
     55       2.0796      1.00000
     56       2.1313      1.00000
     57       2.1319      1.00000
     58       2.1446      1.00000
     59       2.2218      1.00000
     60       2.2402      1.00000
[...]
    132      10.8067      0.00000
    133      10.8388      0.00000
    134      10.9116      0.00000
    135      10.9625      0.00000
    136      11.0000      0.00000
    137      11.0357      0.00000
    138      11.0412      0.00000
    139      11.0625      0.00000
    140      11.0685      0.00000
    141      11.0949      0.00000
    142      11.1102      0.00000
    143      11.1295      0.00000
    144      11.1532      0.00000
    145      11.1704      0.00000
    146      11.1953      0.00000

[...]

 spin component 2

[...]

 k-point    12 :       0.4000    0.5000    0.5000
  band No.  band energies     occupation
      1     -23.8904      1.00000
      2     -23.8696      1.00000
      3     -23.8547      1.00000
      4     -23.8346      1.00000
      5     -23.7884      1.00000
      6     -23.7741      1.00000
      7     -10.9778      1.00000
      8     -10.9396      1.00000
      9     -10.7630      1.00000
     10     -10.6807      1.00000
     11     -10.3205      1.00000
     12     -10.3109      1.00000
     13     -10.2056      1.00000
     14     -10.1561      1.00000
     15     -10.0499      1.00000
     16      -9.9631      1.00000
     17      -9.8820      1.00000
     18      -9.8271      1.00000
     19      -9.7467      1.00000
     20      -9.7252      1.00000
     21      -9.6537      1.00000
     22      -9.5626      1.00000
     23      -9.5382      1.00000
     24      -9.3796      1.00000
     25      -7.8149      1.00000
     26      -7.7679      1.00000
     27      -7.6831      1.00000
     28      -7.6472      1.00000
     29      -7.4190      1.00000
     30      -7.3964      1.00000
     31      -7.3839      1.00000
     32      -7.3290      1.00000
     33      -7.2845      1.00000
     34      -7.2578      1.00000
     35      -7.1829      1.00000
     36      -7.0808      1.00000
     37      -7.0380      1.00000
     38      -6.9893      1.00000
     39      -6.9153      1.00000
     40      -6.9109      1.00000
     41      -6.8359      1.00000
     42      -6.7013      1.00000
     43       1.2948      1.00000
     44       1.3062      1.00000
     45       1.8465      1.00000
     46       1.9387      1.00000
     47       2.0408      1.00000
     48       2.1382      1.00000
     49       2.2018      1.00000
     50       2.3536      1.00000
     51       2.4053      1.00000
     52       2.4944      1.00000
     53       2.6165      1.00000
     54       2.7614      1.00000
     55       2.8092      1.00000
     56       2.8537      1.00000
     57       2.8974      1.00000
     58       2.9817      1.00000
     59       2.9978      1.00000
     60       3.1295      1.00000
[...]
    132      11.0693      0.00000
    133      11.0909      0.00000
    134      11.0954      0.00000
    135      11.1053      0.00000
    136      11.1149      0.00000
    137      11.1229      0.00000
    138      11.1403      0.00000
    139      11.1478      0.00000
    140      11.1539      0.00000
    141      11.1626      0.00000
    142      11.1769      0.00000
    143      11.1914      0.00000
    144      11.1998      0.00000
    145      11.2373      0.00000
    146      11.2767      0.00000

 soft charge-density along one line, spin component           1
         0         1         2         3         4         5         6         7         8         9
 total charge-density along one line

 soft charge-density along one line, spin component           2
         0         1         2         3         4         5         6         7         8         9
 total charge-density along one line

------------------------ aborting loop because EDIFF is reached ----------------------------------------

 total charge

# of ion       s       p       d       f       tot
    1        2.000   5.699   0.487   0.191   8.376
    2        2.000   5.696   0.487   0.187   8.369
    3        2.001   5.698   0.498   0.192   8.389
    4        2.000   5.700   0.496   0.194   8.391
    5        2.000   5.699   0.491   0.192   8.381
    6        2.001   5.698   0.499   0.192   8.390
    7        0.343   0.532   4.861   0.000   5.735
    8        0.347   0.543   4.869   0.000   5.759
    9        0.348   0.545   4.868   0.000   5.761
   10        0.402   0.583   8.324   0.000   9.309
   11        0.408   0.602   8.332   0.000   9.341
   12        0.400   0.576   8.317   0.000   9.293
   13        1.562   3.453   0.000   0.000   5.016
   14        1.561   3.461   0.000   0.000   5.022
   15        1.564   3.449   0.000   0.000   5.013
   16        1.562   3.458   0.000   0.000   5.019
   17        1.562   3.460   0.000   0.000   5.021
   18        1.558   3.452   0.000   0.000   5.011
   19        1.562   3.460   0.000   0.000   5.022
   20        1.561   3.463   0.000   0.000   5.024
   21        1.558   3.454   0.000   0.000   5.012
   22        1.563   3.448   0.000   0.000   5.011
   23        1.562   3.457   0.000   0.000   5.019
   24        1.564   3.450   0.000   0.000   5.013
   25        1.566   3.454   0.000   0.000   5.019
   26        1.566   3.448   0.000   0.000   5.013
   27        1.557   3.455   0.000   0.000   5.012
   28        1.566   3.453   0.000   0.000   5.019
   29        1.558   3.457   0.000   0.000   5.015
   30        1.557   3.451   0.000   0.000   5.008
tot         42.355  99.754  42.528   1.147 185.785

 magnetization (x)

[...]

  FORCE on cell =-STRESS in cart. coord.  units (eV):
  Direction    XX          YY          ZZ          XY          YZ          ZX
  Alpha Z   983.38117   983.38117   983.38117
  Ewald   -5076.80137 -5206.89754 -5192.40782     0.00000    -4.65714    -0.00000
  Hartree  1243.06588  1126.81526  1137.50350     0.00000    -5.09081    -0.00000
  E(xc)   -1046.13641 -1046.41290 -1046.40756     0.00000     0.01779     0.00000
  Local    -856.60384  -610.23504  -635.31450     0.00000     9.41917     0.00000
  n-local   416.69193   416.25719   416.27599     0.00158    -0.24712    -0.00105
  augment   489.52180   489.15097   489.15048    -0.00000    -0.01492    -0.00000
  Kinetic  3846.99007  3847.72248  3847.83660    -0.00048     0.58718     0.00054
  Fock        0.00000     0.00000     0.00000     0.00000     0.00000     0.00000
  Total       0.10923    -0.21841     0.01785     0.00000     0.01416     0.00000
  in kB       0.49835    -0.99650     0.08143     0.00000     0.06459     0.00000

 VOLUME and BASIS-vectors are now :
  energy-cutoff  :      520.00
  volume of cell :      351.17
      direct lattice vectors                 reciprocal lattice vectors
    -3.880363561  0.000000000  0.000000000    -0.257707811  0.000000000  0.000000000
     0.000000000  3.884319116  7.763694057     0.000000000  0.085804324  0.085875180
     0.000000000  7.771575254 -7.765162882     0.000000000  0.085788094 -0.042921363

  length of vectors
     3.880363561  8.681179667 10.986133829     0.257707811  0.121395752  0.095926224

 FORCES acting on ions
    electron-ion (+dipol)            ewald-force                    non-local-force                 convergence-correction
   0.370E-14 0.112E+02 -.173E+01   -.476E-13 -.111E+02 0.152E+01   0.000E+00 -.835E-01 0.159E+00   -.237E-14 -.187E-01 0.337E-02
   0.561E-14 -.730E+02 -.676E+02   -.171E-13 0.723E+02 0.670E+02   0.000E+00 0.713E+00 0.665E+00   -.108E-13 0.223E-01 0.138E-01
   0.480E-14 -.167E+02 0.147E+03   -.397E-13 0.167E+02 -.145E+03   0.000E+00 0.275E-01 -.140E+01   -.948E-14 0.263E-01 -.290E-01
   0.347E-14 -.784E+02 -.649E+02   0.398E-13 0.777E+02 0.644E+02   0.000E+00 0.706E+00 0.455E+00   -.912E-14 0.245E-01 0.121E-02
   0.449E-14 0.533E+01 0.403E-01   -.414E-13 -.536E+01 -.163E+00   0.000E+00 0.439E-01 0.862E-01   -.122E-15 -.761E-02 0.153E-02
   0.657E-14 0.153E+03 -.978E+01   0.117E-13 -.151E+03 0.991E+01   0.000E+00 -.148E+01 -.853E-01   -.239E-13 -.467E-01 0.935E-02
   -.584E-13 0.337E+02 0.357E+02   0.261E-13 -.334E+02 -.354E+02   0.000E+00 -.331E+00 -.362E+00   -.165E-13 0.162E-02 -.426E-02
   -.497E-13 0.406E+01 -.372E+02   -.465E-13 -.392E+01 0.369E+02   0.000E+00 -.134E+00 0.271E+00   -.161E-14 -.257E-02 0.139E-01
   -.640E-13 -.374E+02 0.460E+01   0.727E-14 0.370E+02 -.464E+01   0.000E+00 0.479E+00 0.623E-01   -.290E-14 0.551E-02 -.107E-01
   -.271E-12 -.425E+02 0.161E+01   -.257E-13 0.414E+02 -.132E+01   0.000E+00 0.111E+01 -.304E+00   -.471E-13 0.269E-01 -.108E-01
   -.292E-12 0.383E+02 0.351E+02   0.841E-13 -.375E+02 -.343E+02   0.000E+00 -.854E+00 -.770E+00   -.522E-13 -.249E-01 -.162E-01
   -.311E-12 0.388E+01 -.414E+02   0.118E-13 -.363E+01 0.402E+02   0.000E+00 -.231E+00 0.118E+01   -.467E-13 -.841E-02 0.300E-01
   -.122E-12 0.464E+01 -.487E+02   -.173E-14 -.473E+01 0.436E+02   0.000E+00 0.993E-01 0.508E+01   -.158E-13 -.695E-02 -.219E-01
   -.119E-12 0.783E+01 -.139E+02   -.564E-14 -.756E+01 0.143E+02   0.000E+00 -.314E+00 -.292E+00   -.176E-13 0.126E-02 -.891E-02
   -.112E-12 0.291E+01 0.610E+02   0.229E-13 -.315E+01 -.551E+02   0.000E+00 0.219E+00 -.591E+01   -.261E-13 0.690E-02 0.305E-01
   -.112E-12 -.170E+02 -.549E+02   0.247E-14 0.159E+02 0.496E+02   0.000E+00 0.109E+01 0.528E+01   -.109E-13 0.261E-02 -.336E-01
   -.111E-12 -.715E+01 0.685E+02   0.125E-13 0.750E+01 -.638E+02   0.000E+00 -.344E+00 -.476E+01   -.247E-13 0.807E-03 0.260E-01
   -.114E-12 0.851E+01 -.127E+02   -.120E-13 -.788E+01 0.126E+02   0.000E+00 -.616E+00 0.466E-01   -.167E-13 -.475E-02 0.865E-02
   -.107E-12 -.562E+02 -.105E+02   -.101E-13 0.517E+02 0.101E+02   0.000E+00 0.449E+01 0.426E+00   -.160E-13 -.200E-01 -.330E-02
   -.107E-12 -.157E+02 0.702E+01   0.278E-13 0.156E+02 -.662E+01   0.000E+00 0.108E+00 -.411E+00   -.217E-13 0.835E-02 -.274E-02
   -.114E-12 -.150E+02 0.708E+01   -.552E-14 0.148E+02 -.641E+01   0.000E+00 0.111E+00 -.668E+00   -.219E-13 0.116E-01 -.891E-03
   -.113E-12 -.459E+02 -.142E+01   -.357E-14 0.398E+02 0.589E+00   0.000E+00 0.609E+01 0.834E+00   -.148E-13 -.346E-01 -.262E-02
   -.112E-12 0.710E+02 -.622E+01   -.218E-14 -.660E+02 0.645E+01   0.000E+00 -.495E+01 -.245E+00   -.245E-13 0.101E-01 0.540E-02
   -.993E-13 0.611E+02 0.410E+01   0.128E-13 -.549E+02 -.444E+01   0.000E+00 -.617E+01 0.326E+00   -.283E-13 0.259E-01 0.414E-02
   -.350E-16 0.497E+00 -.288E+02   0.290E-13 -.186E+00 0.292E+02   0.000E+00 -.335E+00 -.505E+00   -.293E-13 -.309E-02 0.830E-02
   0.126E-14 0.249E+02 0.262E+02   -.307E-13 -.254E+02 -.267E+02   0.000E+00 0.502E+00 0.529E+00   -.144E-13 0.794E-03 -.449E-02
   0.389E-14 -.240E+02 0.100E+01   0.885E-14 0.239E+02 -.969E+00   0.000E+00 0.142E+00 -.401E-01   -.155E-13 0.725E-02 -.497E-02
   -.171E-15 -.263E+02 0.366E+01   -.445E-14 0.265E+02 -.363E+01   0.000E+00 -.180E+00 -.204E-01   -.253E-13 0.500E-02 -.600E-02
   0.543E-14 0.233E+02 0.217E+02   -.184E-13 -.237E+02 -.220E+02   0.000E+00 0.395E+00 0.334E+00   -.113E-13 -.552E-02 -.562E-03
   0.359E-14 0.118E+01 -.240E+02   -.361E-14 -.731E+00 0.241E+02   0.000E+00 -.445E+00 -.101E+00   -.179E-13 -.510E-02 0.767E-02
   -.235E-11 0.130E+00 0.134E+00   -.188E-13 0.139E-12 -.355E-14   0.000E+00 -.135E+00 -.138E+00   -.575E-12 -.105E-02 0.277E-02

 POSITION                                       TOTAL-FORCE (eV/Angst)
      0.00000      3.89113      3.86477         0.000000     -0.059919     -0.040037
      0.00000      3.81603     -0.06728         0.000000     -0.017790      0.039163
      0.00000      3.88692     -3.73881         0.000000      0.060181      0.037863
      0.00000      7.69756     -0.05086         0.000000     -0.001009     -0.016569
      0.00000      7.76541     -3.89312         0.000000     -0.000846     -0.034554
      0.00000      0.14570      0.00656         0.000000      0.043232      0.046436
     -1.94018      9.70916      1.93636         0.000000     -0.033084     -0.056951
     -1.94018      9.71990     -1.93795         0.000000     -0.002325      0.027053
     -1.94018      5.82832      1.94323         0.000000      0.033698      0.013773
     -1.94018      5.84088     -1.94202         0.000000      0.003180     -0.022463
     -1.94018      5.80995      5.80702         0.000000     -0.008232      0.016984
     -1.94018      1.94737      1.95961         0.000000      0.005343      0.009526
     -1.94018      9.70879     -3.83291         0.000000      0.008843     -0.020154
     -1.94018      9.69562     -0.00492         0.000000     -0.036968      0.056924
     -1.94018      5.83878     -3.94104         0.000000     -0.017495      0.020857
     -1.94018      5.85712      0.04842         0.000000     -0.002495     -0.017355
     -1.94018      5.82147      3.83772         0.000000      0.006111     -0.020378
     -1.94018      1.92045      0.00621         0.000000      0.009768     -0.022666
     -1.94018      7.81536     -1.93823         0.000000     -0.010909      0.003140
     -1.94018      7.77276      1.92436         0.000000      0.007368     -0.013366
     -1.94018      3.88817     -1.96188         0.000000     -0.008716     -0.000851
     -1.94018      3.94330      1.95620         0.000000     -0.025430     -0.003029
     -1.94018      3.83717      5.81700         0.000000      0.012422     -0.008367
     -1.94018      7.71047     -5.81588         0.000000      0.022114     -0.009830
      0.00000      9.70263     -1.94307         0.000000     -0.026929     -0.019770
      0.00000      9.70999      1.93565         0.000000      0.000866      0.005081
      0.00000      5.84815     -1.94827         0.000000     -0.020893     -0.011247
      0.00000      5.84214      1.94459         0.000000      0.005528     -0.000736
      0.00000      5.82147      5.81973         0.000000      0.051559      0.039934
      0.00000      1.93058      1.95046         0.000000      0.002825      0.001589
    total drift:                               -0.000000     -0.006660     -0.001349

  FREE ENERGIE OF THE ION-ELECTRON SYSTEM (eV)
  free  energy   TOTEN  =      -220.48282081 eV

  energy  without entropy=     -220.48282081  energy(sigma->0) =     -220.48282081

 total charge

[...]

 magnetization (x)

# of ion       s       p       d       f       tot
    1        0.000   0.001   0.009   0.004   0.015
    2       -0.000   0.000   0.003   0.002   0.005
    3        0.000   0.001   0.006   0.003   0.010
    4        0.000   0.001   0.010   0.005   0.016
    5        0.000   0.001   0.010   0.004   0.015
    6        0.000   0.001   0.006   0.004   0.010
    7        0.023   0.021   3.373   0.000   3.418
    8        0.024   0.025   3.366   0.000   3.415
    9        0.024   0.026   3.348   0.000   3.398
   10        0.014   0.006   1.628   0.000   1.648
   11        0.014   0.011   1.594   0.000   1.619
   12        0.014   0.004   1.626   0.000   1.644
   13        0.004  -0.040   0.000   0.000  -0.035
   14        0.002  -0.016   0.000   0.000  -0.014
   15        0.005  -0.042   0.000   0.000  -0.037
   16        0.005  -0.011   0.000   0.000  -0.006
   17        0.005  -0.015   0.000   0.000  -0.010
   18        0.007  -0.012   0.000   0.000  -0.005
   19        0.005  -0.019   0.000   0.000  -0.014
   20        0.002  -0.013   0.000   0.000  -0.012
   21        0.007  -0.006   0.000   0.000   0.001
   22        0.005  -0.036   0.000   0.000  -0.031
   23        0.005  -0.017   0.000   0.000  -0.012
   24        0.005  -0.039   0.000   0.000  -0.034
   25        0.004  -0.061   0.000   0.000  -0.056
   26        0.004  -0.060   0.000   0.000  -0.055
   27        0.006  -0.011   0.000   0.000  -0.005
   28        0.004  -0.060   0.000   0.000  -0.056
   29        0.006  -0.023   0.000   0.000  -0.016
   30        0.006  -0.014   0.000   0.000  -0.008
tot          0.203  -0.396  14.980   0.022  14.809

 BZINTS: Fermi energy:  7.687436;225.000000 electrons
         Band energy:-329.637637;  BLOECHL correction: -0.173321