 vasp.5.4.4.18Apr17-6-g9f103f2a35 (build Oct 03 2018 13:58:34) complex

 executed on             LinuxIFC date 2019.06.04  02:06:03

 INCAR:
 POTCAR:    PAW_PBE La 06Sep2000
 POTCAR:    PAW_PBE Mn 06Sep2000
 POTCAR:    PAW_PBE Ni 02Aug2007
 POTCAR:    PAW_PBE O 08Apr2002

 POTCAR:    PAW_PBE La 06Sep2000
   VRHFIN =La : [core=Kr4d]

   TITEL  = PAW_PBE La 06Sep2000
   POMASS =  138.900; ZVAL   =   11.000    mass and valenz
   ENMAX  =  219.292; ENMIN  =  164.469 eV

 POTCAR:    PAW_PBE Mn 06Sep2000
   VRHFIN =Mn: d6 s1

   TITEL  = PAW_PBE Mn 06Sep2000
   POMASS =   54.938; ZVAL   =    7.000    mass and valenz
   ENMAX  =  269.864; ENMIN  =  202.398 eV

 POTCAR:    PAW_PBE Ni 02Aug2007
   VRHFIN =Ni:

   TITEL  = PAW_PBE Ni 02Aug2007
   POMASS =   58.690; ZVAL   =   10.000    mass and valenz
   ENMAX  =  269.532; ENMIN  =  202.149 eV

 POTCAR:    PAW_PBE O 08Apr2002
   VRHFIN =O: s2p4

   TITEL  = PAW_PBE O 08Apr2002
   POMASS =   16.000; ZVAL   =    6.000    mass and valenz
   ENMAX  =  400.000; ENMIN  =  300.000 eV

 Optimization of the real space projectors (new method)

 maximal supplied QI-value         = 13.42
 optimisation between [QCUT,QGAM] = [ 11.67, 23.35] = [ 38.16,152.62] Ry
 Optimized for a Real-space Cutoff    1.63 Angstroem

   l    n(q)    QCUT    max X(q) W(low)/X(q) W(high)/X(q)  e(spline)
   0     11    11.673    13.882    0.27E-04    0.79E-05    0.11E-06
   0     11    11.673    12.184    0.39E-04    0.13E-04    0.19E-06
   1     11    11.673     4.523    0.73E-05    0.76E-05    0.12E-06
   1     11    11.673     4.424    0.87E-05    0.13E-04    0.19E-06
   2     10    11.673    52.481    0.65E-04    0.36E-04    0.18E-06
   2     10    11.673    38.501    0.61E-04    0.33E-04    0.17E-06
   3     10    11.673    65.631    0.17E-03    0.14E-03    0.37E-06
   3     10    11.673    56.854    0.17E-03    0.14E-03    0.37E-06
 Optimization of the real space projectors (new method)

[...]

   l    n(q)    QCUT    max X(q) W(low)/X(q) W(high)/X(q)  e(spline)
   2      9    11.539    60.317    0.19E-03    0.47E-04    0.16E-06
   2      9    11.539    55.921    0.19E-03    0.48E-04    0.16E-06
   0     10    11.539    51.690    0.80E-04    0.50E-04    0.24E-06
   0     10    11.539    30.015    0.73E-04    0.45E-04    0.22E-06
   1     10    11.539    18.849    0.87E-04    0.16E-03    0.71E-07
   1     10    11.539    14.624    0.73E-04    0.13E-03    0.64E-07
 Optimization of the real space projectors (new method)

 maximal supplied QI-value         = 24.76
 optimisation between [QCUT,QGAM] = [ 11.64, 23.27] = [ 37.91,151.63] Ry
 Optimized for a Real-space Cutoff    1.14 Angstroem

   l    n(q)    QCUT    max X(q) W(low)/X(q) W(high)/X(q)  e(spline)
   0      8    11.635    20.381    0.10E-03    0.33E-03    0.24E-06
   0      8    11.635    15.268    0.11E-03    0.35E-03    0.26E-06
   1      7    11.635     5.964    0.24E-03    0.31E-03    0.30E-06
   1      7    11.635     5.382    0.22E-03    0.25E-03    0.26E-06
  PAW_PBE La 06Sep2000                  :
  PAW_PBE Mn 06Sep2000                  :
  PAW_PBE Ni 02Aug2007                  :
  PAW_PBE O 08Apr2002                   :

 POSCAR: SCEL6_6_1_1_0_5_5/5
  positions in direct lattice
  velocities in cartesian coordinates
 exchange correlation table for  LEXCH =        8
   RHO(1)=    0.500       N(1)  =     2000
   RHO(2)=  100.500       N(2)  =     4000

 ion  position               nearest neighbor table
   1  0.667  0.333  0.842-  17 2.64  23 2.64  29 2.64  22 2.73  22 2.73  28 2.73  16 2.73  16 2.73
                            28 2.73  11 3.24   9 3.31   9 3.31   9 3.31
   2  0.333  0.667  0.679-  28 2.59  22 2.59  16 2.59  15 2.74  21 2.74  27 2.74  27 2.74  15 2.74
                            21 2.74   9 3.19  10 3.29  10 3.29  10 3.29   7 3.40   7 3.40   7 3.40
   3  0.000  0.000  0.500-  13 2.71  15 2.71  19 2.71  21 2.71  25 2.71  27 2.71  20 2.73  26 2.73
                            14 2.73  14 2.73  20 2.73  26 2.73   7 3.35   8 3.35   7 3.35   8 3.35
   4  0.667  0.333  0.321-  30 2.59  24 2.59  18 2.59  19 2.74  13 2.74  25 2.74  25 2.74  13 2.74
                            19 2.74  11 3.19  12 3.29  12 3.29  12 3.29   8 3.40   8 3.40   8 3.40
   5  0.333  0.667  0.158-  17 2.64  23 2.64  29 2.64  18 2.73  30 2.73  24 2.73  18 2.73  24 2.73
                            30 2.73   9 3.24  11 3.31  11 3.31  11 3.31
   6  0.000  0.000  0.000-  17 2.73  23 2.73  29 2.73  17 2.73  23 2.73  29 2.73  18 2.75  22 2.75
                            16 2.75  24 2.75  30 2.75  28 2.75   9 3.35  11 3.35   9 3.35   9 3.35
   7  0.667  0.333  0.584-  27 1.88  21 1.88  15 1.88  14 1.94  20 1.94  26 1.94   3 3.35   3 3.35
                             3 3.35   2 3.40   2 3.40   2 3.40
   8  0.333  0.667  0.416-  25 1.88  19 1.88  13 1.88  20 1.94  14 1.94  26 1.94   3 3.35   3 3.35
                             3 3.35   4 3.40   4 3.40   4 3.40
   9  0.333  0.667  0.916-  28 1.93  22 1.93  16 1.93  23 1.94  17 1.94  29 1.94   2 3.19   5 3.24
                             1 3.31   1 3.31   1 3.31   6 3.35   6 3.35   6 3.35
  10  0.000  0.000  0.750-  16 1.94  22 1.94  28 1.94  15 1.98  21 1.98  27 1.98   2 3.29   2 3.29
                             2 3.29   3 3.35   6 3.36
  11  0.667  0.333  0.084-  30 1.93  24 1.93  18 1.93  17 1.94  23 1.94  29 1.94   4 3.19   1 3.24
                             5 3.31   5 3.31   5 3.31   6 3.35   6 3.35   6 3.35
  12  0.000  0.000  0.250-  18 1.94  24 1.94  30 1.94  13 1.98  19 1.98  25 1.98   4 3.29   4 3.29
                             4 3.29   3 3.35   6 3.36
  13  0.662  0.831  0.337-   8 1.88  12 1.98   3 2.71   4 2.74   4 2.74
  14  0.000  0.500  0.500-   7 1.94   8 1.94   3 2.73   3 2.73
  15  0.338  0.169  0.663-   7 1.88  10 1.98   3 2.71   2 2.74   2 2.74
  16  0.664  0.832  0.833-   9 1.93  10 1.94   2 2.59   1 2.73   1 2.73   6 2.75
  17  0.000  0.500  0.000-   9 1.94  11 1.94   1 2.64   5 2.64   6 2.73   6 2.73
  18  0.336  0.168  0.167-  11 1.93  12 1.94   4 2.59   5 2.73   5 2.73   6 2.75
  19  0.169  0.338  0.337-   8 1.88  12 1.98   3 2.71   4 2.74   4 2.74
  20  0.500  0.000  0.500-   7 1.94   8 1.94   3 2.73   3 2.73
  21  0.831  0.662  0.663-   7 1.88  10 1.98   3 2.71   2 2.74   2 2.74
  22  0.168  0.336  0.833-   9 1.93  10 1.94   2 2.59   1 2.73   1 2.73   6 2.75
  23  0.500  0.000  0.000-   9 1.94  11 1.94   1 2.64   5 2.64   6 2.73   6 2.73
  24  0.832  0.664  0.167-  11 1.93  12 1.94   4 2.59   5 2.73   5 2.73   6 2.75
  25  0.169  0.831  0.337-   8 1.88  12 1.98   3 2.71   4 2.74   4 2.74
  26  0.500  0.500  0.500-   7 1.94   8 1.94   3 2.73   3 2.73
  27  0.831  0.169  0.663-   7 1.88  10 1.98   3 2.71   2 2.74   2 2.74
  28  0.168  0.832  0.833-   9 1.93  10 1.94   2 2.59   1 2.73   1 2.73   6 2.75
  29  0.500  0.500  0.000-   9 1.94  11 1.94   1 2.64   5 2.64   6 2.73   6 2.73
  30  0.832  0.168  0.167-  11 1.93  12 1.94   4 2.59   5 2.73   5 2.73   6 2.75

  LATTYP: Found a hexagonal cell.
 ALAT       =     5.4633128049
 C/A-ratio  =     2.4577538553

  Lattice vectors:

 A1 = (   3.8631455321,   0.0000000000,  -3.8631455321)
 A2 = (  -3.8631455321,   3.8631455321,   0.0000000000)
 A3 = (   7.7523581008,   7.7523581008,   7.7523581008)

Analysis of symmetry for initial positions (statically):
 Subroutine PRICEL returns:
 Original cell was already a primitive cell.

 Routine SETGRP: Setting up the symmetry group for a
 hexagonal supercell.

 Subroutine GETGRP returns: Found 12 space group operations
 (whereof 12 operations were pure point group operations)
 out of a pool of 24 trial point group operations.

The static configuration has the point symmetry D_3d.

Analysis of symmetry for dynamics (positions and initial velocities):
 Subroutine PRICEL returns:
 Original cell was already a primitive cell.

[...]

The dynamic configuration has the point symmetry D_3d.

Analysis of structural, dynamic, and magnetic symmetry:
 Subroutine PRICEL returns:
 Original cell was already a primitive cell.

 Routine SETGRP: Setting up the symmetry group for a
 hexagonal supercell.

 Subroutine GETGRP returns: Found 12 space group operations
 (whereof 12 operations were pure point group operations)
 out of a pool of 24 trial point group operations.

The magnetic configuration has the point symmetry D_3d.

 Subroutine INISYM returns: Found 12 space group operations
 (whereof 12 operations are pure point group operations),
 and found     1 'primitive' translations

 KPOINTS: Automatic mesh

Automatic generation of k-mesh.
 generate k-points for:    4    4    1
Space group operators:
 irot       det(A)        alpha          n_x          n_y          n_z        tau_x        tau_y        tau_z
    1     1.000000     0.000000     1.000000     0.000000     0.000000     0.000000     0.000000     0.000000
    2    -1.000000     0.000000     1.000000     0.000000     0.000000     0.000000     0.000000     0.000000
    3     1.000000   120.000000    -0.577350    -0.577350    -0.577350     0.000000     0.000000     0.000000
    4    -1.000000   120.000000    -0.577350    -0.577350    -0.577350     0.000000     0.000000     0.000000
    5     1.000000   120.000000     0.577350     0.577350     0.577350     0.000000     0.000000     0.000000
    6    -1.000000   120.000000     0.577350     0.577350     0.577350     0.000000     0.000000     0.000000
    7     1.000000   180.000000     0.707107     0.000000    -0.707107     0.000000     0.000000     0.000000
    8    -1.000000   180.000000     0.707107     0.000000    -0.707107     0.000000     0.000000     0.000000
    9     1.000000   180.000000     0.707107    -0.707107     0.000000     0.000000     0.000000     0.000000
   10    -1.000000   180.000000     0.707107    -0.707107     0.000000     0.000000     0.000000     0.000000
   11     1.000000   180.000000     0.000000    -0.707107     0.707107     0.000000     0.000000     0.000000
   12    -1.000000   180.000000     0.000000    -0.707107     0.707107     0.000000     0.000000     0.000000

 Subroutine IBZKPT returns following result:

 Found      4 irreducible k-points:

 Following reciprocal coordinates:
            Coordinates               Weight
  0.000000  0.000000  0.000000      1.000000
  0.250000  0.000000  0.000000      6.000000
  0.500000  0.000000  0.000000      3.000000
  0.250000  0.250000  0.000000      6.000000

 Following cartesian coordinates:
            Coordinates               Weight
  0.000000  0.000000  0.000000      1.000000
  0.021571  0.021571 -0.043143      6.000000
  0.043143  0.043143 -0.086285      3.000000
  0.000000  0.064714 -0.064714      6.000000

 TETIRR: Found     10 inequivalent tetrahedra from       96

 SYSTEM =  final
 POSCAR =  SCEL6_6_1_1_0_5_5/5

 Startparameter for this run:
   NWRITE =      2    write-flag & timer
   PREC   = accura    normal or accurate (medium, high low for compatibility)
   ISTART =      0    job   : 0-new  1-cont  2-samecut
   ICHARG =      1    charge: 1-file 2-atom 10-const
   ISPIN  =      2    spin polarized calculation?
   LNONCOLLINEAR =      F non collinear calculations
   LSORBIT =      F    spin-orbit coupling
   INIWAV =      1    electr: 0-lowe 1-rand  2-diag
[...]
     30      -7.3246      1.00000
     31      -7.3246      1.00000
     32      -7.2090      1.00000
     33      -7.1834      1.00000
     34      -7.1834      1.00000
     35      -7.0489      1.00000
     36      -7.0489      1.00000
     37      -7.0252      1.00000
     38      -7.0252      1.00000
     39      -6.9335      1.00000
     40      -6.8280      1.00000
     41      -6.6390      1.00000
     42      -6.5890      1.00000
     43       0.3447      1.00000
     44       0.3447      1.00000
     45       0.6140      1.00000
     46       0.6140      1.00000
     47       0.8240      1.00000
     48       1.1367      1.00000
     49       1.1367      1.00000
     50       1.2876      1.00000
     51       1.4053      1.00000
     52       1.6628      1.00000
     53       1.6628      1.00000
     54       1.7212      1.00000
     55       1.8274      1.00000
     56       1.9253      1.00000
     57       1.9453      1.00000
     58       1.9453      1.00000
     59       1.9718      1.00000
     60       1.9718      1.00000
[...]
    132      11.1202      0.00000
    133      11.1562      0.00000
    134      11.1776      0.00000
    135      11.2040      0.00000
    136      11.2198      0.00000
    137      11.2464      0.00000
    138      11.2621      0.00000
    139      11.2901      0.00000
    140      11.3372      0.00000
    141      11.3613      0.00000
    142      11.3744      0.00000
    143      11.4005      0.00000
    144      11.4334      0.00000
    145      11.4745      0.00000
    146      11.5105      0.00000

[...]

 spin component 2

[...]

 k-point     4 :       0.2500    0.2500    0.0000
  band No.  band energies     occupation
      1     -23.6987      1.00000
      2     -23.5905      1.00000
      3     -23.5888      1.00000
      4     -23.5627      1.00000
      5     -23.5410      1.00000
      6     -23.5190      1.00000
      7     -11.0524      1.00000
      8     -10.9486      1.00000
      9     -10.8163      1.00000
     10     -10.6370      1.00000
     11     -10.5849      1.00000
     12     -10.5579      1.00000
     13     -10.0556      1.00000
     14     -10.0371      1.00000
     15      -9.9298      1.00000
     16      -9.8608      1.00000
     17      -9.7765      1.00000
     18      -9.7439      1.00000
     19      -9.6442      1.00000
     20      -9.5662      1.00000
     21      -9.4987      1.00000
     22      -9.3031      1.00000
     23      -9.1961      1.00000
     24      -9.1547      1.00000
     25      -7.4210      1.00000
     26      -7.1834      1.00000
     27      -7.1673      1.00000
     28      -7.1000      1.00000
     29      -7.0469      1.00000
     30      -7.0278      1.00000
     31      -6.9349      1.00000
     32      -6.8989      1.00000
     33      -6.8893      1.00000
     34      -6.8681      1.00000
     35      -6.8497      1.00000
     36      -6.7627      1.00000
     37      -6.7490      1.00000
     38      -6.7081      1.00000
     39      -6.6113      1.00000
     40      -6.6087      1.00000
     41      -6.4265      1.00000
     42      -6.4197      1.00000
     43       1.7920      1.00000
     44       1.8531      1.00000
     45       1.9672      1.00000
     46       2.0491      1.00000
     47       2.1758      1.00000
     48       2.2459      1.00000
     49       2.3261      1.00000
     50       2.3591      1.00000
     51       2.4662      1.00000
     52       2.6977      1.00000
     53       2.7288      1.00000
     54       2.7395      1.00000
     55       2.7969      1.00000
     56       2.8436      1.00000
     57       2.8623      1.00000
     58       2.9043      1.00000
     59       2.9646      1.00000
     60       2.9696      1.00000
[...]
    132      11.3198      0.00000
    133      11.3361      0.00000
    134      11.3521      0.00000
    135      11.3611      0.00000
    136      11.3673      0.00000
    137      11.3735      0.00000
    138      11.3877      0.00000
    139      11.3983      0.00000
    140      11.4054      0.00000
    141      11.4156      0.00000
    142      11.4264      0.00000
    143      11.4388      0.00000
    144      11.4557      0.00000
    145      11.4770      0.00000
    146      11.4948      0.00000

 soft charge-density along one line, spin component           1
         0         1         2         3         4         5         6         7         8         9
 total charge-density along one line

 soft charge-density along one line, spin component           2
         0         1         2         3         4         5         6         7         8         9
 total charge-density along one line

------------------------ aborting loop because EDIFF is reached ----------------------------------------

 total charge

# of ion       s       p       d       f       tot
    1        2.001   5.699   0.499   0.192   8.391
    2        2.002   5.700   0.510   0.198   8.410
    3        2.000   5.703   0.498   0.196   8.398
    4        2.002   5.700   0.510   0.198   8.410
    5        2.001   5.699   0.499   0.192   8.391
    6        2.000   5.699   0.488   0.188   8.376
    7        0.352   0.557   4.853   0.000   5.763
    8        0.352   0.557   4.853   0.000   5.763
    9        0.432   0.655   8.326   0.000   9.413
   10        0.401   0.576   8.318   0.000   9.296
   11        0.432   0.655   8.326   0.000   9.413
   12        0.401   0.576   8.318   0.000   9.296
   13        1.563   3.492   0.000   0.000   5.055
   14        1.561   3.493   0.000   0.000   5.054
   15        1.563   3.492   0.000   0.000   5.055
   16        1.560   3.526   0.000   0.000   5.087
   17        1.562   3.515   0.000   0.000   5.077
   18        1.560   3.526   0.000   0.000   5.087
   19        1.563   3.441   0.000   0.000   5.004
   20        1.562   3.456   0.000   0.000   5.018
   21        1.563   3.441   0.000   0.000   5.004
   22        1.560   3.433   0.000   0.000   4.994
   23        1.562   3.431   0.000   0.000   4.993
   24        1.560   3.433   0.000   0.000   4.994
   25        1.563   3.424   0.000   0.000   4.987
   26        1.562   3.447   0.000   0.000   5.010
   27        1.563   3.424   0.000   0.000   4.987
   28        1.560   3.383   0.000   0.000   4.943
   29        1.561   3.387   0.000   0.000   4.948
   30        1.560   3.383   0.000   0.000   4.943
tot         42.488  99.905  46.001   1.165 189.559

 magnetization (x)

[...]

  FORCE on cell =-STRESS in cart. coord.  units (eV):
  Direction    XX          YY          ZZ          XY          YZ          ZX
  Alpha Z   989.90297   989.90297   989.90297
  Ewald   -5289.37710 -5289.37710 -5289.37710   -60.08929   -60.08926   -60.08929
  Hartree  1263.39820  1263.39820  1263.39820   -63.43533   -63.43532   -63.43533
  E(xc)   -1066.85128 -1066.85130 -1066.85130     0.03666     0.03667     0.03666
  Local    -820.60933  -820.61001  -820.61001   123.21054   123.21117   123.21054
  n-local   428.31637   429.22733   430.63510    -2.92442     1.16578    -0.01433
  augment   634.19970   634.20020   634.20020     0.03515     0.03466     0.03515
  Kinetic  3870.72928  3864.26909  3846.92128    -7.52294     7.59387     2.59907
  Fock        0.00000     0.00000     0.00000     0.00000     0.00000     0.00000
  Total       0.69584     0.69584     0.69584     0.05677     0.05677     0.05677
  in kB       3.21207     3.21207     3.21207     0.26207     0.26207     0.26207

 VOLUME and BASIS-vectors are now :
  energy-cutoff  :      520.00
  volume of cell :      347.09
      direct lattice vectors                 reciprocal lattice vectors
     3.863145532  0.000000000 -3.863145532     0.086285471  0.086285471 -0.172570943
    -3.863145532  3.863145532  0.000000000    -0.086285471  0.172570943 -0.086285471
     7.752358101  7.752358101  7.752358101     0.042997670  0.042997670  0.042997670

  length of vectors
     5.463312805  5.463312805 13.427478109     0.211355377  0.211355377  0.074474149

 FORCES acting on ions
    electron-ion (+dipol)            ewald-force                    non-local-force                 convergence-correction
   0.878E+02 0.878E+02 0.878E+02   -.871E+02 -.871E+02 -.871E+02   -.667E+00 -.667E+00 -.667E+00   0.158E-02 0.158E-02 0.158E-02
   0.114E+03 0.114E+03 0.114E+03   -.113E+03 -.113E+03 -.113E+03   -.950E+00 -.950E+00 -.950E+00   0.449E-02 0.449E-02 0.449E-02
   0.127E-12 0.104E-12 0.145E-12   0.142E-13 0.121E-12 0.853E-13   0.136E-19 0.136E-19 0.136E-19   -.102E-11 -.100E-11 -.102E-11
   -.114E+03 -.114E+03 -.114E+03   0.113E+03 0.113E+03 0.113E+03   0.950E+00 0.950E+00 0.950E+00   -.449E-02 -.449E-02 -.449E-02
   -.878E+02 -.878E+02 -.878E+02   0.871E+02 0.871E+02 0.871E+02   0.667E+00 0.667E+00 0.667E+00   -.158E-02 -.158E-02 -.158E-02
   0.518E-13 0.277E-13 0.717E-13   0.711E-14 0.142E-12 -.853E-13   0.488E-18 0.542E-19 0.542E-19   0.129E-11 0.131E-11 0.130E-11
   0.364E+02 0.364E+02 0.364E+02   -.360E+02 -.360E+02 -.360E+02   -.415E+00 -.415E+00 -.415E+00   0.767E-02 0.767E-02 0.767E-02
   -.364E+02 -.364E+02 -.364E+02   0.360E+02 0.360E+02 0.360E+02   0.415E+00 0.415E+00 0.415E+00   -.767E-02 -.767E-02 -.767E-02
   0.234E+02 0.234E+02 0.234E+02   -.237E+02 -.237E+02 -.237E+02   0.331E+00 0.331E+00 0.331E+00   0.321E-02 0.321E-02 0.321E-02
   0.754E+02 0.754E+02 0.754E+02   -.741E+02 -.741E+02 -.741E+02   -.139E+01 -.139E+01 -.139E+01   -.209E-04 -.209E-04 -.209E-04
   -.234E+02 -.234E+02 -.234E+02   0.237E+02 0.237E+02 0.237E+02   -.331E+00 -.331E+00 -.331E+00   -.321E-02 -.321E-02 -.321E-02
   -.754E+02 -.754E+02 -.754E+02   0.741E+02 0.741E+02 0.741E+02   0.139E+01 0.139E+01 0.139E+01   0.209E-04 0.209E-04 0.209E-04
   -.341E+02 -.340E+02 -.700E+02   0.337E+02 0.337E+02 0.641E+02   0.370E+00 0.370E+00 0.580E+01   -.278E-02 -.278E-02 0.153E-02
   -.820E-14 0.333E-12 0.198E-12   0.533E-13 -.355E-14 0.604E-13   -.678E-20 -.678E-20 0.000E+00   -.601E-12 -.582E-12 -.607E-12
   0.341E+02 0.340E+02 0.700E+02   -.337E+02 -.337E+02 -.641E+02   -.370E+00 -.370E+00 -.580E+01   0.278E-02 0.278E-02 -.153E-02
   0.262E+02 0.262E+02 0.481E+02   -.253E+02 -.253E+02 -.490E+02   -.885E+00 -.885E+00 0.849E+00   0.410E-03 0.410E-03 0.996E-03
   -.137E-12 0.203E-12 0.102E-12   0.213E-13 0.711E-14 -.568E-13   0.186E-19 0.169E-20 0.000E+00   0.804E-12 0.820E-12 0.865E-12
   -.262E+02 -.262E+02 -.481E+02   0.253E+02 0.253E+02 0.490E+02   0.885E+00 0.885E+00 -.849E+00   -.410E-03 -.410E-03 -.996E-03
   -.341E+02 -.700E+02 -.340E+02   0.337E+02 0.641E+02 0.337E+02   0.370E+00 0.580E+01 0.370E+00   -.278E-02 0.153E-02 -.278E-02
   -.137E-12 0.662E-13 -.458E-12   -.888E-13 0.355E-14 0.817E-13   0.136E-19 0.000E+00 0.152E-19   -.595E-12 -.598E-12 -.583E-12
   0.341E+02 0.700E+02 0.340E+02   -.337E+02 -.641E+02 -.337E+02   -.370E+00 -.580E+01 -.370E+00   0.278E-02 -.153E-02 0.278E-02
   0.262E+02 0.481E+02 0.262E+02   -.253E+02 -.490E+02 -.253E+02   -.885E+00 0.849E+00 -.885E+00   0.410E-03 0.996E-03 0.410E-03
   -.521E-11 -.244E-11 -.554E-11   0.568E-13 0.213E-13 0.284E-13   0.678E-20 0.000E+00 0.678E-20   0.819E-12 0.865E-12 0.813E-12
   -.262E+02 -.481E+02 -.262E+02   0.253E+02 0.490E+02 0.253E+02   0.885E+00 -.849E+00 0.885E+00   -.410E-03 -.996E-03 -.410E-03
   -.700E+02 -.340E+02 -.340E+02   0.641E+02 0.337E+02 0.337E+02   0.580E+01 0.370E+00 0.370E+00   0.153E-02 -.278E-02 -.278E-02
   -.182E-11 -.782E-12 0.732E-12   0.462E-13 -.355E-14 0.604E-13   0.678E-20 0.136E-19 -.678E-20   -.639E-12 -.580E-12 -.595E-12
   0.700E+02 0.340E+02 0.340E+02   -.641E+02 -.337E+02 -.337E+02   -.580E+01 -.370E+00 -.370E+00   -.153E-02 0.278E-02 0.278E-02
   0.481E+02 0.262E+02 0.262E+02   -.490E+02 -.253E+02 -.253E+02   0.849E+00 -.885E+00 -.885E+00   0.996E-03 0.410E-03 0.410E-03
   -.391E-11 -.165E-11 -.412E-11   0.497E-13 0.284E-13 0.568E-13   0.275E-20 0.953E-20 0.275E-20   0.811E-12 0.823E-12 0.806E-12
   -.481E+02 -.262E+02 -.262E+02   0.490E+02 0.253E+02 0.253E+02   -.849E+00 0.885E+00 0.885E+00   -.996E-03 -.410E-03 -.410E-03
   0.318E-10 0.399E-10 0.269E-10   0.711E-14 0.426E-13 -.142E-12   -.999E-15 0.333E-15 0.111E-15   0.695E-12 0.942E-12 0.735E-12

 POSITION                                       TOTAL-FORCE (eV/Angst)
      7.81856      7.81856      3.95542         0.018036      0.018036      0.018036
      3.97707      7.84022      3.97707         0.013791      0.013791      0.013791
      3.87618      3.87618      3.87618        -0.000000     -0.000000     -0.000000
      3.77529      3.77529     -0.08786        -0.013791     -0.013791     -0.013791
     -0.06620      3.79694     -0.06620        -0.018036     -0.018036     -0.018036
      0.00000      0.00000      0.00000        -0.000000     -0.000000     -0.000000
      5.81457      5.81456      1.95142        -0.020579     -0.020579     -0.020579
      1.93779      5.80094      1.93779         0.020579      0.020579      0.020579
      5.81683      9.67997      5.81683        -0.000349     -0.000349     -0.000349
      5.81160      5.81160      5.81160        -0.015100     -0.015100     -0.015100
      1.93553      1.93553     -1.92761         0.000349      0.000349      0.000349
      1.94076      1.94076      1.94076         0.015100      0.015100      0.015100
      1.96056      5.82370      0.05853        -0.000167     -0.000167     -0.014983
      1.94461      5.80775      3.87618        -0.000000     -0.000000     -0.000000
      5.79180      5.79180      3.83068         0.000167      0.000167      0.014983
      5.80600      9.66914      3.89081         0.026287      0.026287      0.013127
     -1.93157      1.93157      0.00000        -0.000000     -0.000000     -0.000000
      1.94636      1.94636     -0.00160        -0.026287     -0.026287     -0.013127
      1.96056      3.92168      1.96056        -0.000167     -0.014983     -0.000167
      5.80775      3.87618      1.94461        -0.000000     -0.000000     -0.000000
      5.79180      7.69383      1.92865         0.000167      0.014983      0.000167
      5.80600      7.75396      5.80599         0.026287      0.013127      0.026287
      1.93157      0.00000     -1.93157        -0.000000     -0.000000     -0.000000
      1.94636      3.86155     -1.91678        -0.026287     -0.013127     -0.026287
      0.05853      5.82370      1.96056        -0.014983     -0.000167     -0.000167
      3.87618      5.80775      1.94461        -0.000000     -0.000000     -0.000000
      7.69383      5.79180      1.92865         0.014983      0.000167      0.000167
      3.89081      9.66914      5.80599         0.013127      0.026287      0.026287
      0.00000      1.93157     -1.93157        -0.000000     -0.000000     -0.000000
      3.86154      1.94636     -1.91678        -0.013127     -0.026287     -0.026287
    total drift:                                0.000000      0.000000      0.000000

  FREE ENERGIE OF THE ION-ELECTRON SYSTEM (eV)
  free  energy   TOTEN  =      -213.74951201 eV

  energy  without entropy=     -213.74951201  energy(sigma->0) =     -213.74951201

 total charge

[...]

 magnetization (x)

# of ion       s       p       d       f       tot
    1        0.000  -0.000   0.004   0.002   0.007
    2        0.001   0.001   0.009   0.004   0.014
    3        0.001   0.001   0.013   0.005   0.020
    4        0.001   0.001   0.009   0.004   0.014
    5        0.000  -0.000   0.004   0.002   0.007
    6        0.000  -0.000   0.003   0.001   0.004
    7        0.021   0.023   3.207   0.000   3.251
    8        0.021   0.023   3.207   0.000   3.251
    9        0.018   0.018   1.387   0.000   1.423
   10        0.013  -0.001   1.602   0.000   1.614
   11        0.018   0.018   1.387   0.000   1.423
   12        0.013  -0.001   1.602   0.000   1.614
   13        0.005  -0.037   0.000   0.000  -0.033
   14        0.002  -0.009   0.000   0.000  -0.007
   15        0.005  -0.037   0.000   0.000  -0.033
   16        0.007  -0.015   0.000   0.000  -0.007
   17        0.007  -0.043   0.000   0.000  -0.036
   18        0.007  -0.015   0.000   0.000  -0.007
   19        0.004  -0.046   0.000   0.000  -0.042
   20        0.002  -0.018   0.000   0.000  -0.016
   21        0.004  -0.046   0.000   0.000  -0.042
   22        0.006  -0.050   0.000   0.000  -0.044
   23        0.006  -0.069   0.000   0.000  -0.063
   24        0.006  -0.050   0.000   0.000  -0.044
   25        0.004  -0.046   0.000   0.000  -0.043
   26        0.001  -0.014   0.000   0.000  -0.012
   27        0.004  -0.046   0.000   0.000  -0.043
   28        0.006  -0.078   0.000   0.000  -0.072
   29        0.005  -0.091   0.000   0.000  -0.086
   30        0.006  -0.078   0.000   0.000  -0.072
tot          0.196  -0.707  12.432   0.019  11.940

 BZINTS: Fermi energy:  7.678891;228.000000 electrons
         Band energy:-290.341065;  BLOECHL correction: -0.031545