 vasp.5.4.4.18Apr17-6-g9f103f2a35 (build Oct 03 2018 13:58:34) complex

 executed on             LinuxIFC date 2019.06.04  01:57:58

 INCAR:
 POTCAR:    PAW_PBE La 06Sep2000
 POTCAR:    PAW_PBE Mn 06Sep2000
 POTCAR:    PAW_PBE Ni 02Aug2007
 POTCAR:    PAW_PBE O 08Apr2002

 POTCAR:    PAW_PBE La 06Sep2000
   VRHFIN =La : [core=Kr4d]

   TITEL  = PAW_PBE La 06Sep2000
   POMASS =  138.900; ZVAL   =   11.000    mass and valenz
   ENMAX  =  219.292; ENMIN  =  164.469 eV

 POTCAR:    PAW_PBE Mn 06Sep2000
   VRHFIN =Mn: d6 s1

   TITEL  = PAW_PBE Mn 06Sep2000
   POMASS =   54.938; ZVAL   =    7.000    mass and valenz
   ENMAX  =  269.864; ENMIN  =  202.398 eV

 POTCAR:    PAW_PBE Ni 02Aug2007
   VRHFIN =Ni:

   TITEL  = PAW_PBE Ni 02Aug2007
   POMASS =   58.690; ZVAL   =   10.000    mass and valenz
   ENMAX  =  269.532; ENMIN  =  202.149 eV

 POTCAR:    PAW_PBE O 08Apr2002
   VRHFIN =O: s2p4

   TITEL  = PAW_PBE O 08Apr2002
   POMASS =   16.000; ZVAL   =    6.000    mass and valenz
   ENMAX  =  400.000; ENMIN  =  300.000 eV

 Optimization of the real space projectors (new method)

 maximal supplied QI-value         = 13.42
 optimisation between [QCUT,QGAM] = [ 11.67, 23.35] = [ 38.16,152.62] Ry
 Optimized for a Real-space Cutoff    1.63 Angstroem

   l    n(q)    QCUT    max X(q) W(low)/X(q) W(high)/X(q)  e(spline)
   0     11    11.673    13.882    0.27E-04    0.79E-05    0.11E-06
   0     11    11.673    12.184    0.39E-04    0.13E-04    0.19E-06
   1     11    11.673     4.523    0.73E-05    0.76E-05    0.12E-06
   1     11    11.673     4.424    0.87E-05    0.13E-04    0.19E-06
   2     10    11.673    52.481    0.65E-04    0.36E-04    0.18E-06
   2     10    11.673    38.501    0.61E-04    0.33E-04    0.17E-06
   3     10    11.673    65.631    0.17E-03    0.14E-03    0.37E-06
   3     10    11.673    56.854    0.17E-03    0.14E-03    0.37E-06
 Optimization of the real space projectors (new method)

[...]

   l    n(q)    QCUT    max X(q) W(low)/X(q) W(high)/X(q)  e(spline)
   2      9    11.539    60.317    0.19E-03    0.47E-04    0.16E-06
   2      9    11.539    55.921    0.19E-03    0.48E-04    0.16E-06
   0     10    11.539    51.690    0.80E-04    0.50E-04    0.24E-06
   0     10    11.539    30.015    0.73E-04    0.45E-04    0.22E-06
   1     10    11.539    18.849    0.87E-04    0.16E-03    0.71E-07
   1     10    11.539    14.624    0.73E-04    0.13E-03    0.64E-07
 Optimization of the real space projectors (new method)

 maximal supplied QI-value         = 24.76
 optimisation between [QCUT,QGAM] = [ 11.64, 23.27] = [ 37.91,151.63] Ry
 Optimized for a Real-space Cutoff    1.14 Angstroem

   l    n(q)    QCUT    max X(q) W(low)/X(q) W(high)/X(q)  e(spline)
   0      8    11.635    20.381    0.10E-03    0.33E-03    0.24E-06
   0      8    11.635    15.268    0.11E-03    0.35E-03    0.26E-06
   1      7    11.635     5.964    0.24E-03    0.31E-03    0.30E-06
   1      7    11.635     5.382    0.22E-03    0.25E-03    0.26E-06
  PAW_PBE La 06Sep2000                  :
  PAW_PBE Mn 06Sep2000                  :
  PAW_PBE Ni 02Aug2007                  :
  PAW_PBE O 08Apr2002                   :

 POSCAR: SCEL6_2_1_3_0_0_1/7
  positions in direct lattice
  velocities in cartesian coordinates
 exchange correlation table for  LEXCH =        8
   RHO(1)=    0.500       N(1)  =     2000
   RHO(2)=  100.500       N(2)  =     4000

 ion  position               nearest neighbor table
   1  0.500  0.500  0.331-  20 2.70  23 2.70  26 2.70  29 2.70  14 2.72  14 2.72  17 2.72  17 2.72
                            28 2.75  19 2.75  25 2.75  22 2.75   8 3.32   8 3.32  11 3.33  11 3.33
   2  0.000  0.000  0.669-  21 2.70  24 2.70  27 2.70  30 2.70  16 2.72  16 2.72  13 2.72  13 2.72
                            28 2.75  19 2.75  25 2.75  22 2.75  12 3.32  12 3.32   9 3.33   9 3.33
   3  0.500  0.500  0.000-  15 2.72  18 2.72  18 2.72  15 2.72  23 2.73  24 2.73  26 2.73  27 2.73
                            29 2.73  30 2.73  20 2.73  21 2.73   9 3.33   9 3.33  11 3.33  11 3.33
   4  0.000  0.000  0.331-  20 2.70  23 2.70  26 2.70  29 2.70  14 2.72  14 2.72  17 2.72  17 2.72
                            28 2.75  19 2.75  25 2.75  22 2.75   8 3.32   8 3.32  11 3.33  11 3.33
   5  0.500  0.500  0.669-  21 2.70  24 2.70  27 2.70  30 2.70  16 2.72  16 2.72  13 2.72  13 2.72
                            28 2.75  19 2.75  25 2.75  22 2.75  12 3.32  12 3.32   9 3.33   9 3.33
   6  0.000  0.000  0.000-  15 2.72  18 2.72  15 2.72  18 2.72  23 2.73  24 2.73  26 2.73  27 2.73
                            29 2.73  30 2.73  20 2.73  21 2.73   9 3.33  11 3.33   9 3.33  11 3.33
   7  0.000  0.500  0.500-  19 1.89  22 1.89  25 1.89  28 1.89  13 1.90  17 1.90   4 3.35   5 3.35
                             1 3.35   2 3.35   2 3.35   4 3.35   1 3.35   5 3.35
   8  0.500  0.000  0.167-  14 1.92  18 1.93  20 1.93  23 1.93  26 1.93  29 1.93   1 3.32   4 3.32
                             1 3.32   4 3.32   3 3.34   3 3.34   6 3.34   6 3.34
   9  0.000  0.500  0.834-  21 1.92  24 1.92  27 1.92  30 1.92  15 1.92  13 1.96   2 3.33   5 3.33
                             2 3.33   5 3.33   3 3.33   6 3.33   3 3.33   6 3.33
  10  0.500  0.000  0.500-  14 1.94  16 1.94  19 1.96  22 1.96  25 1.96  28 1.96   4 3.35   5 3.35
                             1 3.35   2 3.35   1 3.35   5 3.35   2 3.35   4 3.35
  11  0.000  0.500  0.166-  20 1.92  23 1.92  26 1.92  29 1.92  15 1.92  17 1.96   1 3.33   4 3.33
                             4 3.33   1 3.33   3 3.33   6 3.33   6 3.33   3 3.33
  12  0.500  0.000  0.833-  16 1.92  18 1.93  21 1.93  24 1.93  27 1.93  30 1.93   2 3.32   5 3.32
                             5 3.32   2 3.32   3 3.34   3 3.34   6 3.34   6 3.34
  13  0.000  0.500  0.665-   7 1.90   9 1.96   2 2.72   5 2.72   2 2.72   5 2.72
  14  0.500  0.000  0.332-   8 1.92  10 1.94   1 2.72   4 2.72   1 2.72   4 2.72
  15  0.000  0.500  0.000-   9 1.92  11 1.92   3 2.72   6 2.72   6 2.72   3 2.72
  16  0.500  0.000  0.668-  12 1.92  10 1.94   2 2.72   5 2.72   5 2.72   2 2.72
  17  0.000  0.500  0.335-   7 1.90  11 1.96   1 2.72   4 2.72   4 2.72   1 2.72
  18  0.500  0.000  0.000-   8 1.93  12 1.93   3 2.72   6 2.72   3 2.72   6 2.72
  19  0.754  0.746  0.500-   7 1.89  10 1.96   4 2.75   5 2.75   1 2.75   2 2.75
  20  0.250  0.250  0.167-  11 1.92   8 1.93   1 2.70   4 2.70   3 2.73   6 2.73
  21  0.750  0.750  0.833-   9 1.92  12 1.93   2 2.70   5 2.70   3 2.73   6 2.73
  22  0.246  0.254  0.500-   7 1.89  10 1.96   4 2.75   5 2.75   1 2.75   2 2.75
  23  0.750  0.750  0.167-  11 1.92   8 1.93   1 2.70   4 2.70   3 2.73   6 2.73
  24  0.250  0.250  0.833-   9 1.92  12 1.93   2 2.70   5 2.70   3 2.73   6 2.73
  25  0.754  0.254  0.500-   7 1.89  10 1.96   4 2.75   5 2.75   1 2.75   2 2.75
  26  0.250  0.750  0.167-  11 1.92   8 1.93   1 2.70   4 2.70   3 2.73   6 2.73
  27  0.750  0.250  0.833-   9 1.92  12 1.93   2 2.70   5 2.70   3 2.73   6 2.73
  28  0.246  0.746  0.500-   7 1.89  10 1.96   4 2.75   5 2.75   1 2.75   2 2.75
  29  0.750  0.250  0.167-  11 1.92   8 1.93   1 2.70   4 2.70   3 2.73   6 2.73
  30  0.250  0.750  0.833-   9 1.92  12 1.93   2 2.70   5 2.70   3 2.73   6 2.73

  LATTYP: Found a simple tetragonal cell.
 ALAT       =     5.4470553196
 C/A-ratio  =     2.1251576378

  Lattice vectors:

 A1 = (   3.8516497540,   3.8516497540,   0.0000000000)
 A2 = (   3.8516497540,  -3.8516497540,   0.0000000000)
 A3 = (   0.0000000000,   0.0000000000, -11.5758512159)

Analysis of symmetry for initial positions (statically):
 Subroutine PRICEL returns:
 Original cell was already a primitive cell.

 Routine SETGRP: Setting up the symmetry group for a
 simple tetragonal supercell.

 Subroutine GETGRP returns: Found 16 space group operations
 (whereof  8 operations were pure point group operations)
 out of a pool of 16 trial point group operations.

The static configuration has the point symmetry D_2h.
 The point group associated with its full space group is D_4h.

Analysis of symmetry for dynamics (positions and initial velocities):
 Subroutine PRICEL returns:
 Original cell was already a primitive cell.

[...]

The dynamic configuration has the point symmetry D_2h.
 The point group associated with its full space group is D_4h.

Analysis of structural, dynamic, and magnetic symmetry:
 Subroutine PRICEL returns:
 Original cell was already a primitive cell.

 Routine SETGRP: Setting up the symmetry group for a
 simple tetragonal supercell.

 Subroutine GETGRP returns: Found 16 space group operations
 (whereof  8 operations were pure point group operations)
 out of a pool of 16 trial point group operations.

The magnetic configuration has the point symmetry D_2h.
 The point group associated with its full space group is D_4h.

 Subroutine INISYM returns: Found 16 space group operations
 (whereof  8 operations are pure point group operations),
 and found     1 'primitive' translations

 KPOINTS: Automatic mesh

Automatic generation of k-mesh.
 generate k-points for:    4    4    2
Space group operators:
 irot       det(A)        alpha          n_x          n_y          n_z        tau_x        tau_y        tau_z
    1     1.000000     0.000000     1.000000     0.000000     0.000000     0.000000     0.000000     0.000000
    2    -1.000000     0.000000     1.000000     0.000000     0.000000     0.000000     0.000000     0.000000
    3     1.000000   180.000000     0.000000     0.000000     1.000000     0.000000     0.000000     0.000000
    4    -1.000000   180.000000     0.000000     0.000000     1.000000     0.000000     0.000000     0.000000
    5     1.000000   180.000000     0.707107    -0.707107     0.000000     0.000000     0.000000     0.000000
    6    -1.000000   180.000000     0.707107    -0.707107     0.000000     0.000000     0.000000     0.000000
    7     1.000000   180.000000     0.707107     0.707107     0.000000     0.000000     0.000000     0.000000
    8    -1.000000   180.000000     0.707107     0.707107     0.000000     0.000000     0.000000     0.000000
    9     1.000000    90.000000     0.000000     0.000000     1.000000     0.500000     0.500000     0.000000
   10    -1.000000    90.000000     0.000000     0.000000     1.000000     0.500000     0.500000     0.000000
   11     1.000000    90.000000     0.000000     0.000000    -1.000000     0.500000     0.500000     0.000000
   12    -1.000000    90.000000     0.000000     0.000000    -1.000000     0.500000     0.500000     0.000000
   13     1.000000   180.000000     1.000000     0.000000     0.000000     0.500000     0.500000     0.000000
   14    -1.000000   180.000000     1.000000     0.000000     0.000000     0.500000     0.500000     0.000000
   15     1.000000   180.000000     0.000000     1.000000     0.000000     0.500000     0.500000     0.000000
   16    -1.000000   180.000000     0.000000     1.000000     0.000000     0.500000     0.500000     0.000000

 Subroutine IBZKPT returns following result:

 Found     12 irreducible k-points:

 Following reciprocal coordinates:
            Coordinates               Weight
  0.000000  0.000000  0.000000      1.000000
  0.250000  0.000000  0.000000      4.000000
  0.500000  0.000000  0.000000      2.000000
[...]
     30      -7.2292      1.00000
     31      -6.9971      1.00000
     32      -6.9971      1.00000
     33      -6.9943      1.00000
     34      -6.9243      1.00000
     35      -6.9243      1.00000
     36      -6.8740      1.00000
     37      -6.8740      1.00000
     38      -6.7397      1.00000
     39      -6.4967      1.00000
     40      -6.4967      1.00000
     41      -6.3096      1.00000
     42      -6.2676      1.00000
     43       0.3459      1.00000
     44       0.3503      1.00000
     45       0.3978      1.00000
     46       0.4562      1.00000
     47       0.5728      1.00000
     48       0.7056      1.00000
     49       0.8464      1.00000
     50       1.1265      1.00000
     51       1.2443      1.00000
     52       1.2968      1.00000
     53       1.4771      1.00000
     54       1.6961      1.00000
     55       1.7551      1.00000
     56       1.8749      1.00000
     57       1.8749      1.00000
     58       1.8939      1.00000
     59       1.8939      1.00000
     60       1.9722      1.00000
[...]
    134      11.3839      0.00000
    135      11.4136      0.00000
    136      11.4465      0.00000
    137      11.4800      0.00000
    138      11.5092      0.00000
    139      11.5236      0.00000
    140      11.5555      0.00000
    141      11.5708      0.00000
    142      11.5939      0.00000
    143      11.6268      0.00000
    144      11.6460      0.00000
    145      11.6717      0.00000
    146      11.6904      0.00000
    147      11.7317      0.00000
    148      11.7856      0.00000

[...]

 spin component 2

[...]

 k-point    12 :       0.5000    0.5000    0.5000
  band No.  band energies     occupation
      1     -23.4045      1.00000
      2     -23.4045      1.00000
      3     -23.3902      1.00000
      4     -23.3902      1.00000
      5     -23.3339      1.00000
      6     -23.3339      1.00000
      7     -10.9934      1.00000
      8     -10.9359      1.00000
      9     -10.8712      1.00000
     10     -10.8337      1.00000
     11     -10.1650      1.00000
     12     -10.0894      1.00000
     13     -10.0894      1.00000
     14     -10.0241      1.00000
     15      -9.7867      1.00000
     16      -9.7469      1.00000
     17      -9.6690      1.00000
     18      -9.6690      1.00000
     19      -9.6016      1.00000
     20      -9.6016      1.00000
     21      -9.2288      1.00000
     22      -9.1387      1.00000
     23      -9.0809      1.00000
     24      -9.0553      1.00000
     25      -6.8632      1.00000
     26      -6.8384      1.00000
     27      -6.8250      1.00000
     28      -6.8125      1.00000
     29      -6.7791      1.00000
     30      -6.7791      1.00000
     31      -6.7555      1.00000
     32      -6.7555      1.00000
     33      -6.7329      1.00000
     34      -6.7143      1.00000
     35      -6.5462      1.00000
     36      -6.5185      1.00000
     37      -6.5185      1.00000
     38      -6.4890      1.00000
     39      -6.2745      1.00000
     40      -6.2233      1.00000
     41      -6.2085      1.00000
     42      -6.1813      1.00000
     43       1.6205      1.00000
     44       1.6205      1.00000
     45       1.8073      1.00000
     46       1.9225      1.00000
     47       2.3792      1.00000
     48       2.4017      1.00000
     49       2.4017      1.00000
     50       2.5080      1.00000
     51       2.5247      1.00000
     52       2.5440      1.00000
     53       2.5472      1.00000
     54       2.5845      1.00000
     55       2.5845      1.00000
     56       2.7393      1.00000
     57       2.7502      1.00000
     58       2.7655      1.00000
     59       2.8135      1.00000
     60       2.8136      1.00000
[...]
    134      11.5221      0.00000
    135      11.5368      0.00000
    136      11.5428      0.00000
    137      11.5484      0.00000
    138      11.5576      0.00000
    139      11.5791      0.00000
    140      11.5820      0.00000
    141      11.5941      0.00000
    142      11.5988      0.00000
    143      11.6171      0.00000
    144      11.6285      0.00000
    145      11.6387      0.00000
    146      11.6451      0.00000
    147      11.6662      0.00000
    148      11.6774      0.00000

 soft charge-density along one line, spin component           1
         0         1         2         3         4         5         6         7         8         9
 total charge-density along one line

 soft charge-density along one line, spin component           2
         0         1         2         3         4         5         6         7         8         9
 total charge-density along one line

------------------------ aborting loop because EDIFF is reached ----------------------------------------

 total charge

# of ion       s       p       d       f       tot
    1        2.000   5.702   0.498   0.195   8.395
    2        2.000   5.701   0.501   0.194   8.396
    3        2.000   5.702   0.494   0.192   8.388
    4        2.000   5.701   0.501   0.194   8.396
    5        2.000   5.702   0.498   0.195   8.395
    6        2.001   5.701   0.495   0.192   8.389
    7        0.364   0.585   4.868   0.000   5.817
    8        0.431   0.652   8.311   0.000   9.394
    9        0.429   0.643   8.319   0.000   9.392
   10        0.399   0.591   8.322   0.000   9.313
   11        0.429   0.643   8.319   0.000   9.392
   12        0.431   0.652   8.311   0.000   9.394
   13        1.563   3.460   0.000   0.000   5.023
   14        1.562   3.435   0.000   0.000   4.996
   15        1.565   3.427   0.000   0.000   4.992
   16        1.562   3.435   0.000   0.000   4.996
   17        1.563   3.460   0.000   0.000   5.022
   18        1.562   3.434   0.000   0.000   4.996
   19        1.562   3.471   0.000   0.000   5.033
   20        1.563   3.443   0.000   0.000   5.006
   21        1.563   3.443   0.000   0.000   5.006
   22        1.562   3.471   0.000   0.000   5.033
   23        1.563   3.443   0.000   0.000   5.006
   24        1.563   3.443   0.000   0.000   5.006
   25        1.561   3.452   0.000   0.000   5.014
   26        1.562   3.425   0.000   0.000   4.987
   27        1.562   3.425   0.000   0.000   4.987
   28        1.561   3.452   0.000   0.000   5.014
   29        1.562   3.425   0.000   0.000   4.987
   30        1.562   3.425   0.000   0.000   4.987
tot         42.611  99.942  49.438   1.162 193.153

 magnetization (x)

[...]

  FORCE on cell =-STRESS in cart. coord.  units (eV):
  Direction    XX          YY          ZZ          XY          YZ          ZX
  Alpha Z   994.77241   994.77241   994.77241
  Ewald   -5448.88605 -5448.88605 -5511.90140     0.00000     0.00000     0.00000
  Hartree  1324.75429  1324.75429  1270.47246     0.00000     0.00000     0.00000
  E(xc)   -1087.44208 -1087.44208 -1087.41434    -0.00000    -0.00000    -0.00000
  Local    -876.19189  -876.19189  -758.95340     0.00000    -0.00000     0.00000
  n-local   442.97140   442.52485   442.85061    -2.95719    -0.00114     0.00248
  augment   779.32198   779.32198   779.40047    -0.00000     0.00000     0.00000
  Kinetic  3867.48170  3874.36265  3870.14292    -8.89189     0.00088    -0.00234
  Fock        0.00000     0.00000     0.00000     0.00000     0.00000     0.00000
  Total      -0.00105    -0.00105    -0.63028     0.00000     0.00000     0.00000
  in kB      -0.00491    -0.00491    -2.94012     0.00000     0.00000     0.00000

 VOLUME and BASIS-vectors are now :
  energy-cutoff  :      520.00
  volume of cell :      343.46
      direct lattice vectors                 reciprocal lattice vectors
     3.851649754  3.851649754  0.000000000     0.129814503  0.129814503  0.000000000
     3.851649754 -3.851649754  0.000000000     0.129814503 -0.129814503  0.000000000
     0.000000000  0.000000000-11.575851216     0.000000000  0.000000000 -0.086386736

  length of vectors
     5.447055320  5.447055320 11.575851216     0.183585431  0.183585431  0.086386736

 FORCES acting on ions
    electron-ion (+dipol)            ewald-force                    non-local-force                 convergence-correction
   0.191E-12 -.197E-12 0.730E+02   -.550E-13 -.799E-14 -.727E+02   0.271E-19 0.136E-19 -.268E+00   0.404E-13 0.405E-13 0.476E-02
   0.622E-13 -.111E-12 -.730E+02   0.430E-14 -.497E-13 0.727E+02   -.108E-18 -.108E-18 0.268E+00   0.341E-13 0.343E-13 -.476E-02
   0.335E-12 -.350E-12 0.600E-12   -.368E-13 0.355E-13 -.114E-12   0.000E+00 0.000E+00 0.000E+00   0.461E-13 0.125E-13 -.220E-11
   -.159E-12 0.119E-12 0.730E+02   -.472E-13 -.273E-13 -.727E+02   0.108E-18 0.108E-18 -.268E+00   0.238E-13 -.123E-13 0.476E-02
   0.250E-12 -.238E-12 -.730E+02   -.268E-13 -.142E-13 0.727E+02   -.136E-19 -.136E-19 0.268E+00   0.608E-14 -.124E-13 -.476E-02
   -.323E-13 -.644E-15 0.695E-13   -.351E-13 0.711E-14 -.853E-13   -.275E-19 0.275E-19 0.000E+00   0.971E-14 0.129E-13 -.219E-11
   0.139E-12 -.132E-12 -.477E-13   -.302E-13 0.284E-13 -.284E-13   -.424E-21 0.424E-21 0.000E+00   -.204E-13 0.705E-14 0.144E-11
   0.748E-12 0.615E-12 0.252E+02   -.114E-12 -.879E-13 -.253E+02   0.000E+00 0.847E-21 0.118E+00   -.284E-13 0.860E-14 0.345E-02
   0.479E-12 -.436E-12 -.432E+02   0.284E-13 0.278E-13 0.428E+02   0.847E-21 0.000E+00 0.390E+00   -.175E-13 -.149E-13 -.105E-01
   0.720E-12 0.669E-12 0.590E-11   -.862E-13 -.113E-12 -.639E-13   0.000E+00 0.424E-21 0.000E+00   -.546E-13 -.570E-13 0.207E-11
   0.664E-12 -.600E-12 0.432E+02   0.533E-14 0.246E-14 -.428E+02   0.000E+00 -.847E-21 -.390E+00   -.767E-13 -.758E-13 0.105E-01
   0.692E-12 0.689E-12 -.252E+02   -.114E-12 -.874E-13 0.253E+02   0.169E-20 0.000E+00 -.118E+00   -.887E-13 -.562E-13 -.345E-02
   -.130E-12 0.128E-12 -.688E+02   0.213E-13 0.662E-14 0.646E+02   0.000E+00 -.169E-20 0.413E+01   0.150E-13 -.155E-14 -.275E-02
   0.152E-12 0.179E-12 0.395E+02   0.224E-13 -.474E-14 -.408E+02   -.678E-20 0.000E+00 0.136E+01   -.311E-14 -.243E-13 0.272E-02
   0.172E-12 -.170E-12 0.141E-13   -.107E-13 -.836E-14 -.284E-13   0.000E+00 0.339E-20 0.000E+00   -.141E-13 -.300E-13 -.122E-11
   0.186E-12 0.143E-12 -.395E+02   -.355E-14 0.719E-14 0.408E+02   0.000E+00 0.678E-20 -.136E+01   -.312E-13 -.261E-13 -.272E-02
   0.552E-12 -.547E-12 0.688E+02   0.380E-13 -.422E-14 -.646E+02   0.254E-20 0.424E-20 -.413E+01   -.415E-13 -.279E-13 0.275E-02
   0.167E-12 0.161E-12 0.242E-11   -.355E-14 -.349E-13 0.000E+00   0.000E+00 0.000E+00 0.000E+00   -.208E-13 -.967E-14 -.126E-11
   -.931E-12 -.368E+02 -.816E-13   0.332E-13 0.321E+02 -.213E-13   0.000E+00 0.470E+01 0.169E-20   0.219E-13 0.123E-02 0.126E-11
   -.262E-08 0.251E+00 0.192E+02   0.226E-13 -.587E-01 -.190E+02   0.000E+00 -.188E+00 -.190E+00   -.256E-13 -.260E-02 0.327E-02
   0.261E-08 -.251E+00 -.192E+02   0.738E-13 0.587E-01 0.190E+02   0.000E+00 0.188E+00 0.190E+00   0.494E-14 0.260E-02 -.327E-02
   -.181E-12 0.368E+02 -.317E-12   -.383E-13 -.321E+02 0.355E-13   0.000E+00 -.470E+01 0.000E+00   -.479E-13 -.123E-02 0.125E-11
   -.262E-08 -.251E+00 0.192E+02   0.343E-13 0.587E-01 -.190E+02   -.867E-18 0.188E+00 -.190E+00   -.214E-13 0.260E-02 0.327E-02
   0.262E-08 0.251E+00 -.192E+02   0.253E-13 -.587E-01 0.190E+02   0.000E+00 -.188E+00 0.190E+00   -.315E-13 -.260E-02 -.327E-02
   -.368E+02 0.165E-11 -.226E-05   0.321E+02 0.501E-13 -.213E-13   0.470E+01 0.000E+00 0.000E+00   0.123E-02 0.158E-13 0.127E-11
   0.251E+00 -.639E-12 0.192E+02   -.587E-01 -.218E-13 -.190E+02   -.188E+00 -.867E-18 -.190E+00   -.260E-02 -.169E-13 0.327E-02
   -.251E+00 -.123E-11 -.192E+02   0.587E-01 0.302E-13 0.190E+02   0.188E+00 -.867E-18 0.190E+00   0.260E-02 -.135E-14 -.327E-02
   0.368E+02 -.373E-12 0.226E-05   -.321E+02 -.868E-14 0.284E-13   -.470E+01 0.000E+00 -.169E-20   -.123E-02 -.461E-13 0.124E-11
   -.251E+00 -.859E-12 0.192E+02   0.587E-01 0.206E-13 -.190E+02   0.188E+00 -.867E-18 -.190E+00   0.260E-02 -.162E-13 0.327E-02
   0.251E+00 -.666E-12 -.192E+02   -.587E-01 -.732E-14 0.190E+02   -.188E+00 -.867E-18 0.190E+00   -.260E-02 -.276E-13 -.327E-02
   -.259E-11 0.418E-11 0.586E-10   -.776E-14 -.102E-13 -.227E-12   0.000E+00 0.243E-16 0.555E-16   -.144E-12 -.348E-12 -.161E-11

 POSITION                                       TOTAL-FORCE (eV/Angst)
      3.85165      0.00000     -3.83206         0.000000      0.000000      0.090239
      0.00000      0.00000     -7.74379         0.000000      0.000000     -0.090239
      3.85165      0.00000      0.00000         0.000000      0.000000      0.000000
      0.00000      0.00000     -3.83206         0.000000      0.000000      0.090239
      3.85165      0.00000     -7.74379         0.000000      0.000000     -0.090239
      0.00000      0.00000      0.00000         0.000000      0.000000      0.000000
      1.92582     -1.92582     -5.78793         0.000000      0.000000      0.000000
      1.92582      1.92582     -1.92876         0.000000      0.000000      0.012390
      1.92582     -1.92582     -9.65147         0.000000      0.000000     -0.004976
      1.92582      1.92582     -5.78793         0.000000      0.000000      0.000000
      1.92582     -1.92582     -1.92438         0.000000      0.000000      0.004976
      1.92582      1.92582     -9.64709         0.000000      0.000000     -0.012390
      1.92582     -1.92582     -7.69247         0.000000      0.000000     -0.047984
      1.92582      1.92582     -3.84537         0.000000      0.000000      0.080805
      1.92582     -1.92582      0.00000         0.000000      0.000000      0.000000
      1.92582      1.92582     -7.73049         0.000000      0.000000     -0.080805
      1.92582     -1.92582     -3.88339         0.000000      0.000000      0.047984
      1.92582      1.92582      0.00000         0.000000      0.000000      0.000000
      5.77747      0.03223     -5.78793         0.000000     -0.002206     -0.000000
      1.92582     -0.00327     -1.93325         0.000000      0.001751     -0.009843
      5.77747      0.00327     -9.64260         0.000000     -0.001751      0.009843
      1.92582     -0.03223     -5.78793         0.000000      0.002206      0.000000
      5.77747      0.00327     -1.93325         0.000000     -0.001751     -0.009843
      1.92582     -0.00327     -9.64260         0.000000      0.001751      0.009843
      3.88388      1.92582     -5.78793        -0.002206      0.000000     -0.000000
      3.84838     -1.92582     -1.93325         0.001751      0.000000     -0.009843
      3.85492      1.92582     -9.64260        -0.001751      0.000000      0.009843
      3.81942     -1.92582     -5.78793         0.002206      0.000000      0.000000
      3.85492      1.92582     -1.93325        -0.001751      0.000000     -0.009843
      3.84838     -1.92582     -9.64260         0.001751      0.000000      0.009843
    total drift:                               -0.000000      0.000000      0.000000

  FREE ENERGIE OF THE ION-ELECTRON SYSTEM (eV)
  free  energy   TOTEN  =      -206.94986652 eV

  energy  without entropy=     -206.94986652  energy(sigma->0) =     -206.94986652

 total charge

[...]

 magnetization (x)

# of ion       s       p       d       f       tot
    1        0.001  -0.000   0.007   0.003   0.011
    2        0.001   0.001   0.007   0.003   0.011
    3        0.001  -0.001   0.005   0.003   0.008
    4        0.001   0.001   0.007   0.003   0.011
    5        0.001  -0.000   0.007   0.003   0.011
    6        0.001  -0.001   0.005   0.003   0.008
    7        0.026   0.034   3.176   0.000   3.235
    8        0.018   0.011   1.323   0.000   1.352
    9        0.017   0.006   1.369   0.000   1.392
   10        0.005  -0.001   1.567   0.000   1.572
   11        0.017   0.006   1.369   0.000   1.392
   12        0.018   0.011   1.323   0.000   1.352
   13        0.004  -0.036   0.000   0.000  -0.031
   14        0.005  -0.091   0.000   0.000  -0.085
   15        0.006  -0.125   0.000   0.000  -0.119
   16        0.005  -0.091   0.000   0.000  -0.085
   17        0.004  -0.036   0.000   0.000  -0.031
   18        0.006  -0.086   0.000   0.000  -0.081
   19        0.005  -0.021   0.000   0.000  -0.016
   20        0.007  -0.098   0.000   0.000  -0.091
   21        0.007  -0.098   0.000   0.000  -0.091
   22        0.005  -0.021   0.000   0.000  -0.016
   23        0.007  -0.098   0.000   0.000  -0.091
   24        0.007  -0.098   0.000   0.000  -0.091
   25        0.003  -0.029   0.000   0.000  -0.026
   26        0.005  -0.100   0.000   0.000  -0.096
   27        0.005  -0.100   0.000   0.000  -0.096
   28        0.003  -0.029   0.000   0.000  -0.026
   29        0.005  -0.100   0.000   0.000  -0.096
   30        0.005  -0.100   0.000   0.000  -0.096
tot          0.197  -1.290  10.165   0.017   9.089

 BZINTS: Fermi energy:  7.482284;231.000000 electrons
         Band energy:-251.210445;  BLOECHL correction: -0.100238