 vasp.5.4.4.18Apr17-6-g9f103f2a35 (build Oct 03 2018 13:58:34) complex

 executed on             LinuxIFC date 2019.06.04  01:54:27

 INCAR:
 POTCAR:    PAW_PBE La 06Sep2000
 POTCAR:    PAW_PBE Mn 06Sep2000
 POTCAR:    PAW_PBE Ni 02Aug2007
 POTCAR:    PAW_PBE O 08Apr2002

 POTCAR:    PAW_PBE La 06Sep2000
   VRHFIN =La : [core=Kr4d]

   TITEL  = PAW_PBE La 06Sep2000
   POMASS =  138.900; ZVAL   =   11.000    mass and valenz
   ENMAX  =  219.292; ENMIN  =  164.469 eV

 POTCAR:    PAW_PBE Mn 06Sep2000
   VRHFIN =Mn: d6 s1

   TITEL  = PAW_PBE Mn 06Sep2000
   POMASS =   54.938; ZVAL   =    7.000    mass and valenz
   ENMAX  =  269.864; ENMIN  =  202.398 eV

 POTCAR:    PAW_PBE Ni 02Aug2007
   VRHFIN =Ni:

   TITEL  = PAW_PBE Ni 02Aug2007
   POMASS =   58.690; ZVAL   =   10.000    mass and valenz
   ENMAX  =  269.532; ENMIN  =  202.149 eV

 POTCAR:    PAW_PBE O 08Apr2002
   VRHFIN =O: s2p4

   TITEL  = PAW_PBE O 08Apr2002
   POMASS =   16.000; ZVAL   =    6.000    mass and valenz
   ENMAX  =  400.000; ENMIN  =  300.000 eV

 Optimization of the real space projectors (new method)

 maximal supplied QI-value         = 13.42
 optimisation between [QCUT,QGAM] = [ 11.67, 23.35] = [ 38.16,152.62] Ry
 Optimized for a Real-space Cutoff    1.63 Angstroem

   l    n(q)    QCUT    max X(q) W(low)/X(q) W(high)/X(q)  e(spline)
   0     11    11.673    13.882    0.27E-04    0.79E-05    0.11E-06
   0     11    11.673    12.184    0.39E-04    0.13E-04    0.19E-06
   1     11    11.673     4.523    0.73E-05    0.76E-05    0.12E-06
   1     11    11.673     4.424    0.87E-05    0.13E-04    0.19E-06
   2     10    11.673    52.481    0.65E-04    0.36E-04    0.18E-06
   2     10    11.673    38.501    0.61E-04    0.33E-04    0.17E-06
   3     10    11.673    65.631    0.17E-03    0.14E-03    0.37E-06
   3     10    11.673    56.854    0.17E-03    0.14E-03    0.37E-06
 Optimization of the real space projectors (new method)

[...]

   l    n(q)    QCUT    max X(q) W(low)/X(q) W(high)/X(q)  e(spline)
   2      9    11.539    60.317    0.19E-03    0.47E-04    0.16E-06
   2      9    11.539    55.921    0.19E-03    0.48E-04    0.16E-06
   0     10    11.539    51.690    0.80E-04    0.50E-04    0.24E-06
   0     10    11.539    30.015    0.73E-04    0.45E-04    0.22E-06
   1     10    11.539    18.849    0.87E-04    0.16E-03    0.71E-07
   1     10    11.539    14.624    0.73E-04    0.13E-03    0.64E-07
 Optimization of the real space projectors (new method)

 maximal supplied QI-value         = 24.76
 optimisation between [QCUT,QGAM] = [ 11.64, 23.27] = [ 37.91,151.63] Ry
 Optimized for a Real-space Cutoff    1.14 Angstroem

   l    n(q)    QCUT    max X(q) W(low)/X(q) W(high)/X(q)  e(spline)
   0      8    11.635    20.381    0.10E-03    0.33E-03    0.24E-06
   0      8    11.635    15.268    0.11E-03    0.35E-03    0.26E-06
   1      7    11.635     5.964    0.24E-03    0.31E-03    0.30E-06
   1      7    11.635     5.382    0.22E-03    0.25E-03    0.26E-06
  PAW_PBE La 06Sep2000                  :
  PAW_PBE Mn 06Sep2000                  :
  PAW_PBE Ni 02Aug2007                  :
  PAW_PBE O 08Apr2002                   :

 POSCAR: SCEL6_2_1_3_0_1_1/4
  positions in direct lattice
  velocities in cartesian coordinates
 exchange correlation table for  LEXCH =        8
   RHO(1)=    0.500       N(1)  =     2000
   RHO(2)=  100.500       N(2)  =     4000

 ion  position               nearest neighbor table
   1  0.164  0.164  0.328-  24 2.72  27 2.72  30 2.72  21 2.72  17 2.74  17 2.74  14 2.74  14 2.74
                            23 2.81  26 2.81  29 2.81  20 2.81  12 3.33  12 3.33  10 3.34  10 3.34
   2  0.330  0.330  0.661-  20 2.67  29 2.67  26 2.67  23 2.67  13 2.74  13 2.74  16 2.74  16 2.74
                            19 2.78  28 2.78  25 2.78  22 2.78   7 3.33   7 3.33  11 3.33  11 3.33
   3  0.505  0.505  0.011-  21 2.65  27 2.65  30 2.65  24 2.65  18 2.75  18 2.75  15 2.75  15 2.75
                            10 3.29  10 3.29  12 3.30  12 3.30   8 3.43   8 3.43
   4  0.664  0.664  0.328-  21 2.72  27 2.72  30 2.72  24 2.72  17 2.74  17 2.74  14 2.74  14 2.74
                            20 2.81  26 2.81  29 2.81  23 2.81  12 3.33  12 3.33  10 3.34  10 3.34
   5  0.830  0.830  0.661-  23 2.67  29 2.67  26 2.67  20 2.67  13 2.74  13 2.74  16 2.74  16 2.74
                            22 2.78  28 2.78  25 2.78  19 2.78   7 3.33   7 3.33  11 3.33  11 3.33
   6  0.005  0.005  0.011-  24 2.65  27 2.65  30 2.65  21 2.65  18 2.75  18 2.75  15 2.75  15 2.75
                            10 3.29  10 3.29  12 3.30  12 3.30   8 3.43   8 3.43
   7  0.750  0.250  0.500-  14 1.88  29 1.90  23 1.90  26 1.90  20 1.90  13 1.96   2 3.33   5 3.33
                             2 3.33   5 3.33   4 3.39   1 3.39   4 3.39   1 3.39
   8  0.917  0.417  0.835-  18 1.89  25 1.93  22 1.93  19 1.93  28 1.93  13 1.95   2 3.41   5 3.41
                             5 3.41   2 3.41   3 3.43   6 3.43   3 3.43   6 3.43
   9  0.417  0.917  0.833-  15 1.88  16 1.90  25 1.95  22 1.95  19 1.95  28 1.95   2 3.40   5 3.40
                             2 3.40   5 3.40
  10  0.583  0.083  0.166-  30 1.92  24 1.92  21 1.92  27 1.92  15 2.00  14 2.01   3 3.29   6 3.29
                             3 3.29   6 3.29   4 3.34   1 3.34   1 3.34   4 3.34
  11  0.250  0.750  0.500-  17 1.94  20 1.98  23 1.98  26 1.98  29 1.98  16 1.99   5 3.33   2 3.33
                             2 3.33   5 3.33
  12  0.084  0.584  0.167-  17 1.93  27 1.96  24 1.96  21 1.96  30 1.96  18 1.99   6 3.30   3 3.30
                             3 3.30   6 3.30   4 3.33   1 3.33   4 3.33   1 3.33
  13  0.834  0.334  0.667-   8 1.95   7 1.96   2 2.74   5 2.74   5 2.74   2 2.74
  14  0.669  0.169  0.338-   7 1.88  10 2.01   1 2.74   4 2.74   4 2.74   1 2.74
  15  0.497  0.997  0.994-   9 1.88  10 2.00   6 2.75   3 2.75   3 2.75   6 2.75
  16  0.335  0.835  0.670-   9 1.90  11 1.99   2 2.74   5 2.74   2 2.74   5 2.74
  17  0.167  0.667  0.333-  12 1.93  11 1.94   1 2.74   4 2.74   1 2.74   4 2.74
  18  0.999  0.499  0.997-   8 1.89  12 1.99   3 2.75   6 2.75   3 2.75   6 2.75
  19  0.165  0.167  0.832-   8 1.93   9 1.95   2 2.78   5 2.78
  20  0.996  0.007  0.503-   7 1.90  11 1.98   2 2.67   5 2.67   4 2.81   1 2.81
  21  0.830  0.835  0.165-  10 1.92  12 1.96   3 2.65   6 2.65   4 2.72   1 2.72
  22  0.667  0.665  0.832-   8 1.93   9 1.95   5 2.78   2 2.78
  23  0.507  0.496  0.503-   7 1.90  11 1.98   5 2.67   2 2.67   1 2.81   4 2.81
  24  0.335  0.330  0.165-  10 1.92  12 1.96   6 2.65   3 2.65   1 2.72   4 2.72
  25  0.667  0.167  0.832-   8 1.93   9 1.95   2 2.78   5 2.78
  26  0.507  0.007  0.503-   7 1.90  11 1.98   2 2.67   5 2.67   4 2.81   1 2.81
  27  0.335  0.835  0.165-  10 1.92  12 1.96   3 2.65   6 2.65   4 2.72   1 2.72
  28  0.165  0.665  0.832-   8 1.93   9 1.95   2 2.78   5 2.78
  29  0.996  0.496  0.503-   7 1.90  11 1.98   2 2.67   5 2.67   4 2.81   1 2.81
  30  0.830  0.330  0.165-  10 1.92  12 1.96   3 2.65   6 2.65   4 2.72   1 2.72

  LATTYP: Found a body centered tetragonal cell.
 ALAT       =     5.4850133583
 C/A-ratio  =     4.2551654917

  Lattice vectors:

 A1 = (   0.0000000000,  -3.8784901406,  11.6698197818)
 A2 = (   0.0000000000,   3.8784901406,  11.6698197818)
 A3 = (  -3.8784901406,   0.0000000000, -11.6698197818)

Analysis of symmetry for initial positions (statically):
 Subroutine PRICEL returns:
 Original cell was already a primitive cell.

 Routine SETGRP: Setting up the symmetry group for a
 body centered tetragonal supercell.

 Subroutine GETGRP returns: Found  8 space group operations
 (whereof  4 operations were pure point group operations)
 out of a pool of 16 trial point group operations.

The static configuration has the point symmetry C_2v.
 The point group associated with its full space group is C_4v.

Analysis of symmetry for dynamics (positions and initial velocities):
 Subroutine PRICEL returns:
 Original cell was already a primitive cell.

[...]

The dynamic configuration has the point symmetry C_2v.
 The point group associated with its full space group is C_4v.

Analysis of structural, dynamic, and magnetic symmetry:
 Subroutine PRICEL returns:
 Original cell was already a primitive cell.

 Routine SETGRP: Setting up the symmetry group for a
 body centered tetragonal supercell.

 Subroutine GETGRP returns: Found  8 space group operations
 (whereof  4 operations were pure point group operations)
 out of a pool of 16 trial point group operations.

The magnetic configuration has the point symmetry C_2v.
 The point group associated with its full space group is C_4v.

 Subroutine INISYM returns: Found  8 space group operations
 (whereof  4 operations are pure point group operations),
 and found     1 'primitive' translations

 KPOINTS: Automatic mesh

Automatic generation of k-mesh.
 generate k-points for:    4    4    2
Space group operators:
 irot       det(A)        alpha          n_x          n_y          n_z        tau_x        tau_y        tau_z
    1     1.000000     0.000000     1.000000     0.000000     0.000000     0.000000     0.000000     0.000000
    2     1.000000   180.000000     0.000000     0.000000     1.000000     0.000000     0.000000     0.000000
    3    -1.000000   180.000000     0.707107     0.707107     0.000000     0.000000     0.000000     0.000000
    4    -1.000000   180.000000     0.707107    -0.707107     0.000000     0.000000     0.000000     0.000000
    5     1.000000    90.000000     0.000000     0.000000    -1.000000     0.500000     0.500000     1.000000
    6     1.000000    90.000000     0.000000     0.000000     1.000000     0.500000     0.500000     1.000000
    7    -1.000000   180.000000     1.000000     0.000000     0.000000     0.500000     0.500000     1.000000
    8    -1.000000   180.000000     0.000000     1.000000     0.000000     0.500000     0.500000     1.000000

 Subroutine IBZKPT returns following result:

 Found     10 irreducible k-points:

 Following reciprocal coordinates:
            Coordinates               Weight
  0.000000  0.000000  0.000000      1.000000
  0.250000  0.000000  0.000000      4.000000
  0.500000  0.000000  0.000000      4.000000
  0.250000  0.250000  0.000000      4.000000
  0.500000  0.250000  0.000000      8.000000
 -0.250000  0.250000  0.000000      2.000000
  0.500000  0.500000  0.000000      2.000000
  0.000000  0.000000  0.500000      1.000000
  0.250000  0.000000  0.500000      4.000000
 -0.250000  0.250000  0.500000      2.000000

 Following cartesian coordinates:
            Coordinates               Weight
  0.000000  0.000000  0.000000      1.000000
  0.032229 -0.032229  0.010711      4.000000
  0.064458 -0.064458  0.021423      4.000000
  0.064458  0.000000  0.021423      4.000000
  0.096687 -0.032229  0.032134      8.000000
  0.000000  0.064458  0.000000      2.000000
  0.128916  0.000000  0.042846      2.000000
  0.000000  0.000000  0.042846      1.000000
  0.032229 -0.032229  0.053557      4.000000
  0.000000  0.064458  0.042846      2.000000

 TETIRR: Found     41 inequivalent tetrahedra from      192

 SYSTEM =  final
 POSCAR =  SCEL6_2_1_3_0_1_1/4

 Startparameter for this run:
   NWRITE =      2    write-flag & timer
[...]
     30      -7.4621      1.00000
     31      -7.4498      1.00000
     32      -7.4014      1.00000
     33      -7.4014      1.00000
     34      -7.3538      1.00000
     35      -7.3511      1.00000
     36      -7.3511      1.00000
     37      -7.2314      1.00000
     38      -7.2314      1.00000
     39      -7.0946      1.00000
     40      -7.0946      1.00000
     41      -6.7846      1.00000
     42      -6.7473      1.00000
     43       0.1427      1.00000
     44       0.1816      1.00000
     45       0.4175      1.00000
     46       0.4730      1.00000
     47       0.7937      1.00000
     48       0.8375      1.00000
     49       1.0931      1.00000
     50       1.0994      1.00000
     51       1.1754      1.00000
     52       1.2935      1.00000
     53       1.4588      1.00000
     54       1.6825      1.00000
     55       1.6825      1.00000
     56       1.7820      1.00000
     57       1.7989      1.00000
     58       1.7989      1.00000
     59       1.9604      1.00000
     60       1.9604      1.00000
[...]
    132      10.8907      0.00000
    133      10.9113      0.00000
    134      10.9371      0.00000
    135      10.9950      0.00000
    136      11.0116      0.00000
    137      11.0297      0.00000
    138      11.0511      0.00000
    139      11.0697      0.00000
    140      11.0974      0.00000
    141      11.1191      0.00000
    142      11.1449      0.00000
    143      11.1559      0.00000
    144      11.1797      0.00000
    145      11.2088      0.00000
    146      11.2497      0.00000

[...]

 spin component 2

[...]

 k-point    10 :      -0.2500    0.2500    0.5000
  band No.  band energies     occupation
      1     -23.9144      1.00000
      2     -23.8865      1.00000
      3     -23.8605      1.00000
      4     -23.8529      1.00000
      5     -23.8150      1.00000
      6     -23.8105      1.00000
      7     -11.0896      1.00000
      8     -11.0118      1.00000
      9     -10.9333      1.00000
     10     -10.8691      1.00000
     11     -10.5233      1.00000
     12     -10.3677      1.00000
     13     -10.0878      1.00000
     14     -10.0613      1.00000
     15     -10.0249      1.00000
     16     -10.0186      1.00000
     17      -9.8688      1.00000
     18      -9.8145      1.00000
     19      -9.7155      1.00000
     20      -9.6304      1.00000
     21      -9.5832      1.00000
     22      -9.4904      1.00000
     23      -9.3961      1.00000
     24      -9.1688      1.00000
     25      -7.7673      1.00000
     26      -7.6474      1.00000
     27      -7.3781      1.00000
     28      -7.3629      1.00000
     29      -7.3438      1.00000
     30      -7.3039      1.00000
     31      -7.2950      1.00000
     32      -7.2760      1.00000
     33      -7.2718      1.00000
     34      -7.1924      1.00000
     35      -7.1555      1.00000
     36      -7.1533      1.00000
     37      -7.1100      1.00000
     38      -7.0325      1.00000
     39      -6.9940      1.00000
     40      -6.9012      1.00000
     41      -6.7822      1.00000
     42      -6.7648      1.00000
     43       1.5605      1.00000
     44       1.6268      1.00000
     45       2.0401      1.00000
     46       2.1917      1.00000
     47       2.2141      1.00000
     48       2.3091      1.00000
     49       2.3504      1.00000
     50       2.5236      1.00000
     51       2.5798      1.00000
     52       2.6453      1.00000
     53       2.7756      1.00000
     54       2.8830      1.00000
     55       2.8895      1.00000
     56       3.0185      1.00000
     57       3.0254      1.00000
     58       3.1312      1.00000
     59       3.1876      1.00000
     60       3.2440      1.00000
[...]
    132      11.0753      0.00000
    133      11.0834      0.00000
    134      11.0929      0.00000
    135      11.1002      0.00000
    136      11.1076      0.00000
    137      11.1262      0.00000
    138      11.1375      0.00000
    139      11.1390      0.00000
    140      11.1572      0.00000
    141      11.1648      0.00000
    142      11.1833      0.00000
    143      11.1867      0.00000
    144      11.2053      0.00000
    145      11.2483      0.00000
    146      11.2599      0.00000

 soft charge-density along one line, spin component           1
         0         1         2         3         4         5         6         7         8         9
 total charge-density along one line

 soft charge-density along one line, spin component           2
         0         1         2         3         4         5         6         7         8         9
 total charge-density along one line

------------------------ aborting loop because EDIFF is reached ----------------------------------------

 total charge

# of ion       s       p       d       f       tot
    1        1.999   5.698   0.477   0.189   8.362
    2        2.000   5.701   0.497   0.195   8.393
    3        2.001   5.698   0.498   0.192   8.389
    4        1.999   5.696   0.485   0.184   8.364
    5        2.000   5.700   0.499   0.194   8.394
    6        2.001   5.698   0.498   0.192   8.390
    7        0.360   0.580   4.863   0.000   5.803
    8        0.333   0.516   4.865   0.000   5.714
    9        0.333   0.521   4.865   0.000   5.719
   10        0.420   0.626   8.329   0.000   9.374
   11        0.384   0.552   8.321   0.000   9.257
   12        0.407   0.596   8.322   0.000   9.326
   13        1.561   3.470   0.000   0.000   5.031
   14        1.563   3.449   0.000   0.000   5.012
   15        1.563   3.457   0.000   0.000   5.020
   16        1.560   3.460   0.000   0.000   5.020
   17        1.555   3.450   0.000   0.000   5.005
   18        1.563   3.449   0.000   0.000   5.012
   19        1.564   3.456   0.000   0.000   5.020
   20        1.561   3.461   0.000   0.000   5.023
   21        1.559   3.452   0.000   0.000   5.011
   22        1.564   3.454   0.000   0.000   5.018
   23        1.561   3.462   0.000   0.000   5.023
   24        1.559   3.450   0.000   0.000   5.009
   25        1.564   3.453   0.000   0.000   5.017
   26        1.561   3.461   0.000   0.000   5.022
   27        1.559   3.449   0.000   0.000   5.008
   28        1.564   3.455   0.000   0.000   5.019
   29        1.561   3.460   0.000   0.000   5.021
   30        1.559   3.456   0.000   0.000   5.015
tot         42.341  99.788  42.519   1.146 185.794

 magnetization (x)

[...]

  FORCE on cell =-STRESS in cart. coord.  units (eV):
  Direction    XX          YY          ZZ          XY          YZ          ZX
  Alpha Z   983.59469   983.59469   983.59469
  Ewald   -5070.86252 -5070.86252 -5315.35645     0.00000     0.00000     0.00001
  Hartree  1247.58010  1247.58006  1032.05200     0.00000    -0.00000     0.00002
  E(xc)   -1046.30779 -1046.30779 -1046.40024    -0.00000    -0.00000    -0.00001
  Local    -866.88673  -866.88675  -407.85130    -0.00000     0.00000    -0.00045
  n-local   416.00307   415.91019   416.37026     2.17888    -0.07008     0.12385
  augment   489.00632   489.00711   489.85102     0.00000    -0.00000     0.00012
  Kinetic  3847.59177  3848.05484  3847.88342    12.17324     0.23256    -0.45024
  Fock        0.00000     0.00000     0.00000     0.00000     0.00000     0.00000
  Total      -0.09563    -0.09563     0.14340     0.00000     0.00000     0.00000
  in kB      -0.43642    -0.43642     0.65438     0.00000     0.00000     0.00000

 VOLUME and BASIS-vectors are now :
  energy-cutoff  :      520.00
  volume of cell :      351.09
      direct lattice vectors                 reciprocal lattice vectors
     3.878490141 -3.878490141  0.000000000     0.128916146 -0.128916146  0.042845563
     3.878490141  3.878490141  0.000000000     0.128916146  0.128916146  0.042845563
    -3.878490141  0.000000000 11.669819782     0.000000000  0.000000000  0.085691126

  length of vectors
     5.485013358  5.485013358 12.297454188     0.187281840  0.187281840  0.085691126

 FORCES acting on ions
    electron-ion (+dipol)            ewald-force                    non-local-force                 convergence-correction
   -.390E-03 0.284E-06 -.866E+02   -.977E-04 -.326E-05 0.860E+02   0.000E+00 -.347E-17 0.581E+00   -.475E-05 0.463E-07 0.201E-01
   0.426E-03 -.240E-05 -.944E+02   0.839E-04 0.489E-05 0.937E+02   0.173E-16 0.000E+00 0.714E+00   -.526E-05 -.309E-07 0.243E-01
   0.184E-05 0.351E-05 0.181E+03   -.206E-04 -.312E-05 -.180E+03   -.694E-17 -.139E-16 -.132E+01   0.134E-05 0.191E-07 -.437E-01
   -.390E-03 -.284E-06 -.866E+02   -.977E-04 0.326E-05 0.860E+02   0.000E+00 0.347E-17 0.581E+00   -.475E-05 -.463E-07 0.201E-01
   0.426E-03 0.240E-05 -.944E+02   0.839E-04 -.489E-05 0.937E+02   0.208E-16 0.000E+00 0.714E+00   -.526E-05 0.309E-07 0.243E-01
   0.184E-05 -.351E-05 0.181E+03   -.206E-04 0.312E-05 -.180E+03   0.000E+00 0.139E-16 -.132E+01   0.134E-05 -.191E-07 -.437E-01
   -.964E-05 0.157E-10 -.452E+02   -.536E-05 0.735E-13 0.445E+02   0.000E+00 0.000E+00 0.648E+00   0.266E-08 -.151E-13 0.239E-01
   0.410E-04 0.157E-10 0.271E+02   0.271E-04 -.613E-13 -.268E+02   0.173E-17 0.000E+00 -.355E+00   0.352E-07 0.115E-13 -.123E-01
   0.119E-04 0.165E-10 0.189E+02   0.337E-04 -.418E-13 -.188E+02   0.000E+00 -.108E-18 -.798E-01   0.228E-06 0.201E-13 -.369E-02
   -.515E-04 0.300E-10 0.195E+02   -.108E-04 -.226E-13 -.197E+02   0.000E+00 0.000E+00 0.239E+00   -.159E-06 -.404E-13 -.288E-01
   -.627E-05 0.321E-10 -.590E+02   -.503E-05 -.446E-14 0.570E+02   -.139E-16 0.000E+00 0.189E+01   0.267E-06 0.114E-12 0.437E-01
   -.307E-04 0.315E-10 0.390E+02   -.235E-04 0.318E-13 -.366E+02   0.139E-16 0.000E+00 -.232E+01   -.389E-06 0.317E-13 -.290E-01
   0.484E-03 -.122E-10 -.396E+02   -.401E-04 -.604E-14 0.398E+02   0.520E-17 0.000E+00 -.251E+00   0.461E-06 -.112E-13 0.122E-01
   -.525E-03 -.141E-10 -.586E+02   0.573E-04 -.423E-13 0.521E+02   -.555E-16 0.000E+00 0.643E+01   -.103E-05 -.953E-14 0.145E-02
   0.481E-05 -.122E-10 0.102E+03   0.548E-05 -.587E-14 -.962E+02   -.833E-16 0.000E+00 -.555E+01   0.620E-06 -.235E-13 0.252E-01
   0.474E-03 -.995E-11 -.683E+02   -.534E-04 0.318E-13 0.637E+02   -.555E-16 0.000E+00 0.473E+01   -.252E-06 0.290E-13 -.270E-01
   -.521E-03 -.113E-10 -.391E+02   0.736E-04 -.924E-14 0.396E+02   -.347E-17 0.000E+00 -.503E+00   -.238E-06 0.379E-13 0.973E-02
   0.169E-04 -.103E-10 0.104E+03   0.402E-05 0.215E-15 -.989E+02   0.278E-16 0.000E+00 -.509E+01   0.618E-06 0.148E-13 -.187E-01
   -.480E-03 0.849E+00 0.142E+02   -.437E-04 -.141E+01 -.142E+02   0.173E-17 0.550E+00 -.534E-01   -.240E-06 0.352E-01 -.922E-02
   -.153E-04 -.289E+02 -.301E+02   -.838E-05 0.234E+02 0.293E+02   -.118E-15 0.546E+01 0.864E+00   0.295E-08 -.342E-03 0.217E-01
   0.477E-03 0.999E+01 0.156E+02   0.665E-04 -.113E+02 -.149E+02   0.104E-16 0.131E+01 -.706E+00   0.248E-06 0.139E-01 -.151E-01
   -.480E-03 -.849E+00 0.142E+02   -.437E-04 0.141E+01 -.142E+02   0.651E-18 -.550E+00 -.534E-01   -.240E-06 -.352E-01 -.922E-02
   -.153E-04 0.289E+02 -.301E+02   -.838E-05 -.234E+02 0.293E+02   -.347E-16 -.546E+01 0.864E+00   0.295E-08 0.342E-03 0.217E-01
   0.477E-03 -.999E+01 0.156E+02   0.665E-04 0.113E+02 -.149E+02   0.208E-16 -.131E+01 -.706E+00   0.248E-06 -.139E-01 -.151E-01
   0.848E+00 -.223E-10 0.142E+02   -.141E+01 0.215E-13 -.142E+02   0.550E+00 0.000E+00 -.534E-01   0.352E-01 0.278E-13 -.922E-02
   -.289E+02 -.234E-10 -.301E+02   0.234E+02 -.266E-14 0.293E+02   0.546E+01 0.000E+00 0.864E+00   -.342E-03 0.125E-13 0.217E-01
   0.999E+01 -.231E-10 0.156E+02   -.113E+02 0.283E-13 -.149E+02   0.131E+01 0.000E+00 -.706E+00   0.139E-01 -.475E-13 -.151E-01
   -.849E+00 -.238E-10 0.142E+02   0.141E+01 -.236E-13 -.142E+02   -.550E+00 0.000E+00 -.534E-01   -.352E-01 -.934E-14 -.922E-02
   0.289E+02 -.275E-10 -.301E+02   -.234E+02 -.123E-13 0.293E+02   -.546E+01 0.000E+00 0.864E+00   0.342E-03 -.400E-13 0.217E-01
   -.999E+01 -.234E-10 0.156E+02   0.113E+02 -.471E-13 -.149E+02   -.131E+01 0.000E+00 -.706E+00   -.139E-01 -.209E-13 -.151E-01
   -.119E-03 -.204E-09 -.142E+00   0.444E-13 0.228E-13 -.178E-13   0.200E-14 0.000E+00 0.151E+00   -.172E-04 0.711E-13 -.128E-01

 POSITION                                       TOTAL-FORCE (eV/Angst)
      0.00000      0.00000      3.83327        -0.000000      0.000000      0.024493
     -0.00000      0.00000      7.71295        -0.000000      0.000000      0.015559
      3.87849      0.00000      0.12478        -0.000000      0.000000     -0.018886
      3.87849      0.00000      3.83327        -0.000000      0.000000      0.024493
      3.87849      0.00000      7.71295        -0.000000      0.000000      0.015559
     -0.00000      0.00000      0.12478        -0.000000      0.000000     -0.018886
      1.93925     -1.93925      5.83077         0.000000      0.000000      0.036631
      1.93925     -1.93925      9.74226        -0.000000      0.000000     -0.022319
      1.93925      1.93925      9.72175        -0.000000      0.000000     -0.004485
      1.93924     -1.93925      1.93501        -0.000000      0.000000      0.012178
      1.93925      1.93925      5.83036        -0.000000      0.000000     -0.013187
      1.93924      1.93925      1.95247        -0.000000      0.000000      0.013796
      1.93924     -1.93925      7.78944        -0.000000      0.000000      0.009415
      1.93925     -1.93925      3.94630        -0.000000      0.000000     -0.022918
      1.93925      1.93925     11.60551        -0.000000      0.000000     -0.005441
      1.93924      1.93925      7.81684        -0.000000      0.000000      0.027540
      1.93925      1.93925      3.88683        -0.000000      0.000000      0.009948
      1.93925     -1.93925     11.63594         0.000000      0.000000     -0.042034
     -1.93924      0.00777      9.70650        -0.000000      0.025746     -0.015069
      1.93925     -3.83446      5.87208        -0.000000      0.009515      0.018071
      5.81773      0.02041      1.92438        -0.000000     -0.025132     -0.013365
      1.93925     -0.00777      9.70650        -0.000000     -0.025746     -0.015069
      1.93925     -0.04403      5.87208        -0.000000     -0.009515      0.018071
      1.93924     -0.02041      1.92438        -0.000000      0.025132     -0.013365
      0.00777     -1.93925      9.70650         0.025746      0.000000     -0.015069
      0.04403     -1.93925      5.87208         0.009515      0.000000      0.018071
      3.89889      1.93925      1.92438        -0.025132      0.000000     -0.013365
     -0.00777      1.93925      9.70650        -0.025746      0.000000     -0.015069
      3.83446     -1.93925      5.87208        -0.009515      0.000000      0.018071
      3.85808     -1.93925      1.92438         0.025132      0.000000     -0.013365
    total drift:                               -0.000136     -0.000000     -0.003192

  FREE ENERGIE OF THE ION-ELECTRON SYSTEM (eV)
  free  energy   TOTEN  =      -220.46906925 eV

  energy  without entropy=     -220.46906925  energy(sigma->0) =     -220.46906925

 total charge

[...]

 magnetization (x)

# of ion       s       p       d       f       tot
    1        0.000  -0.000   0.005   0.002   0.006
    2        0.001   0.001   0.010   0.005   0.017
    3        0.000   0.001   0.007   0.004   0.012
    4        0.000   0.001   0.004   0.002   0.006
    5        0.001   0.002   0.011   0.004   0.017
    6        0.000   0.001   0.007   0.004   0.012
    7        0.024   0.036   3.194   0.000   3.254
    8        0.019   0.020   3.461   0.000   3.500
    9        0.020   0.025   3.466   0.000   3.511
   10        0.016   0.011   1.496   0.000   1.524
   11        0.006  -0.002   1.698   0.000   1.703
   12        0.016   0.012   1.583   0.000   1.610
   13        0.002  -0.020   0.000   0.000  -0.018
   14        0.005  -0.034   0.000   0.000  -0.028
   15        0.006  -0.009   0.000   0.000  -0.003
   16        0.004  -0.012   0.000   0.000  -0.008
   17        0.007   0.014   0.000   0.000   0.021
   18        0.005  -0.054   0.000   0.000  -0.050
   19        0.004  -0.043   0.000   0.000  -0.039
   20        0.005  -0.005   0.000   0.000  -0.001
   21        0.006  -0.034   0.000   0.000  -0.028
   22        0.004  -0.045   0.000   0.000  -0.041
   23        0.005  -0.005   0.000   0.000  -0.000
   24        0.006  -0.036   0.000   0.000  -0.030
   25        0.003  -0.047   0.000   0.000  -0.043
   26        0.005  -0.006   0.000   0.000  -0.001
   27        0.006  -0.038   0.000   0.000  -0.032
   28        0.003  -0.044   0.000   0.000  -0.041
   29        0.005  -0.007   0.000   0.000  -0.002
   30        0.006  -0.030   0.000   0.000  -0.024
tot          0.190  -0.347  14.942   0.020  14.805

 BZINTS: Fermi energy:  7.526213;225.000000 electrons
         Band energy:-329.325884;  BLOECHL correction: -0.012014