 vasp.5.4.4.18Apr17-6-g9f103f2a35 (build Oct 03 2018 13:58:34) complex

 executed on             LinuxIFC date 2019.06.04  01:12:08

 INCAR:
 POTCAR:    PAW_PBE La 06Sep2000
 POTCAR:    PAW_PBE Mn 06Sep2000
 POTCAR:    PAW_PBE Ni 02Aug2007
 POTCAR:    PAW_PBE O 08Apr2002

 POTCAR:    PAW_PBE La 06Sep2000
   VRHFIN =La : [core=Kr4d]

   TITEL  = PAW_PBE La 06Sep2000
   POMASS =  138.900; ZVAL   =   11.000    mass and valenz
   ENMAX  =  219.292; ENMIN  =  164.469 eV

 POTCAR:    PAW_PBE Mn 06Sep2000
   VRHFIN =Mn: d6 s1

   TITEL  = PAW_PBE Mn 06Sep2000
   POMASS =   54.938; ZVAL   =    7.000    mass and valenz
   ENMAX  =  269.864; ENMIN  =  202.398 eV

 POTCAR:    PAW_PBE Ni 02Aug2007
   VRHFIN =Ni:

   TITEL  = PAW_PBE Ni 02Aug2007
   POMASS =   58.690; ZVAL   =   10.000    mass and valenz
   ENMAX  =  269.532; ENMIN  =  202.149 eV

 POTCAR:    PAW_PBE O 08Apr2002
   VRHFIN =O: s2p4

   TITEL  = PAW_PBE O 08Apr2002
   POMASS =   16.000; ZVAL   =    6.000    mass and valenz
   ENMAX  =  400.000; ENMIN  =  300.000 eV

 Optimization of the real space projectors (new method)

 maximal supplied QI-value         = 13.42
 optimisation between [QCUT,QGAM] = [ 11.67, 23.35] = [ 38.16,152.62] Ry
 Optimized for a Real-space Cutoff    1.63 Angstroem

   l    n(q)    QCUT    max X(q) W(low)/X(q) W(high)/X(q)  e(spline)
   0     11    11.673    13.882    0.27E-04    0.79E-05    0.11E-06
   0     11    11.673    12.184    0.39E-04    0.13E-04    0.19E-06
   1     11    11.673     4.523    0.73E-05    0.76E-05    0.12E-06
   1     11    11.673     4.424    0.87E-05    0.13E-04    0.19E-06
   2     10    11.673    52.481    0.65E-04    0.36E-04    0.18E-06
   2     10    11.673    38.501    0.61E-04    0.33E-04    0.17E-06
   3     10    11.673    65.631    0.17E-03    0.14E-03    0.37E-06
   3     10    11.673    56.854    0.17E-03    0.14E-03    0.37E-06
 Optimization of the real space projectors (new method)

[...]

   l    n(q)    QCUT    max X(q) W(low)/X(q) W(high)/X(q)  e(spline)
   2      9    11.539    60.317    0.19E-03    0.47E-04    0.16E-06
   2      9    11.539    55.921    0.19E-03    0.48E-04    0.16E-06
   0     10    11.539    51.690    0.80E-04    0.50E-04    0.24E-06
   0     10    11.539    30.015    0.73E-04    0.45E-04    0.22E-06
   1     10    11.539    18.849    0.87E-04    0.16E-03    0.71E-07
   1     10    11.539    14.624    0.73E-04    0.13E-03    0.64E-07
 Optimization of the real space projectors (new method)

 maximal supplied QI-value         = 24.76
 optimisation between [QCUT,QGAM] = [ 11.64, 23.27] = [ 37.91,151.63] Ry
 Optimized for a Real-space Cutoff    1.14 Angstroem

   l    n(q)    QCUT    max X(q) W(low)/X(q) W(high)/X(q)  e(spline)
   0      8    11.635    20.381    0.10E-03    0.33E-03    0.24E-06
   0      8    11.635    15.268    0.11E-03    0.35E-03    0.26E-06
   1      7    11.635     5.964    0.24E-03    0.31E-03    0.30E-06
   1      7    11.635     5.382    0.22E-03    0.25E-03    0.26E-06
  PAW_PBE La 06Sep2000                  :
  PAW_PBE Mn 06Sep2000                  :
  PAW_PBE Ni 02Aug2007                  :
  PAW_PBE O 08Apr2002                   :

 POSCAR: SCEL5_1_5_1_2_0_0/2
  positions in direct lattice
  velocities in cartesian coordinates
 exchange correlation table for  LEXCH =        8
   RHO(1)=    0.500       N(1)  =     2000
   RHO(2)=  100.500       N(2)  =     4000

 ion  position               nearest neighbor table
   1  0.000  0.396  0.192-  25 2.66  15 2.69  15 2.69  19 2.71  19 2.71  23 2.74  24 2.75  14 2.79
                            14 2.79  17 2.79  17 2.79  10 3.30  10 3.30   8 3.35   8 3.35   9 3.36
   2  0.000  0.804  0.389-  18 2.66  18 2.66  24 2.66  23 2.67  14 2.72  14 2.72  13 2.75  13 2.75
                            21 2.81  22 2.81  16 2.81  16 2.81   9 3.29   9 3.29   8 3.30   8 3.30
   3  0.000  0.200  0.600-  20 2.73  20 2.73  17 2.73  17 2.73  12 2.73  12 2.73  13 2.73  13 2.73
                            22 2.73  21 2.73  25 2.74  23 2.74  10 3.34  10 3.34   8 3.34   8 3.34
   4  0.000  0.596  0.811-  19 2.66  19 2.66  24 2.66  25 2.67  11 2.72  11 2.72  12 2.75  12 2.75
                            22 2.81  21 2.81  16 2.81  16 2.81   9 3.29   9 3.29  10 3.30  10 3.30
   5  0.000  0.004  0.008-  23 2.66  15 2.69  15 2.69  18 2.71  18 2.71  25 2.74  24 2.75  11 2.79
                            11 2.79  20 2.79  20 2.79   8 3.30   8 3.30  10 3.35  10 3.35   9 3.36
   6  0.500  0.500  0.500-  17 1.89  14 1.89  12 1.91  16 1.93  22 1.93  22 1.93   3 3.36   3 3.36
                             2 3.41   2 3.41   1 3.42   1 3.42   4 3.42   4 3.42
   7  0.500  0.900  0.700-  20 1.89  11 1.89  13 1.91  16 1.93  21 1.93  21 1.93   3 3.36   3 3.36
                             4 3.41   4 3.41   5 3.42   5 3.42   2 3.42   2 3.42
   8  0.500  0.101  0.302-  23 1.93  23 1.93  15 1.95  18 1.97  13 1.97  17 1.97   5 3.30   5 3.30
                             2 3.30   2 3.30   3 3.34   3 3.34   1 3.35   1 3.35
   9  0.500  0.700  0.100-  18 1.91  19 1.91  24 1.93  24 1.93  14 1.99  11 1.99   2 3.29   2 3.29
                             4 3.29   4 3.29   5 3.36   5 3.36   1 3.36   1 3.36
  10  0.500  0.299  0.898-  25 1.93  25 1.93  15 1.95  19 1.97  12 1.97  20 1.97   1 3.30   1 3.30
                             4 3.30   4 3.30   3 3.34   3 3.34   5 3.35   5 3.35
  11  0.500  0.801  0.895-   7 1.89   9 1.99   4 2.72   4 2.72   5 2.79   5 2.79
  12  0.500  0.401  0.696-   6 1.91  10 1.97   3 2.73   3 2.73   4 2.75   4 2.75
  13  0.500  0.999  0.504-   7 1.91   8 1.97   3 2.73   3 2.73   2 2.75   2 2.75
  14  0.500  0.599  0.305-   6 1.89   9 1.99   2 2.72   2 2.72   1 2.79   1 2.79
  15  0.500  0.200  0.100-   8 1.95  10 1.95   1 2.69   1 2.69   5 2.69   5 2.69
  16  0.500  0.700  0.600-   7 1.93   6 1.93   4 2.81   4 2.81   2 2.81   2 2.81
  17  0.500  0.304  0.404-   6 1.89   8 1.97   3 2.73   3 2.73   1 2.79   1 2.79
  18  0.500  0.897  0.200-   9 1.91   8 1.97   2 2.66   2 2.66   5 2.71   5 2.71
  19  0.500  0.503  1.000-   9 1.91  10 1.97   4 2.66   4 2.66   1 2.71   1 2.71
  20  0.500  0.096  0.796-   7 1.89  10 1.97   3 2.73   3 2.73   5 2.79   5 2.79
  21  0.000  0.900  0.699-   7 1.93   7 1.93   3 2.73   2 2.81   4 2.81
  22  0.000  0.500  0.501-   6 1.93   6 1.93   3 2.73   4 2.81   2 2.81
  23  0.000  0.099  0.300-   8 1.93   8 1.93   5 2.66   2 2.67   1 2.74   3 2.74
  24  0.000  0.700  0.100-   9 1.93   9 1.93   2 2.66   4 2.66   5 2.75   1 2.75
  25  0.000  0.301  0.900-  10 1.93  10 1.93   1 2.66   4 2.67   5 2.74   3 2.74

  LATTYP: Found a simple monoclinic cell.
 ALAT       =    12.2360159513
 B/A-ratio  =     0.3162412455
 C/A-ratio  =     1.5800668324
 COS(beta)  =    -0.9482908453

  Lattice vectors:

 A1 = (   0.0000000000, -11.6017643588,   3.8883351351)
 A2 = (   3.8695329240,   0.0000000000,   0.0000000000)
 A3 = (   0.0000000000,  19.3337214518,  -0.0076495787)

Analysis of symmetry for initial positions (statically):
 Subroutine PRICEL returns:
 Original cell was already a primitive cell.

 Routine SETGRP: Setting up the symmetry group for a
 simple monoclinic supercell.

 Subroutine GETGRP returns: Found  4 space group operations
 (whereof  2 operations were pure point group operations)
 out of a pool of  4 trial point group operations.

The static configuration has the point symmetry C_1h.
 The point group associated with its full space group is C_2h.

Analysis of symmetry for dynamics (positions and initial velocities):
 Subroutine PRICEL returns:
 Original cell was already a primitive cell.

[...]

The dynamic configuration has the point symmetry C_1h.
 The point group associated with its full space group is C_2h.

Analysis of structural, dynamic, and magnetic symmetry:
 Subroutine PRICEL returns:
 Original cell was already a primitive cell.

 Routine SETGRP: Setting up the symmetry group for a
 simple monoclinic supercell.

 Subroutine GETGRP returns: Found  4 space group operations
 (whereof  2 operations were pure point group operations)
 out of a pool of  4 trial point group operations.

The magnetic configuration has the point symmetry C_1h.
 The point group associated with its full space group is C_2h.

 Subroutine INISYM returns: Found  4 space group operations
 (whereof  2 operations are pure point group operations),
 and found     1 'primitive' translations

 KPOINTS: Automatic mesh

Automatic generation of k-mesh.
 generate k-points for:    5    2    2
Space group operators:
 irot       det(A)        alpha          n_x          n_y          n_z        tau_x        tau_y        tau_z
    1     1.000000     0.000001     1.000000     0.000000     0.000000     0.000000     0.000000     0.000000
    2    -1.000000   179.999999     1.000000     0.000000     0.000000     0.000000     0.000000     0.000000
    3    -1.000000     0.000001     1.000000     0.000000     0.000000     0.000000     0.400000     0.200000
    4     1.000000   179.999999     1.000000     0.000000     0.000000     0.000000     0.400000     0.200000

 Subroutine IBZKPT returns following result:

 Found     12 irreducible k-points:

 Following reciprocal coordinates:
            Coordinates               Weight
  0.000000  0.000000  0.000000      1.000000
  0.200000  0.000000  0.000000      2.000000
  0.400000  0.000000  0.000000      2.000000
  0.000000  0.500000 -0.000000      1.000000
  0.200000  0.500000 -0.000000      2.000000
  0.400000  0.500000 -0.000000      2.000000
  0.000000 -0.000000  0.500000      1.000000
  0.200000 -0.000000  0.500000      2.000000
  0.400000 -0.000000  0.500000      2.000000
  0.000000  0.500000  0.500000      1.000000
  0.200000  0.500000  0.500000      2.000000
  0.400000  0.500000  0.500000      2.000000

 Following cartesian coordinates:
            Coordinates               Weight
  0.000000  0.000000  0.000000      1.000000
 -0.051686  0.000000  0.000000      2.000000
 -0.103372  0.000000  0.000000      2.000000
  0.000000  0.051733  0.025769      1.000000
 -0.051686  0.051733  0.025769      2.000000
 -0.103372  0.051733  0.025769      2.000000
  0.000000  0.025841 -0.051486      1.000000
 -0.051686  0.025841 -0.051486      2.000000
 -0.103372  0.025841 -0.051486      2.000000
  0.000000  0.077574 -0.025718      1.000000
 -0.051686  0.077574 -0.025718      2.000000
 -0.103372  0.077574 -0.025718      2.000000

 TETIRR: Found     60 inequivalent tetrahedra from      120

 SYSTEM =  final
 POSCAR =  SCEL5_1_5_1_2_0_0/2

 Startparameter for this run:
   NWRITE =      2    write-flag & timer
   PREC   = accura    normal or accurate (medium, high low for compatibility)
   ISTART =      0    job   : 0-new  1-cont  2-samecut
   ICHARG =      1    charge: 1-file 2-atom 10-const
   ISPIN  =      2    spin polarized calculation?
   LNONCOLLINEAR =      F non collinear calculations
   LSORBIT =      F    spin-orbit coupling
   INIWAV =      1    electr: 0-lowe 1-rand  2-diag
   LASPH  =      F    aspherical Exc in radial PAW
   METAGGA=      F    non-selfconsistent MetaGGA calc.

 Electronic Relaxation 1
   ENCUT  =  520.0 eV  38.22 Ry    6.18 a.u.   7.19 16.09 16.14*2*pi/ulx,y,z
   ENINI  =  520.0     initial cutoff
   ENAUG  =  605.4 eV  augmentation charge cutoff
[...]
       1 -95.2748       2 -95.2630       3 -95.3302       4 -95.2630       5 -95.2749
       6 -43.1164       7 -43.1164       8 -83.6819       9 -83.7771      10 -83.6819
      11 -66.8115      12 -66.8492      13 -66.8492      14 -66.8115      15 -66.6627
      16 -66.9542      17 -66.9264      18 -66.6769      19 -66.6769      20 -66.9264
      21 -67.1505      22 -67.1505      23 -66.5667      24 -66.6314      25 -66.5667

 E-fermi :   7.5849     XC(G=0): -11.7637     alpha+bet :-16.6539

[...]

 k-point     1 :       0.0000    0.0000    0.0000
  band No.  band energies     occupation
      1     -23.8152      1.00000
      2     -23.7557      1.00000
      3     -23.7220      1.00000
      4     -23.7049      1.00000
      5     -23.6993      1.00000
      6     -11.1272      1.00000
      7     -11.0794      1.00000
      8     -10.8884      1.00000
      9     -10.8803      1.00000
     10     -10.7114      1.00000
     11      -9.8802      1.00000
     12      -9.8621      1.00000
     13      -9.8487      1.00000
     14      -9.8383      1.00000
     15      -9.7088      1.00000
     16      -9.6786      1.00000
     17      -9.5365      1.00000
     18      -9.4031      1.00000
     19      -9.3824      1.00000
     20      -9.3334      1.00000
     21      -7.3206      1.00000
     22      -7.3119      1.00000
     23      -7.3017      1.00000
     24      -7.2127      1.00000
     25      -7.1788      1.00000
     26      -7.1451      1.00000
     27      -7.1299      1.00000
     28      -7.0889      1.00000
     29      -7.0667      1.00000
     30      -7.0239      1.00000
     31      -7.0126      1.00000
     32      -6.7449      1.00000
     33      -6.6535      1.00000
     34      -6.5882      1.00000
     35      -6.5497      1.00000
     36       0.4508      1.00000
     37       0.5006      1.00000
     38       0.7480      1.00000
     39       0.9841      1.00000
     40       1.6057      1.00000
     41       1.6298      1.00000
     42       1.6905      1.00000
     43       1.8607      1.00000
     44       1.8775      1.00000
     45       1.9594      1.00000
     46       2.0343      1.00000
     47       2.1392      1.00000
     48       2.1399      1.00000
     49       2.1720      1.00000
     50       2.1884      1.00000
     51       2.2779      1.00000
     52       2.3485      1.00000
     53       2.3660      1.00000
     54       2.3740      1.00000
     55       2.3817      1.00000
     56       2.7479      1.00000
     57       2.7553      1.00000
     58       2.7675      1.00000
     59       3.3032      1.00000
     60       3.3793      1.00000
[...]
    108      10.9245      0.00000
    109      10.9433      0.00000
    110      10.9859      0.00000
    111      11.0009      0.00000
    112      11.0837      0.00000
    113      11.0980      0.00000
    114      11.1543      0.00000
    115      11.1713      0.00000
    116      11.2111      0.00000
    117      11.2137      0.00000
    118      11.2463      0.00000
    119      11.2492      0.00000
    120      11.2926      0.00000
    121      11.3238      0.00000
    122      11.3553      0.00000

[...]

 spin component 2

[...]

 k-point    12 :       0.4000    0.5000    0.5000
  band No.  band energies     occupation
      1     -23.7364      1.00000
      2     -23.6931      1.00000
      3     -23.6881      1.00000
      4     -23.6720      1.00000
      5     -23.6206      1.00000
      6     -10.7772      1.00000
      7     -10.7697      1.00000
      8     -10.6730      1.00000
      9     -10.6528      1.00000
     10     -10.2060      1.00000
     11     -10.1391      1.00000
     12      -9.9375      1.00000
     13      -9.9031      1.00000
     14      -9.7567      1.00000
     15      -9.7078      1.00000
     16      -9.6782      1.00000
     17      -9.5915      1.00000
     18      -9.5268      1.00000
     19      -9.4228      1.00000
     20      -9.3790      1.00000
     21      -7.7485      1.00000
     22      -7.7122      1.00000
     23      -7.7066      1.00000
     24      -7.2813      1.00000
     25      -7.2513      1.00000
     26      -7.2286      1.00000
     27      -7.1928      1.00000
     28      -7.0099      1.00000
     29      -6.9496      1.00000
     30      -6.8860      1.00000
     31      -6.8651      1.00000
     32      -6.8135      1.00000
     33      -6.7983      1.00000
     34      -6.6862      1.00000
     35      -6.6593      1.00000
     36       1.0027      1.00000
     37       1.8749      1.00000
     38       1.8930      1.00000
     39       1.9720      1.00000
     40       2.0703      1.00000
     41       2.2140      1.00000
     42       2.2812      1.00000
     43       2.2932      1.00000
     44       2.4813      1.00000
     45       2.6387      1.00000
     46       2.7105      1.00000
     47       2.7727      1.00000
     48       2.8480      1.00000
     49       2.8711      1.00000
     50       3.0608      1.00000
     51       3.2553      1.00000
     52       3.2621      1.00000
     53       3.2979      1.00000
     54       3.3288      1.00000
     55       3.4316      1.00000
     56       3.6258      1.00000
     57       3.7215      1.00000
     58       3.7308      1.00000
     59       3.9140      1.00000
     60       3.9739      1.00000
[...]
    108      11.1960      0.00000
    109      11.2085      0.00000
    110      11.2185      0.00000
    111      11.2239      0.00000
    112      11.2326      0.00000
    113      11.2438      0.00000
    114      11.2489      0.00000
    115      11.2571      0.00000
    116      11.2772      0.00000
    117      11.2949      0.00000
    118      11.3176      0.00000
    119      11.3346      0.00000
    120      11.3786      0.00000
    121      11.3922      0.00000
    122      11.4482      0.00000

 soft charge-density along one line, spin component           1
         0         1         2         3         4         5         6         7         8         9
 total charge-density along one line

 soft charge-density along one line, spin component           2
         0         1         2         3         4         5         6         7         8         9
 total charge-density along one line

------------------------ aborting loop because EDIFF is reached ----------------------------------------

 total charge

# of ion       s       p       d       f       tot
    1        2.000   5.699   0.491   0.190   8.379
    2        2.001   5.700   0.498   0.193   8.392
    3        2.000   5.700   0.493   0.193   8.386
    4        2.001   5.700   0.498   0.193   8.392
    5        2.000   5.699   0.491   0.190   8.380
    6        0.346   0.544   4.861   0.000   5.751
    7        0.346   0.544   4.861   0.000   5.751
    8        0.410   0.603   8.323   0.000   9.336
    9        0.418   0.624   8.321   0.000   9.363
   10        0.410   0.603   8.323   0.000   9.336
   11        1.563   3.452   0.000   0.000   5.015
   12        1.561   3.457   0.000   0.000   5.019
   13        1.561   3.457   0.000   0.000   5.019
   14        1.563   3.452   0.000   0.000   5.015
   15        1.561   3.439   0.000   0.000   4.999
   16        1.561   3.466   0.000   0.000   5.027
   17        1.563   3.452   0.000   0.000   5.016
   18        1.561   3.446   0.000   0.000   5.007
   19        1.561   3.446   0.000   0.000   5.007
   20        1.564   3.452   0.000   0.000   5.016
   21        1.565   3.455   0.000   0.000   5.020
   22        1.565   3.455   0.000   0.000   5.020
   23        1.559   3.450   0.000   0.000   5.009
   24        1.560   3.445   0.000   0.000   5.005
   25        1.559   3.450   0.000   0.000   5.009
tot         35.359  83.191  37.162   0.958 156.669

 magnetization (x)

[...]

  FORCE on cell =-STRESS in cart. coord.  units (eV):
  Direction    XX          YY          ZZ          XY          YZ          ZX
  Alpha Z   822.90872   822.90872   822.90872
  Ewald   -4310.17230 -4352.66139 -4460.05312    -0.00000     9.18929     0.00000
  Hartree  1069.02043  1025.74242   940.14725     0.00000     9.90692    -0.00000
  E(xc)    -882.03293  -882.17527  -882.30098     0.00000    -0.01745     0.00000
  Local    -744.87944  -658.32111  -469.25636    -0.00000   -18.67568     0.00000
  n-local   353.85147   353.87819   352.99421    -0.00236     0.19697     0.00229
  augment   480.13312   479.48731   480.96221     0.00000     0.04551    -0.00000
  Kinetic  3211.15194  3211.16989  3214.28832     0.00222    -0.68217    -0.00096
  Fock        0.00000     0.00000     0.00000     0.00000     0.00000     0.00000
  Total      -0.01898     0.02875    -0.30975     0.00000    -0.03662     0.00000
  in kB      -0.10467     0.15855    -1.70803     0.00000    -0.20192     0.00000

 VOLUME and BASIS-vectors are now :
  energy-cutoff  :      520.00
  volume of cell :      290.55
      direct lattice vectors                 reciprocal lattice vectors
    -3.869532924  0.000000000  0.000000000    -0.258429123  0.000000000  0.000000000
     0.000000000  7.731957093  3.880685556     0.000000000  0.103466590  0.051537482
     0.000000000  3.869807266 -7.769020691     0.000000000  0.051682357 -0.102972983

  length of vectors
     3.869532924  8.651178005  8.679463738     0.258429123  0.115591727  0.115215022

 FORCES acting on ions
    electron-ion (+dipol)            ewald-force                    non-local-force                 convergence-correction
   0.580E-14 -.670E+02 0.629E+02   -.814E-14 0.663E+02 -.622E+02   0.000E+00 0.634E+00 -.552E+00   0.555E-14 0.237E-01 -.161E-01
   -.164E-14 -.492E+01 0.130E+03   0.193E-13 0.482E+01 -.129E+03   0.000E+00 0.615E-01 -.102E+01   0.120E-13 -.449E-02 -.408E-01
   -.495E-14 0.119E-04 -.145E-04   -.193E-13 0.701E-11 -.855E-11   0.000E+00 0.122E-18 0.813E-19   0.970E-14 -.427E-05 -.466E-06
   -.501E-14 0.492E+01 -.130E+03   -.182E-14 -.482E+01 0.129E+03   0.000E+00 -.615E-01 0.102E+01   0.243E-14 0.449E-02 0.408E-01
   0.477E-15 0.670E+02 -.629E+02   -.295E-13 -.663E+02 0.622E+02   0.000E+00 -.634E+00 0.552E+00   -.620E-15 -.237E-01 0.161E-01
   -.599E-13 -.325E+02 0.272E+01   -.933E-14 0.322E+02 -.251E+01   0.000E+00 0.282E+00 -.184E+00   -.289E-13 0.143E-01 0.110E-02
   -.647E-13 0.325E+02 -.272E+01   0.492E-14 -.322E+02 0.251E+01   0.000E+00 -.282E+00 0.184E+00   -.322E-13 -.144E-01 -.110E-02
   -.336E-12 -.360E+02 0.411E+02   0.208E-13 0.356E+02 -.404E+02   0.000E+00 0.433E+00 -.644E+00   -.707E-13 0.162E-01 -.154E-01
   -.341E-12 0.414E-04 0.375E-04   -.161E-13 0.129E-10 -.156E-10   0.000E+00 0.000E+00 0.000E+00   -.625E-13 0.469E-06 -.117E-05
   -.285E-12 0.360E+02 -.411E+02   -.102E-13 -.356E+02 0.404E+02   0.000E+00 -.433E+00 0.644E+00   -.839E-13 -.162E-01 0.154E-01
   -.123E-12 0.888E+01 -.706E+02   0.419E-13 -.844E+01 0.653E+02   0.000E+00 -.448E+00 0.534E+01   -.254E-13 -.485E-02 0.966E-02
   -.122E-12 -.390E+01 -.692E+02   -.331E-13 0.412E+01 0.652E+02   0.000E+00 -.220E+00 0.411E+01   -.273E-13 0.172E-02 0.107E-01
   -.116E-12 0.390E+01 0.692E+02   0.173E-13 -.412E+01 -.652E+02   0.000E+00 0.220E+00 -.411E+01   -.273E-13 -.172E-02 -.107E-01
   -.110E-12 -.888E+01 0.706E+02   -.176E-13 0.844E+01 -.653E+02   0.000E+00 0.448E+00 -.534E+01   -.282E-13 0.485E-02 -.966E-02
   -.120E-12 0.363E-04 0.266E-04   0.178E-14 -.659E-11 0.426E-12   0.000E+00 -.678E-19 0.000E+00   -.278E-13 0.463E-06 -.784E-06
   -.117E-12 0.248E-04 0.165E-04   -.614E-15 -.208E-10 0.301E-11   0.000E+00 0.407E-19 -.271E-19   -.297E-13 -.370E-06 0.664E-06
   -.101E-12 -.594E+02 0.820E+01   -.951E-14 0.540E+02 -.766E+01   0.000E+00 0.552E+01 -.552E+00   -.357E-13 0.967E-02 -.196E-02
   -.113E-12 -.659E+01 0.962E+01   0.247E-13 0.820E+01 -.909E+01   0.000E+00 -.163E+01 -.525E+00   -.272E-13 -.476E-02 -.372E-02
   -.117E-12 0.659E+01 -.962E+01   -.157E-13 -.820E+01 0.909E+01   0.000E+00 0.163E+01 0.525E+00   -.193E-13 0.476E-02 0.372E-02
   -.111E-12 0.594E+02 -.820E+01   0.294E-13 -.540E+02 0.766E+01   0.000E+00 -.552E+01 0.552E+00   -.331E-13 -.967E-02 0.196E-02
   -.282E-14 0.239E+02 0.742E+00   -.178E-13 -.243E+02 -.988E+00   0.000E+00 0.423E+00 0.285E+00   0.765E-14 -.827E-02 -.307E-02
   0.143E-14 -.239E+02 -.742E+00   0.179E-13 0.243E+02 0.988E+00   0.000E+00 -.423E+00 -.285E+00   0.804E-14 0.827E-02 0.308E-02
   0.388E-14 -.225E+02 0.233E+02   -.705E-13 0.230E+02 -.232E+02   0.000E+00 -.508E+00 -.899E-01   0.988E-14 0.730E-02 -.624E-02
   0.818E-14 0.359E-04 0.240E-04   -.352E-15 0.604E-12 0.659E-11   0.000E+00 0.244E-18 -.542E-19   0.723E-14 0.281E-06 -.708E-06
   0.552E-14 0.225E+02 -.233E+02   0.648E-13 -.230E+02 0.232E+02   0.000E+00 0.508E+00 0.899E-01   0.147E-13 -.730E-02 0.624E-02
   -.223E-11 0.196E-03 0.124E-03   -.167E-13 0.355E-14 -.568E-13   0.000E+00 -.111E-15 0.000E+00   -.483E-12 -.628E-05 -.210E-05

 POSITION                                       TOTAL-FORCE (eV/Angst)
      0.00000      3.80430      0.04924         0.000000     -0.057922      0.071079
      0.00000      7.72333      0.09807         0.000000     -0.043609      0.144800
      0.00000      3.86828     -3.88528         0.000000      0.000000     -0.000000
      0.00000      7.74518     -3.98794         0.000000      0.043609     -0.144800
      0.00000      0.06244     -0.05077         0.000000      0.057922     -0.071079
     -1.93477      5.80137     -1.94211         0.000000     -0.023961      0.021677
     -1.93477      9.66714     -1.94776         0.000000      0.023961     -0.021677
     -1.93477      1.94606     -1.95147         0.000000     -0.016300      0.023949
     -1.93477      5.79935      1.93958         0.000000      0.000000     -0.000000
     -1.93477      5.79049     -5.81908         0.000000      0.016300     -0.023949
     -1.93477      9.65828     -3.84157         0.000000     -0.009845      0.084965
     -1.93477      5.79781     -3.85304         0.000000     -0.004724      0.066114
     -1.93477      9.67070     -0.03683         0.000000      0.004724     -0.066114
     -1.93477      5.81023     -0.04830         0.000000      0.009845     -0.084965
     -1.93477      1.93337     -0.00076         0.000000      0.000000     -0.000000
     -1.93477      7.73425     -1.94493         0.000000      0.000000     -0.000000
     -1.93477      3.91401     -1.95731         0.000000      0.132096     -0.011649
     -1.93477      7.71220      1.92724         0.000000     -0.031392      0.000043
     -1.93477      7.75631     -5.81711         0.000000      0.031392     -0.000043
     -1.93477      3.82254     -5.81324         0.000000     -0.132096      0.011649
      0.00000      9.66356     -1.93387         0.000000     -0.015797      0.035300
      0.00000      5.80495     -1.95600         0.000000      0.015797     -0.035300
      0.00000      1.92681     -1.94810         0.000000     -0.016182      0.038792
      0.00000      5.79935      1.93958         0.000000      0.000000     -0.000000
      0.00000      5.80975     -5.82245         0.000000      0.016182     -0.038792
    total drift:                               -0.000000      0.000190      0.000122

  FREE ENERGIE OF THE ION-ELECTRON SYSTEM (eV)
  free  energy   TOTEN  =      -180.42523941 eV

  energy  without entropy=     -180.42523941  energy(sigma->0) =     -180.42523941

 total charge

[...]

 magnetization (x)

# of ion       s       p       d       f       tot
    1        0.000   0.000   0.005   0.003   0.008
    2        0.000   0.001   0.007   0.003   0.012
    3        0.001   0.001   0.009   0.004   0.015
    4        0.000   0.001   0.007   0.003   0.012
    5        0.000   0.000   0.005   0.003   0.008
    6        0.023   0.024   3.324   0.000   3.371
    7        0.023   0.024   3.324   0.000   3.371
    8        0.015   0.007   1.552   0.000   1.573
    9        0.015   0.010   1.474   0.000   1.500
   10        0.015   0.007   1.552   0.000   1.573
   11        0.006  -0.020   0.000   0.000  -0.014
   12        0.004  -0.023   0.000   0.000  -0.019
   13        0.004  -0.024   0.000   0.000  -0.019
   14        0.006  -0.020   0.000   0.000  -0.014
   15        0.006  -0.065   0.000   0.000  -0.058
   16        0.002  -0.014   0.000   0.000  -0.012
   17        0.005  -0.042   0.000   0.000  -0.037
   18        0.006  -0.055   0.000   0.000  -0.048
   19        0.006  -0.055   0.000   0.000  -0.048
   20        0.005  -0.042   0.000   0.000  -0.037
   21        0.003  -0.060   0.000   0.000  -0.057
   22        0.003  -0.060   0.000   0.000  -0.057
   23        0.006  -0.037   0.000   0.000  -0.031
   24        0.006  -0.050   0.000   0.000  -0.044
   25        0.006  -0.037   0.000   0.000  -0.031
tot          0.166  -0.526  11.258   0.016  10.914

 BZINTS: Fermi energy:  7.584894;189.000000 electrons
         Band energy:-254.295844;  BLOECHL correction: -0.125949