 vasp.5.4.4.18Apr17-6-g9f103f2a35 (build Oct 03 2018 13:58:34) complex

 executed on             LinuxIFC date 2019.06.04  00:58:45

 INCAR:
 POTCAR:    PAW_PBE La 06Sep2000
 POTCAR:    PAW_PBE Mn 06Sep2000
 POTCAR:    PAW_PBE Ni 02Aug2007
 POTCAR:    PAW_PBE O 08Apr2002

 POTCAR:    PAW_PBE La 06Sep2000
   VRHFIN =La : [core=Kr4d]

   TITEL  = PAW_PBE La 06Sep2000
   POMASS =  138.900; ZVAL   =   11.000    mass and valenz
   ENMAX  =  219.292; ENMIN  =  164.469 eV

 POTCAR:    PAW_PBE Mn 06Sep2000
   VRHFIN =Mn: d6 s1

   TITEL  = PAW_PBE Mn 06Sep2000
   POMASS =   54.938; ZVAL   =    7.000    mass and valenz
   ENMAX  =  269.864; ENMIN  =  202.398 eV

 POTCAR:    PAW_PBE Ni 02Aug2007
   VRHFIN =Ni:

   TITEL  = PAW_PBE Ni 02Aug2007
   POMASS =   58.690; ZVAL   =   10.000    mass and valenz
   ENMAX  =  269.532; ENMIN  =  202.149 eV

 POTCAR:    PAW_PBE O 08Apr2002
   VRHFIN =O: s2p4

   TITEL  = PAW_PBE O 08Apr2002
   POMASS =   16.000; ZVAL   =    6.000    mass and valenz
   ENMAX  =  400.000; ENMIN  =  300.000 eV

 Optimization of the real space projectors (new method)

 maximal supplied QI-value         = 13.42
 optimisation between [QCUT,QGAM] = [ 11.67, 23.35] = [ 38.16,152.62] Ry
 Optimized for a Real-space Cutoff    1.63 Angstroem

   l    n(q)    QCUT    max X(q) W(low)/X(q) W(high)/X(q)  e(spline)
   0     11    11.673    13.882    0.27E-04    0.79E-05    0.11E-06
   0     11    11.673    12.184    0.39E-04    0.13E-04    0.19E-06
   1     11    11.673     4.523    0.73E-05    0.76E-05    0.12E-06
   1     11    11.673     4.424    0.87E-05    0.13E-04    0.19E-06
   2     10    11.673    52.481    0.65E-04    0.36E-04    0.18E-06
   2     10    11.673    38.501    0.61E-04    0.33E-04    0.17E-06
   3     10    11.673    65.631    0.17E-03    0.14E-03    0.37E-06
   3     10    11.673    56.854    0.17E-03    0.14E-03    0.37E-06
 Optimization of the real space projectors (new method)

[...]

   l    n(q)    QCUT    max X(q) W(low)/X(q) W(high)/X(q)  e(spline)
   2      9    11.539    60.317    0.19E-03    0.47E-04    0.16E-06
   2      9    11.539    55.921    0.19E-03    0.48E-04    0.16E-06
   0     10    11.539    51.690    0.80E-04    0.50E-04    0.24E-06
   0     10    11.539    30.015    0.73E-04    0.45E-04    0.22E-06
   1     10    11.539    18.849    0.87E-04    0.16E-03    0.71E-07
   1     10    11.539    14.624    0.73E-04    0.13E-03    0.64E-07
 Optimization of the real space projectors (new method)

 maximal supplied QI-value         = 24.76
 optimisation between [QCUT,QGAM] = [ 11.64, 23.27] = [ 37.91,151.63] Ry
 Optimized for a Real-space Cutoff    1.14 Angstroem

   l    n(q)    QCUT    max X(q) W(low)/X(q) W(high)/X(q)  e(spline)
   0      8    11.635    20.381    0.10E-03    0.33E-03    0.24E-06
   0      8    11.635    15.268    0.11E-03    0.35E-03    0.26E-06
   1      7    11.635     5.964    0.24E-03    0.31E-03    0.30E-06
   1      7    11.635     5.382    0.22E-03    0.25E-03    0.26E-06
  PAW_PBE La 06Sep2000                  :
  PAW_PBE Mn 06Sep2000                  :
  PAW_PBE Ni 02Aug2007                  :
  PAW_PBE O 08Apr2002                   :

 POSCAR: SCEL6_1_6_1_1_0_0/1
  positions in direct lattice
  velocities in cartesian coordinates
 exchange correlation table for  LEXCH =        8
   RHO(1)=    0.500       N(1)  =     2000
   RHO(2)=  100.500       N(2)  =     4000

 ion  position               nearest neighbor table
   1  0.000  0.500  0.155-  30 2.61  24 2.67  17 2.67  17 2.67  24 2.67  29 2.78  29 2.78  12 3.24
                            12 3.24   6 3.65   6 3.65
   2  0.000  0.000  0.321-  29 2.53  23 2.64  16 2.64  16 2.64  23 2.64  28 2.78  28 2.78  11 3.21
                            11 3.21  10 3.39  10 3.39  10 3.39  10 3.39
   3  0.000  0.500  0.497-  28 2.67  22 2.71  15 2.71  15 2.71  22 2.71  27 2.77  27 2.77  14 2.79
                            14 2.79  21 2.79  21 2.79  26 2.80  10 3.36  10 3.36   9 3.38   9 3.38
   4  0.000  0.000  0.669-  25 2.67  20 2.71  13 2.71  13 2.71  20 2.71  26 2.77  26 2.77  21 2.79
                            21 2.79  14 2.79  14 2.79  27 2.80   8 3.36   8 3.36   7 3.38   7 3.38
   5  0.000  0.500  0.846-  30 2.53  19 2.64  18 2.64  18 2.64  19 2.64  25 2.78  25 2.78  12 3.21
                            12 3.21   8 3.39   8 3.39   8 3.39   8 3.39
   6  0.000  0.000  0.012-  29 2.61  24 2.67  17 2.67  17 2.67  24 2.67  30 2.78  30 2.78  11 3.24
                            11 3.24   1 3.65   1 3.65
   7  0.500  0.500  0.667-  26 1.95  26 1.95  14 1.96  21 1.96  20 1.97  13 1.97   4 3.38   4 3.38
                             4 3.38   4 3.38
   8  0.500  0.000  0.834-  18 1.90  19 1.90  13 1.95  20 1.95  25 1.95  25 1.95   4 3.36   4 3.36
                             5 3.39   5 3.39   5 3.39   5 3.39
   9  0.500  0.000  0.499-  27 1.95  27 1.95  14 1.96  21 1.96  15 1.97  22 1.97   3 3.38   3 3.38
                             3 3.38   3 3.38
  10  0.500  0.500  0.333-  16 1.90  23 1.90  22 1.95  15 1.95  28 1.95  28 1.95   3 3.36   3 3.36
                             2 3.39   2 3.39   2 3.39   2 3.39
  11  0.500  0.000  0.168-  29 1.95  29 1.95  17 1.97  24 1.97  23 1.99  16 1.99   2 3.21   2 3.21
                             6 3.24   6 3.24
  12  0.500  0.500  0.999-  30 1.95  30 1.95  17 1.97  24 1.97  19 1.99  18 1.99   5 3.21   5 3.21
                             1 3.24   1 3.24
  13  0.500  0.757  0.749-   8 1.95   7 1.97   4 2.71   4 2.71
  14  0.500  0.250  0.583-   9 1.96   7 1.96   3 2.79   3 2.79   4 2.79   4 2.79
  15  0.500  0.743  0.417-  10 1.95   9 1.97   3 2.71   3 2.71
  16  0.500  0.251  0.254-  10 1.90  11 1.99   2 2.64   2 2.64
  17  0.500  0.750  0.083-  12 1.97  11 1.97   6 2.67   6 2.67   1 2.67   1 2.67
  18  0.500  0.249  0.913-   8 1.90  12 1.99   5 2.64   5 2.64
  19  0.500  0.751  0.913-   8 1.90  12 1.99   5 2.64   5 2.64
  20  0.500  0.243  0.749-   8 1.95   7 1.97   4 2.71   4 2.71
  21  0.500  0.750  0.583-   9 1.96   7 1.96   3 2.79   3 2.79   4 2.79   4 2.79
  22  0.500  0.257  0.417-  10 1.95   9 1.97   3 2.71   3 2.71
  23  0.500  0.749  0.254-  10 1.90  11 1.99   2 2.64   2 2.64
  24  0.500  0.250  0.083-  12 1.97  11 1.97   6 2.67   6 2.67   1 2.67   1 2.67
  25  0.000  0.000  0.830-   8 1.95   8 1.95   4 2.67   5 2.78   5 2.78
  26  0.000  0.500  0.665-   7 1.95   7 1.95   4 2.77   4 2.77   3 2.80
  27  0.000  0.000  0.501-   9 1.95   9 1.95   3 2.77   3 2.77   4 2.80
  28  0.000  0.500  0.336-  10 1.95  10 1.95   3 2.67   2 2.78   2 2.78
  29  0.000  0.000  0.169-  11 1.95  11 1.95   2 2.53   6 2.61   1 2.78   1 2.78
  30  0.000  0.500  0.998-  12 1.95  12 1.95   5 2.53   1 2.61   6 2.78   6 2.78

  LATTYP: Found a simple orthorhombic cell.
 ALAT       =     3.8947955663
 B/A-ratio  =     1.4200562298
 C/A-ratio  =     4.2704452182

  Lattice vectors:

 A1 = (   3.8947955663,   0.0000000000,   0.0000000000)
 A2 = (   0.0000000000,   3.9108864847,   3.9108864847)
 A3 = (   0.0000000000, -11.7609613884,  11.7609613884)

Analysis of symmetry for initial positions (statically):
 Subroutine PRICEL returns:
 Original cell was already a primitive cell.

 Routine SETGRP: Setting up the symmetry group for a
 simple orthorhombic supercell.

 Subroutine GETGRP returns: Found  8 space group operations
 (whereof  4 operations were pure point group operations)
 out of a pool of  8 trial point group operations.

The static configuration has the point symmetry C_2v.
 The point group associated with its full space group is D_2h.

Analysis of symmetry for dynamics (positions and initial velocities):
 Subroutine PRICEL returns:
 Original cell was already a primitive cell.

[...]

The dynamic configuration has the point symmetry C_2v.
 The point group associated with its full space group is D_2h.

Analysis of structural, dynamic, and magnetic symmetry:
 Subroutine PRICEL returns:
 Original cell was already a primitive cell.

 Routine SETGRP: Setting up the symmetry group for a
 simple orthorhombic supercell.

 Subroutine GETGRP returns: Found  8 space group operations
 (whereof  4 operations were pure point group operations)
 out of a pool of  8 trial point group operations.

The magnetic configuration has the point symmetry C_2v.
 The point group associated with its full space group is D_2h.

 Subroutine INISYM returns: Found  8 space group operations
 (whereof  4 operations are pure point group operations),
 and found     1 'primitive' translations

 KPOINTS: Automatic mesh

Automatic generation of k-mesh.
 generate k-points for:    5    4    1
Space group operators:
 irot       det(A)        alpha          n_x          n_y          n_z        tau_x        tau_y        tau_z
    1     1.000000     0.000000     1.000000     0.000000     0.000000     0.000000     0.000000     0.000000
    2     1.000000   180.000000     0.000000    -0.707107     0.707107     0.000000     0.000000     0.000000
    3    -1.000000   180.000000     0.000000     0.707107     0.707107     0.000000     0.000000     0.000000
    4    -1.000000   180.000000     1.000000     0.000000     0.000000     0.000000     0.000000     0.000000
    5    -1.000000     0.000000     1.000000     0.000000     0.000000     0.000000     0.500000     0.166667
    6    -1.000000   180.000000     0.000000    -0.707107     0.707107     0.000000     0.500000     0.166667
    7     1.000000   180.000000     0.000000     0.707107     0.707107     0.000000     0.500000     0.166667
    8     1.000000   180.000000     1.000000     0.000000     0.000000     0.000000     0.500000     0.166667

 Subroutine IBZKPT returns following result:

 Found      9 irreducible k-points:

 Following reciprocal coordinates:
            Coordinates               Weight
  0.000000  0.000000  0.000000      1.000000
  0.200000  0.000000  0.000000      2.000000
  0.400000  0.000000  0.000000      2.000000
  0.000000  0.250000  0.000000      2.000000
  0.200000  0.250000  0.000000      4.000000
  0.400000  0.250000  0.000000      4.000000
  0.000000  0.500000  0.000000      1.000000
  0.200000  0.500000  0.000000      2.000000
  0.400000  0.500000  0.000000      2.000000

 Following cartesian coordinates:
            Coordinates               Weight
  0.000000  0.000000  0.000000      1.000000
  0.051351  0.000000  0.000000      2.000000
  0.102701  0.000000  0.000000      2.000000
  0.000000  0.031962  0.031962      2.000000
  0.051351  0.031962  0.031962      4.000000
  0.102701  0.031962  0.031962      4.000000
  0.000000  0.063924  0.063924      1.000000
  0.051351  0.063924  0.063924      2.000000
  0.102701  0.063924  0.063924      2.000000

 TETIRR: Found     54 inequivalent tetrahedra from      120

 SYSTEM =  final
 POSCAR =  SCEL6_1_6_1_1_0_0/1

 Startparameter for this run:
   NWRITE =      2    write-flag & timer
   PREC   = accura    normal or accurate (medium, high low for compatibility)
   ISTART =      0    job   : 0-new  1-cont  2-samecut
   ICHARG =      1    charge: 1-file 2-atom 10-const
   ISPIN  =      2    spin polarized calculation?
   LNONCOLLINEAR =      F non collinear calculations
   LSORBIT =      F    spin-orbit coupling
   INIWAV =      1    electr: 0-lowe 1-rand  2-diag
[...]
     30      -7.6611      1.00000
     31      -7.6230      1.00000
     32      -7.6187      1.00000
     33      -7.5617      1.00000
     34      -7.5063      1.00000
     35      -7.4801      1.00000
     36      -7.4352      1.00000
     37      -7.3870      1.00000
     38      -7.3417      1.00000
     39      -7.3352      1.00000
     40      -7.2086      1.00000
     41      -7.2000      1.00000
     42      -7.1002      1.00000
     43       0.2395      1.00000
     44       0.5115      1.00000
     45       0.8536      1.00000
     46       1.0102      1.00000
     47       1.0549      1.00000
     48       1.0920      1.00000
     49       1.3034      1.00000
     50       1.3262      1.00000
     51       1.4832      1.00000
     52       1.8208      1.00000
     53       1.8265      1.00000
     54       1.9731      1.00000
     55       1.9958      1.00000
     56       2.0027      1.00000
     57       2.0123      1.00000
     58       2.0986      1.00000
     59       2.1064      1.00000
     60       2.1078      1.00000
[...]
    130      10.4123      0.00000
    131      10.4490      0.00000
    132      10.5347      0.00000
    133      10.5741      0.00000
    134      10.5943      0.00000
    135      10.6229      0.00000
    136      10.6467      0.00000
    137      10.7000      0.00000
    138      10.7165      0.00000
    139      10.7410      0.00000
    140      10.7533      0.00000
    141      10.7731      0.00000
    142      10.7966      0.00000
    143      10.8087      0.00000
    144      10.8474      0.00000

[...]

 spin component 2

[...]

 k-point     9 :       0.4000    0.5000    0.0000
  band No.  band energies     occupation
      1     -24.2474      1.00000
      2     -24.2474      1.00000
      3     -24.1201      1.00000
      4     -24.1201      1.00000
      5     -24.1151      1.00000
      6     -24.1151      1.00000
      7     -10.9751      1.00000
      8     -10.9751      1.00000
      9     -10.8411      1.00000
     10     -10.8411      1.00000
     11     -10.7707      1.00000
     12     -10.7707      1.00000
     13     -10.5205      1.00000
     14     -10.5205      1.00000
     15     -10.3909      1.00000
     16     -10.3908      1.00000
     17     -10.2584      1.00000
     18     -10.2584      1.00000
     19     -10.1299      1.00000
     20     -10.1299      1.00000
     21      -9.9782      1.00000
     22      -9.9782      1.00000
     23      -9.7536      1.00000
     24      -9.7536      1.00000
     25      -7.9594      1.00000
     26      -7.9594      1.00000
     27      -7.7721      1.00000
     28      -7.7721      1.00000
     29      -7.5810      1.00000
     30      -7.5810      1.00000
     31      -7.5352      1.00000
     32      -7.5352      1.00000
     33      -7.4456      1.00000
     34      -7.4456      1.00000
     35      -7.3864      1.00000
     36      -7.3864      1.00000
     37      -7.3059      1.00000
     38      -7.3059      1.00000
     39      -7.1877      1.00000
     40      -7.1877      1.00000
     41      -7.0823      1.00000
     42      -7.0823      1.00000
     43       1.6123      1.00000
     44       1.6123      1.00000
     45       1.6415      1.00000
     46       1.6415      1.00000
     47       1.7241      1.00000
     48       1.7241      1.00000
     49       1.9243      1.00000
     50       1.9243      1.00000
     51       2.2463      1.00000
     52       2.2464      1.00000
     53       2.6279      1.00000
     54       2.6279      1.00000
     55       2.8076      1.00000
     56       2.8076      1.00000
     57       2.9577      1.00000
     58       2.9577      1.00000
     59       2.9836      1.00000
     60       2.9836      1.00000
[...]
    130      10.7649      0.00000
    131      10.7729      0.00000
    132      10.7855      0.00000
    133      10.7933      0.00000
    134      10.7965      0.00000
    135      10.8051      0.00000
    136      10.8105      0.00000
    137      10.8239      0.00000
    138      10.8392      0.00000
    139      10.8472      0.00000
    140      10.8568      0.00000
    141      10.8824      0.00000
    142      10.9084      0.00000
    143      10.9221      0.00000
    144      11.0006      0.00000

 soft charge-density along one line, spin component           1
         0         1         2         3         4         5         6         7         8         9
 total charge-density along one line

 soft charge-density along one line, spin component           2
         0         1         2         3         4         5         6         7         8         9
 total charge-density along one line

------------------------ aborting loop because EDIFF is reached ----------------------------------------

 total charge

# of ion       s       p       d       f       tot
    1        2.001   5.693   0.490   0.187   8.370
    2        2.002   5.696   0.504   0.194   8.396
    3        2.000   5.698   0.487   0.188   8.374
    4        2.000   5.698   0.487   0.188   8.374
    5        2.002   5.696   0.504   0.194   8.396
    6        2.001   5.693   0.490   0.187   8.371
    7        0.311   0.465   4.876   0.000   5.652
    8        0.336   0.516   4.861   0.000   5.712
    9        0.311   0.465   4.874   0.000   5.651
   10        0.336   0.516   4.860   0.000   5.712
   11        0.402   0.585   8.328   0.000   9.315
   12        0.402   0.585   8.328   0.000   9.315
   13        1.563   3.457   0.000   0.000   5.020
   14        1.565   3.449   0.000   0.000   5.014
   15        1.563   3.457   0.000   0.000   5.019
   16        1.562   3.454   0.000   0.000   5.016
   17        1.556   3.459   0.000   0.000   5.015
   18        1.562   3.454   0.000   0.000   5.016
   19        1.562   3.454   0.000   0.000   5.016
   20        1.563   3.456   0.000   0.000   5.019
   21        1.565   3.449   0.000   0.000   5.014
   22        1.563   3.456   0.000   0.000   5.019
   23        1.562   3.454   0.000   0.000   5.016
   24        1.556   3.458   0.000   0.000   5.014
   25        1.565   3.454   0.000   0.000   5.019
   26        1.563   3.455   0.000   0.000   5.018
   27        1.563   3.455   0.000   0.000   5.018
   28        1.565   3.454   0.000   0.000   5.019
   29        1.558   3.463   0.000   0.000   5.020
   30        1.558   3.462   0.000   0.000   5.019
tot         42.219  99.504  39.090   1.137 181.950

 magnetization (x)

[...]

  FORCE on cell =-STRESS in cart. coord.  units (eV):
  Direction    XX          YY          ZZ          XY          YZ          ZX
  Alpha Z   968.25208   968.25208   968.25208
  Ewald   -4733.40816 -5054.50754 -5054.50754     0.00000   137.70491    -0.00000
  Hartree  1324.93916  1057.91613  1057.91613     0.00000   149.65162    -0.00000
  E(xc)   -1025.51627 -1025.69768 -1025.69768     0.00000    -0.07821    -0.00000
  Local   -1114.15376  -528.26863  -528.26863     0.00000  -287.46011    -0.00000
  n-local   402.00962   401.93462   401.93146    -0.38063     1.12069    -0.38249
  augment   342.69039   343.38032   343.38032     0.00000     0.00263    -0.00000
  Kinetic  3835.42749  3836.35838  3836.41082     0.59086    -1.17732     0.58903
  Fock        0.00000     0.00000     0.00000     0.00000     0.00000     0.00000
  Total       0.24055    -0.60769    -0.60769     0.00000    -0.23563     0.00000
  in kB       1.07566    -2.71742    -2.71742     0.00000    -1.05367     0.00000

 VOLUME and BASIS-vectors are now :
  energy-cutoff  :      520.00
  volume of cell :      358.29
      direct lattice vectors                 reciprocal lattice vectors
     3.894795566  0.000000000  0.000000000     0.256752885  0.000000000  0.000000000
     0.000000000  3.910886485  3.910886485     0.000000000  0.127848252  0.127848252
     0.000000000-11.760961388 11.760961388     0.000000000 -0.042513531  0.042513531

  length of vectors
     3.894795566  5.530828708 16.632511102     0.256752885  0.180804732  0.060123213

 FORCES acting on ions
    electron-ion (+dipol)            ewald-force                    non-local-force                 convergence-correction
   0.162E-13 0.130E+03 -.130E+03   0.334E-13 -.129E+03 0.129E+03   0.000E+00 -.124E+01 0.124E+01   0.237E-13 0.426E-01 -.426E-01
   -.948E-14 0.191E+03 -.191E+03   0.277E-13 -.190E+03 0.190E+03   0.000E+00 -.145E+01 0.145E+01   0.277E-13 0.744E-01 -.744E-01
   -.211E-14 0.587E+02 -.587E+02   0.347E-13 -.583E+02 0.583E+02   0.000E+00 -.411E+00 0.411E+00   0.163E-13 0.623E-01 -.623E-01
   0.270E-14 -.587E+02 0.587E+02   0.170E-13 0.583E+02 -.583E+02   0.000E+00 0.411E+00 -.411E+00   0.798E-14 -.623E-01 0.623E-01
   -.183E-13 -.191E+03 0.191E+03   0.142E-13 0.190E+03 -.190E+03   0.000E+00 0.145E+01 -.145E+01   0.317E-14 -.744E-01 0.744E-01
   0.333E-14 -.130E+03 0.130E+03   0.114E-13 0.129E+03 -.129E+03   0.000E+00 0.124E+01 -.124E+01   0.115E-14 -.426E-01 0.426E-01
   0.365E-13 -.178E+02 0.178E+02   -.941E-14 0.177E+02 -.177E+02   0.000E+00 0.994E-01 -.994E-01   0.914E-14 -.382E-01 0.382E-01
   0.628E-13 -.701E+02 0.701E+02   -.115E-13 0.696E+02 -.696E+02   0.000E+00 0.599E+00 -.599E+00   0.162E-13 -.415E-01 0.415E-01
   0.541E-13 0.178E+02 -.178E+02   -.328E-13 -.177E+02 0.177E+02   0.000E+00 -.994E-01 0.994E-01   0.546E-14 0.382E-01 -.382E-01
   0.419E-13 0.701E+02 -.701E+02   -.180E-13 -.696E+02 0.696E+02   0.000E+00 -.599E+00 0.599E+00   -.113E-13 0.416E-01 -.416E-01
   0.299E-12 0.767E+02 -.767E+02   -.253E-13 -.753E+02 0.753E+02   0.000E+00 -.142E+01 0.142E+01   0.163E-13 0.735E-01 -.735E-01
   0.278E-12 -.767E+02 0.767E+02   -.822E-15 0.753E+02 -.753E+02   0.000E+00 0.142E+01 -.142E+01   0.544E-13 -.735E-01 0.735E-01
   0.116E-12 -.327E+02 0.648E+02   -.203E-13 0.318E+02 -.659E+02   0.000E+00 0.100E+01 0.877E+00   0.204E-13 -.387E-01 0.863E-01
   0.112E-12 -.725E-03 0.552E-03   -.273E-13 -.297E-04 0.240E-03   0.000E+00 0.108E-18 -.108E-18   0.277E-13 -.331E-05 0.333E-05
   0.116E-12 0.327E+02 -.648E+02   -.857E-14 -.318E+02 0.659E+02   0.217E-18 -.100E+01 -.877E+00   0.991E-14 0.387E-01 -.864E-01
   0.102E-12 0.430E+02 -.115E+03   0.247E-13 -.411E+02 0.111E+03   0.000E+00 -.196E+01 0.476E+01   0.302E-14 0.408E-01 0.696E-02
   0.112E-12 -.816E-03 0.511E-03   0.707E-14 0.555E-04 0.264E-03   0.000E+00 0.000E+00 0.000E+00   0.506E-14 -.198E-05 0.190E-05
   0.109E-12 -.430E+02 0.115E+03   -.564E-14 0.411E+02 -.111E+03   0.000E+00 0.196E+01 -.476E+01   0.872E-14 -.408E-01 -.696E-02
   0.109E-12 -.115E+03 0.430E+02   -.119E-13 0.111E+03 -.411E+02   0.000E+00 0.476E+01 -.196E+01   0.382E-13 0.696E-02 0.408E-01
   0.113E-12 -.648E+02 0.327E+02   0.118E-13 0.659E+02 -.318E+02   0.000E+00 -.877E+00 -.100E+01   0.417E-13 -.863E-01 0.387E-01
   0.115E-12 -.552E-03 0.725E-03   0.105E-13 -.240E-03 0.297E-04   0.000E+00 0.000E+00 -.108E-18   0.229E-13 -.333E-05 0.331E-05
   0.122E-12 0.648E+02 -.327E+02   -.161E-13 -.659E+02 0.318E+02   -.217E-18 0.877E+00 0.100E+01   0.456E-14 0.864E-01 -.387E-01
   0.105E-12 0.115E+03 -.430E+02   -.130E-13 -.111E+03 0.411E+02   0.000E+00 -.476E+01 0.196E+01   0.388E-14 -.696E-02 -.408E-01
   0.110E-12 -.511E-03 0.816E-03   -.194E-13 -.264E-03 -.555E-04   0.000E+00 0.000E+00 0.000E+00   0.236E-13 -.190E-05 0.198E-05
   0.247E-14 -.550E+02 0.550E+02   0.195E-14 0.544E+02 -.544E+02   0.000E+00 0.555E+00 -.555E+00   -.103E-15 -.437E-01 0.437E-01
   0.424E-14 -.153E+02 0.153E+02   0.101E-13 0.149E+02 -.149E+02   0.000E+00 0.461E+00 -.461E+00   0.971E-15 -.291E-01 0.291E-01
   0.261E-14 0.153E+02 -.153E+02   0.973E-14 -.149E+02 0.149E+02   0.000E+00 -.461E+00 0.461E+00   0.941E-14 0.291E-01 -.291E-01
   -.121E-14 0.550E+02 -.550E+02   0.239E-14 -.544E+02 0.544E+02   0.000E+00 -.555E+00 0.555E+00   0.256E-13 0.437E-01 -.437E-01
   -.832E-15 0.440E+02 -.440E+02   0.386E-14 -.438E+02 0.438E+02   0.000E+00 -.192E+00 0.192E+00   0.944E-14 0.315E-01 -.315E-01
   -.176E-14 -.440E+02 0.440E+02   0.147E-14 0.438E+02 -.438E+02   0.000E+00 0.192E+00 -.192E+00   0.151E-14 -.315E-01 0.315E-01
   0.211E-11 -.531E-02 0.531E-02   0.188E-14 0.121E-12 0.782E-13   0.000E+00 -.178E-14 0.111E-14   0.427E-12 -.194E-05 0.194E-05

 POSITION                                       TOTAL-FORCE (eV/Angst)
      0.00000      0.13435      3.77653         0.000000     -0.017346      0.017346
      0.00000     -3.77227      3.77227         0.000000     -0.007153      0.007153
      0.00000     -3.89175      7.80263         0.000000      0.018309     -0.018309
      0.00000     -7.87393      7.87393         0.000000     -0.018309      0.018309
      0.00000     -7.99341     11.90429         0.000000      0.007153     -0.007153
      0.00000     -0.13907      0.13907         0.000000      0.017346     -0.017346
      1.94740     -5.89223      9.80312         0.000000     -0.013344      0.013344
      1.94740     -9.80893      9.80893         0.000000      0.078719     -0.078719
      1.94740     -5.87345      5.87345         0.000000      0.013344     -0.013344
      1.94740     -1.95675      5.86764         0.000000     -0.078719      0.078719
      1.94740     -1.97126      1.97126         0.000000     -0.004226      0.004226
      1.94740     -9.79442     13.70531         0.000000      0.004226     -0.004226
      1.94740     -5.85205     11.77232         0.000000      0.059613     -0.076979
      1.94740     -5.88284      7.83828         0.000000      0.000000     -0.000000
      1.94740     -2.00274      7.81513         0.000000     -0.059613      0.076979
      1.94740     -2.00449      3.96592         0.000000     -0.027548     -0.008683
      1.94740      1.95309      3.91324         0.000000      0.000000     -0.000000
      1.94740     -9.76119     11.71064         0.000000      0.027548      0.008683
      1.94740     -7.79975     13.67207         0.000000     -0.008683     -0.027548
      1.94740     -7.86143      9.76294         0.000000      0.076979     -0.059613
      1.94740     -3.92740      9.79373         0.000000      0.000000     -0.000000
      1.94740     -3.90425      5.91363         0.000000     -0.076979      0.059613
      1.94740     -0.05504      5.91538         0.000000      0.008683      0.027548
      1.94740     -0.00236      1.95780         0.000000      0.000000     -0.000000
      0.00000     -9.76445      9.76445         0.000000      0.004020     -0.004020
      0.00000     -5.86874      9.77963         0.000000      0.029732     -0.029732
      0.00000     -5.89694      5.89694         0.000000     -0.029732      0.029732
      0.00000     -2.00123      5.91212         0.000000     -0.004020      0.004020
      0.00000     -1.98444      1.98444         0.000000      0.042040     -0.042040
      0.00000     -9.78124     13.69213         0.000000     -0.042040      0.042040
    total drift:                                0.000000     -0.005316      0.005316

  FREE ENERGIE OF THE ION-ELECTRON SYSTEM (eV)
  free  energy   TOTEN  =      -226.38585189 eV

  energy  without entropy=     -226.38585189  energy(sigma->0) =     -226.38585189

 total charge

[...]

 magnetization (x)

# of ion       s       p       d       f       tot
    1        0.000  -0.000   0.001   0.002   0.003
    2        0.001   0.001   0.010   0.006   0.017
    3        0.001   0.001   0.013   0.007   0.022
    4        0.001   0.001   0.013   0.007   0.022
    5        0.001   0.001   0.010   0.006   0.017
    6        0.000  -0.000   0.001   0.002   0.003
    7        0.022   0.020   3.739   0.000   3.781
    8        0.025   0.025   3.496   0.000   3.546
    9        0.022   0.020   3.737   0.000   3.780
   10        0.025   0.025   3.495   0.000   3.545
   11        0.015   0.013   1.650   0.000   1.678
   12        0.015   0.013   1.649   0.000   1.678
   13        0.004  -0.036   0.000   0.000  -0.032
   14        0.005  -0.065   0.000   0.000  -0.060
   15        0.004  -0.036   0.000   0.000  -0.032
   16        0.005  -0.026   0.000   0.000  -0.021
   17        0.007   0.031   0.000   0.000   0.038
   18        0.005  -0.026   0.000   0.000  -0.021
   19        0.005  -0.026   0.000   0.000  -0.021
   20        0.004  -0.036   0.000   0.000  -0.032
   21        0.005  -0.065   0.000   0.000  -0.060
   22        0.004  -0.036   0.000   0.000  -0.032
   23        0.005  -0.026   0.000   0.000  -0.021
   24        0.007   0.031   0.000   0.000   0.038
   25        0.005  -0.054   0.000   0.000  -0.050
   26        0.004  -0.046   0.000   0.000  -0.042
   27        0.004  -0.046   0.000   0.000  -0.042
   28        0.005  -0.055   0.000   0.000  -0.050
   29        0.007  -0.002   0.000   0.000   0.005
   30        0.007  -0.003   0.000   0.000   0.004
tot          0.221  -0.403  17.816   0.029  17.663

 BZINTS: Fermi energy:  7.687601;222.000000 electrons
         Band energy:-388.866240;  BLOECHL correction: -0.144916