 vasp.5.4.4.18Apr17-6-g9f103f2a35 (build Oct 03 2018 13:58:34) complex

 executed on             LinuxIFC date 2019.06.04  00:53:19

 INCAR:
 POTCAR:    PAW_PBE La 06Sep2000
 POTCAR:    PAW_PBE Mn 06Sep2000
 POTCAR:    PAW_PBE Ni 02Aug2007
 POTCAR:    PAW_PBE O 08Apr2002

 POTCAR:    PAW_PBE La 06Sep2000
   VRHFIN =La : [core=Kr4d]

   TITEL  = PAW_PBE La 06Sep2000
   POMASS =  138.900; ZVAL   =   11.000    mass and valenz
   ENMAX  =  219.292; ENMIN  =  164.469 eV

 POTCAR:    PAW_PBE Mn 06Sep2000
   VRHFIN =Mn: d6 s1

   TITEL  = PAW_PBE Mn 06Sep2000
   POMASS =   54.938; ZVAL   =    7.000    mass and valenz
   ENMAX  =  269.864; ENMIN  =  202.398 eV

 POTCAR:    PAW_PBE Ni 02Aug2007
   VRHFIN =Ni:

   TITEL  = PAW_PBE Ni 02Aug2007
   POMASS =   58.690; ZVAL   =   10.000    mass and valenz
   ENMAX  =  269.532; ENMIN  =  202.149 eV

 POTCAR:    PAW_PBE O 08Apr2002
   VRHFIN =O: s2p4

   TITEL  = PAW_PBE O 08Apr2002
   POMASS =   16.000; ZVAL   =    6.000    mass and valenz
   ENMAX  =  400.000; ENMIN  =  300.000 eV

 Optimization of the real space projectors (new method)

 maximal supplied QI-value         = 13.42
 optimisation between [QCUT,QGAM] = [ 11.67, 23.35] = [ 38.16,152.62] Ry
 Optimized for a Real-space Cutoff    1.63 Angstroem

   l    n(q)    QCUT    max X(q) W(low)/X(q) W(high)/X(q)  e(spline)
   0     11    11.673    13.882    0.27E-04    0.79E-05    0.11E-06
   0     11    11.673    12.184    0.39E-04    0.13E-04    0.19E-06
   1     11    11.673     4.523    0.73E-05    0.76E-05    0.12E-06
   1     11    11.673     4.424    0.87E-05    0.13E-04    0.19E-06
   2     10    11.673    52.481    0.65E-04    0.36E-04    0.18E-06
   2     10    11.673    38.501    0.61E-04    0.33E-04    0.17E-06
   3     10    11.673    65.631    0.17E-03    0.14E-03    0.37E-06
   3     10    11.673    56.854    0.17E-03    0.14E-03    0.37E-06
 Optimization of the real space projectors (new method)

[...]

   l    n(q)    QCUT    max X(q) W(low)/X(q) W(high)/X(q)  e(spline)
   2      9    11.539    60.317    0.19E-03    0.47E-04    0.16E-06
   2      9    11.539    55.921    0.19E-03    0.48E-04    0.16E-06
   0     10    11.539    51.690    0.80E-04    0.50E-04    0.24E-06
   0     10    11.539    30.015    0.73E-04    0.45E-04    0.22E-06
   1     10    11.539    18.849    0.87E-04    0.16E-03    0.71E-07
   1     10    11.539    14.624    0.73E-04    0.13E-03    0.64E-07
 Optimization of the real space projectors (new method)

 maximal supplied QI-value         = 24.76
 optimisation between [QCUT,QGAM] = [ 11.64, 23.27] = [ 37.91,151.63] Ry
 Optimized for a Real-space Cutoff    1.14 Angstroem

   l    n(q)    QCUT    max X(q) W(low)/X(q) W(high)/X(q)  e(spline)
   0      8    11.635    20.381    0.10E-03    0.33E-03    0.24E-06
   0      8    11.635    15.268    0.11E-03    0.35E-03    0.26E-06
   1      7    11.635     5.964    0.24E-03    0.31E-03    0.30E-06
   1      7    11.635     5.382    0.22E-03    0.25E-03    0.26E-06
  PAW_PBE La 06Sep2000                  :
  PAW_PBE Mn 06Sep2000                  :
  PAW_PBE Ni 02Aug2007                  :
  PAW_PBE O 08Apr2002                   :

 POSCAR: SCEL5_1_5_1_4_0_0/1
  positions in direct lattice
  velocities in cartesian coordinates
 exchange correlation table for  LEXCH =        8
   RHO(1)=    0.500       N(1)  =     2000
   RHO(2)=  100.500       N(2)  =     4000

 ion  position               nearest neighbor table
   1  0.000  0.607  0.213-  24 2.60  14 2.66  14 2.66  19 2.66  19 2.66  25 2.76  25 2.76   9 3.24
                             9 3.24  10 3.38  10 3.38  10 3.38  10 3.38   2 3.66   2 3.66
   2  0.000  0.193  0.387-  25 2.60  14 2.66  14 2.66  19 2.66  19 2.66  24 2.76  24 2.76  10 3.24
                            10 3.24   9 3.38   9 3.38   9 3.38   9 3.38   1 3.66   1 3.66
   3  0.000  0.794  0.587-  24 2.56  18 2.64  13 2.64  13 2.64  18 2.64  23 2.77  23 2.77   9 3.22
                             9 3.22   8 3.38   8 3.38   8 3.38   8 3.38
   4  0.000  0.400  0.800-  23 2.72  21 2.72  17 2.73  17 2.73  12 2.73  12 2.73  16 2.73  16 2.73
                            11 2.73  11 2.73  22 2.76  22 2.76   6 3.37   6 3.37   6 3.37   6 3.37
   5  0.000  0.006  0.013-  25 2.56  20 2.64  15 2.64  15 2.64  20 2.64  21 2.77  21 2.77  10 3.22
                            10 3.22   7 3.38   7 3.38   7 3.38   7 3.38
   6  0.500  0.900  0.800-  22 1.94  22 1.94  12 1.96  17 1.96  11 1.96  16 1.96   4 3.37   4 3.37
                             4 3.37   4 3.37
   7  0.500  0.500  0.000-  20 1.90  15 1.90  21 1.94  21 1.94  16 1.95  11 1.95   5 3.38   5 3.38
                             5 3.38   5 3.38   4 3.38   4 3.38
   8  0.500  0.300  0.600-  18 1.90  13 1.90  23 1.94  23 1.94  12 1.95  17 1.95   3 3.38   3 3.38
                             3 3.38   3 3.38   4 3.38   4 3.38
   9  0.500  0.701  0.401-  24 1.94  24 1.94  14 1.96  19 1.96  18 1.99  13 1.99   3 3.22   3 3.22
                             1 3.24   1 3.24   2 3.38   2 3.38   2 3.38   2 3.38
  10  0.500  0.099  0.199-  25 1.94  25 1.94  14 1.96  19 1.96  20 1.99  15 1.99   5 3.22   5 3.22
                             2 3.24   2 3.24   1 3.38   1 3.38   1 3.38   1 3.38
  11  0.500  0.696  0.899-   7 1.95   6 1.96   4 2.73   4 2.73
  12  0.500  0.104  0.701-   8 1.95   6 1.96   4 2.73   4 2.73
  13  0.500  0.502  0.505-   8 1.90   9 1.99   3 2.64   3 2.64
  14  0.500  0.900  0.300-  10 1.96   9 1.96   1 2.66   1 2.66   2 2.66   2 2.66
  15  0.500  0.298  0.095-   7 1.90  10 1.99   5 2.64   5 2.64
  16  0.500  0.203  0.899-   7 1.95   6 1.96   4 2.73   4 2.73
  17  0.500  0.597  0.701-   8 1.95   6 1.96   4 2.73   4 2.73
  18  0.500  0.003  0.505-   8 1.90   9 1.99   3 2.64   3 2.64
  19  0.500  0.400  0.300-  10 1.96   9 1.96   1 2.66   1 2.66   2 2.66   2 2.66
  20  0.500  0.797  0.095-   7 1.90  10 1.99   5 2.64   5 2.64
  21  0.000  0.499  0.997-   7 1.94   7 1.94   4 2.72   5 2.77   5 2.77
  22  0.000  0.900  0.800-   6 1.94   6 1.94   4 2.76   4 2.76
  23  0.000  0.301  0.603-   8 1.94   8 1.94   4 2.72   3 2.77   3 2.77
  24  0.000  0.701  0.402-   9 1.94   9 1.94   3 2.56   1 2.60   2 2.76   2 2.76
  25  0.000  0.099  0.198-  10 1.94  10 1.94   5 2.56   2 2.60   1 2.76   1 2.76

  LATTYP: Found a base centered orthorhombic cell.
 ALAT       =     5.5140759103
 B/A-ratio  =     5.0112390388
 C/A-ratio  =     0.7032392888

  Lattice vectors:

 A1 = (   0.0000000000,  11.7190321380,   7.8199916699)
 A2 = (   0.0000000000,  -7.8199916699, -11.7190321380)
 A3 = (  -3.8777148217,   0.0000000000,   0.0000000000)

Analysis of symmetry for initial positions (statically):
 Subroutine PRICEL returns:
 Original cell was already a primitive cell.

 Routine SETGRP: Setting up the symmetry group for a
 base centered orthorhombic supercell.

 Subroutine GETGRP returns: Found  8 space group operations
 (whereof  4 operations were pure point group operations)
 out of a pool of  8 trial point group operations.

The static configuration has the point symmetry C_2v.
 The point group associated with its full space group is D_2h.

Analysis of symmetry for dynamics (positions and initial velocities):
 Subroutine PRICEL returns:
 Original cell was already a primitive cell.

[...]

The dynamic configuration has the point symmetry C_2v.
 The point group associated with its full space group is D_2h.

Analysis of structural, dynamic, and magnetic symmetry:
 Subroutine PRICEL returns:
 Original cell was already a primitive cell.

 Routine SETGRP: Setting up the symmetry group for a
 base centered orthorhombic supercell.

 Subroutine GETGRP returns: Found  8 space group operations
 (whereof  4 operations were pure point group operations)
 out of a pool of  8 trial point group operations.

The magnetic configuration has the point symmetry C_2v.
 The point group associated with its full space group is D_2h.

 Subroutine INISYM returns: Found  8 space group operations
 (whereof  4 operations are pure point group operations),
 and found     1 'primitive' translations

 KPOINTS: Automatic mesh

Automatic generation of k-mesh.
 generate k-points for:    5    4    1
Space group operators:
 irot       det(A)        alpha          n_x          n_y          n_z        tau_x        tau_y        tau_z
    1     1.000000     0.000000     1.000000     0.000000     0.000000     0.000000     0.000000     0.000000
    2    -1.000000   179.999999     1.000000     0.000000     0.000000     0.000000     0.000000     0.000000
    3     1.000000   180.000000     0.000000    -0.707107    -0.707107     0.000000     0.000000     0.000000
    4    -1.000000   179.999999     0.000000    -0.707107     0.707107     0.000000     0.000000     0.000000
    5    -1.000000     0.000000     1.000000     0.000000     0.000000     0.000000     0.800000     0.600000
    6     1.000000   179.999999     1.000000     0.000000     0.000000     0.000000     0.800000     0.600000
    7    -1.000000   180.000000     0.000000    -0.707107    -0.707107     0.000000     0.800000     0.600000
    8     1.000000   179.999999     0.000000    -0.707107     0.707107     0.000000     0.800000     0.600000

 Subroutine IBZKPT returns following result:

 Found      9 irreducible k-points:

 Following reciprocal coordinates:
            Coordinates               Weight
  0.000000  0.000000  0.000000      1.000000
  0.200000  0.000000  0.000000      2.000000
  0.400000  0.000000  0.000000      2.000000
  0.000000  0.250000  0.000000      2.000000
  0.200000  0.250000  0.000000      4.000000
  0.400000  0.250000  0.000000      4.000000
  0.000000  0.500000  0.000000      1.000000
  0.200000  0.500000  0.000000      2.000000
  0.400000  0.500000  0.000000      2.000000

 Following cartesian coordinates:
            Coordinates               Weight
  0.000000  0.000000  0.000000      1.000000
  0.051577  0.000000  0.000000      2.000000
  0.103154  0.000000  0.000000      2.000000
  0.000000  0.038457 -0.025662      2.000000
  0.051577  0.038457 -0.025662      4.000000
  0.103154  0.038457 -0.025662      4.000000
  0.000000  0.076913 -0.051323      1.000000
  0.051577  0.076913 -0.051323      2.000000
  0.103154  0.076913 -0.051323      2.000000

 TETIRR: Found     54 inequivalent tetrahedra from      120

 SYSTEM =  final
 POSCAR =  SCEL5_1_5_1_4_0_0/1

 Startparameter for this run:
   NWRITE =      2    write-flag & timer
   PREC   = accura    normal or accurate (medium, high low for compatibility)
   ISTART =      0    job   : 0-new  1-cont  2-samecut
   ICHARG =      1    charge: 1-file 2-atom 10-const
   ISPIN  =      2    spin polarized calculation?
   LNONCOLLINEAR =      F non collinear calculations
   LSORBIT =      F    spin-orbit coupling
   INIWAV =      1    electr: 0-lowe 1-rand  2-diag
   LASPH  =      F    aspherical Exc in radial PAW
   METAGGA=      F    non-selfconsistent MetaGGA calc.

 Electronic Relaxation 1
   ENCUT  =  520.0 eV  38.22 Ry    6.18 a.u.   7.21 10.25 26.20*2*pi/ulx,y,z
   ENINI  =  520.0     initial cutoff
   ENAUG  =  605.4 eV  augmentation charge cutoff
   NELM   =    100;   NELMIN=  2; NELMDL= -5     # of ELM steps
   EDIFF  = 0.1E-02   stopping-criterion for ELM
   LREAL  =      T    real-space projection
[...]
       1 -95.5502       2 -95.5506       3 -95.5792       4 -95.6580       5 -95.5793
       6 -42.8145       7 -43.0238       8 -43.0238       9 -83.6238      10 -83.6238
      11 -67.1855      12 -67.1855      13 -67.0422      14 -66.5601      15 -67.0422
      16 -67.1855      17 -67.1855      18 -67.0422      19 -66.5601      20 -67.0422
      21 -67.2851      22 -67.1712      23 -67.2851      24 -66.7458      25 -66.7458

 E-fermi :   7.6822     XC(G=0): -11.6619     alpha+bet :-16.3458

[...]

 k-point     1 :       0.0000    0.0000    0.0000
  band No.  band energies     occupation
      1     -24.1308      1.00000
      2     -24.0749      1.00000
      3     -24.0579      1.00000
      4     -24.0200      1.00000
      5     -23.9403      1.00000
      6     -11.1665      1.00000
      7     -11.1041      1.00000
      8     -10.9084      1.00000
      9     -10.8462      1.00000
     10     -10.6371      1.00000
     11     -10.4366      1.00000
     12     -10.3501      1.00000
     13     -10.0710      1.00000
     14     -10.0596      1.00000
     15      -9.9946      1.00000
     16      -9.9424      1.00000
     17      -9.8424      1.00000
     18      -9.7843      1.00000
     19      -9.7686      1.00000
     20      -9.5729      1.00000
     21      -7.6357      1.00000
     22      -7.6265      1.00000
     23      -7.5613      1.00000
     24      -7.5525      1.00000
     25      -7.5446      1.00000
     26      -7.4613      1.00000
     27      -7.4063      1.00000
     28      -7.3217      1.00000
     29      -7.3188      1.00000
     30      -7.2265      1.00000
     31      -7.2017      1.00000
     32      -7.1717      1.00000
     33      -7.0880      1.00000
     34      -7.0501      1.00000
     35      -6.9579      1.00000
     36       0.3367      1.00000
     37       0.6507      1.00000
     38       0.9548      1.00000
     39       1.0454      1.00000
     40       1.0471      1.00000
     41       1.2120      1.00000
     42       1.7243      1.00000
     43       1.8045      1.00000
     44       1.9171      1.00000
     45       1.9173      1.00000
     46       1.9715      1.00000
     47       1.9895      1.00000
     48       2.0353      1.00000
     49       2.2184      1.00000
     50       2.2840      1.00000
     51       2.3481      1.00000
     52       2.4383      1.00000
     53       2.4639      1.00000
     54       2.4917      1.00000
     55       2.5008      1.00000
     56       2.8380      1.00000
     57       2.8400      1.00000
     58       2.8723      1.00000
     59       3.1625      1.00000
     60       3.1914      1.00000
[...]
    106      10.1014      0.00000
    107      10.5789      0.00000
    108      10.6291      0.00000
    109      10.6717      0.00000
    110      10.7218      0.00000
    111      10.7634      0.00000
    112      10.8202      0.00000
    113      10.8387      0.00000
    114      10.8631      0.00000
    115      10.9021      0.00000
    116      10.9492      0.00000
    117      10.9616      0.00000
    118      10.9805      0.00000
    119      11.0185      0.00000
    120      11.0600      0.00000

[...]

 spin component 2

[...]

 k-point     9 :       0.4000    0.5000    0.0000
  band No.  band energies     occupation
      1     -24.0555      1.00000
      2     -23.9900      1.00000
      3     -23.9897      1.00000
      4     -23.9487      1.00000
      5     -23.9486      1.00000
      6     -10.8879      1.00000
      7     -10.7955      1.00000
      8     -10.7612      1.00000
      9     -10.7114      1.00000
     10     -10.6154      1.00000
     11     -10.4128      1.00000
     12     -10.3581      1.00000
     13     -10.3014      1.00000
     14     -10.1649      1.00000
     15     -10.1547      1.00000
     16     -10.0260      1.00000
     17      -9.9875      1.00000
     18      -9.8347      1.00000
     19      -9.6648      1.00000
     20      -9.6401      1.00000
     21      -7.7732      1.00000
     22      -7.7606      1.00000
     23      -7.6268      1.00000
     24      -7.4102      1.00000
     25      -7.3685      1.00000
     26      -7.3672      1.00000
     27      -7.3514      1.00000
     28      -7.2579      1.00000
     29      -7.2365      1.00000
     30      -7.1808      1.00000
     31      -7.1630      1.00000
     32      -7.0693      1.00000
     33      -7.0558      1.00000
     34      -6.9520      1.00000
     35      -6.9362      1.00000
     36       1.6642      1.00000
     37       1.6755      1.00000
     38       1.7033      1.00000
     39       1.7851      1.00000
     40       1.7881      1.00000
     41       1.9269      1.00000
     42       2.0000      1.00000
     43       2.3092      1.00000
     44       2.5309      1.00000
     45       2.6509      1.00000
     46       2.8382      1.00000
     47       2.8711      1.00000
     48       2.9130      1.00000
     49       2.9764      1.00000
     50       3.0226      1.00000
     51       3.0423      1.00000
     52       3.1167      1.00000
     53       3.3673      1.00000
     54       3.4619      1.00000
     55       3.4990      1.00000
     56       3.5155      1.00000
     57       3.5730      1.00000
     58       3.5852      1.00000
     59       3.8394      1.00000
     60       3.9223      1.00000
[...]
    106      10.8955      0.00000
    107      10.9057      0.00000
    108      10.9174      0.00000
    109      10.9242      0.00000
    110      10.9403      0.00000
    111      10.9477      0.00000
    112      10.9596      0.00000
    113      10.9694      0.00000
    114      10.9778      0.00000
    115      10.9861      0.00000
    116      11.0048      0.00000
    117      11.0091      0.00000
    118      11.0394      0.00000
    119      11.0727      0.00000
    120      11.0932      0.00000

 soft charge-density along one line, spin component           1
         0         1         2         3         4         5         6         7         8         9
 total charge-density along one line

 soft charge-density along one line, spin component           2
         0         1         2         3         4         5         6         7         8         9
 total charge-density along one line

------------------------ aborting loop because EDIFF is reached ----------------------------------------

 total charge

# of ion       s       p       d       f       tot
    1        2.001   5.694   0.496   0.189   8.381
    2        2.001   5.694   0.496   0.189   8.381
    3        2.002   5.698   0.504   0.196   8.400
    4        2.000   5.701   0.495   0.194   8.390
    5        2.002   5.698   0.504   0.196   8.400
    6        0.317   0.479   4.867   0.000   5.663
    7        0.337   0.517   4.870   0.000   5.724
    8        0.337   0.517   4.870   0.000   5.724
    9        0.407   0.596   8.334   0.000   9.337
   10        0.407   0.596   8.334   0.000   9.337
   11        1.563   3.455   0.000   0.000   5.018
   12        1.563   3.455   0.000   0.000   5.018
   13        1.563   3.451   0.000   0.000   5.013
   14        1.557   3.462   0.000   0.000   5.019
   15        1.563   3.451   0.000   0.000   5.013
   16        1.563   3.453   0.000   0.000   5.016
   17        1.563   3.453   0.000   0.000   5.016
   18        1.563   3.451   0.000   0.000   5.014
   19        1.557   3.458   0.000   0.000   5.014
   20        1.563   3.451   0.000   0.000   5.014
   21        1.565   3.453   0.000   0.000   5.018
   22        1.564   3.449   0.000   0.000   5.013
   23        1.565   3.453   0.000   0.000   5.018
   24        1.558   3.464   0.000   0.000   5.022
   25        1.558   3.464   0.000   0.000   5.022
tot         35.237  83.013  33.770   0.964 152.983

 magnetization (x)

[...]

  FORCE on cell =-STRESS in cart. coord.  units (eV):
  Direction    XX          YY          ZZ          XY          YZ          ZX
  Alpha Z   814.05595   814.05595   814.05595
  Ewald   -4024.21978 -4273.32153 -4273.32153     0.00000   -87.90685     0.00000
  Hartree  1101.96553   901.18943   901.18942    -0.00000   -96.15989    -0.00000
  E(xc)    -861.78625  -861.97165  -861.97166     0.00000     0.06185    -0.00000
  Local    -903.75625  -456.87403  -456.87363     0.00000   184.09506     0.00000
  n-local   340.36726   340.05334   340.00824    -0.27299    -0.76128     0.33021
  augment   333.83388   334.71546   334.71542    -0.00000    -0.04239     0.00000
  Kinetic  3200.14234  3201.76751  3202.02491     0.25979     0.88164    -0.49582
  Fock        0.00000     0.00000     0.00000     0.00000     0.00000     0.00000
  Total       0.60269    -0.27921    -0.27921     0.00000     0.17297     0.00000
  in kB       3.26863    -1.51426    -1.51426     0.00000     0.93807     0.00000

 VOLUME and BASIS-vectors are now :
  energy-cutoff  :      520.00
  volume of cell :      295.42
      direct lattice vectors                 reciprocal lattice vectors
     3.877714822  0.000000000  0.000000000     0.257883843  0.000000000  0.000000000
     0.000000000  3.899040468 -3.899040468     0.000000000  0.153826494 -0.102646864
     0.000000000  7.819991670 11.719032138     0.000000000  0.051179630  0.051179630

  length of vectors
     3.877714822  5.514075910 14.088576364     0.257883843  0.184929632  0.072378926

 FORCES acting on ions
    electron-ion (+dipol)            ewald-force                    non-local-force                 convergence-correction
   -.168E-14 0.122E+03 0.122E+03   0.140E-13 -.120E+03 -.120E+03   0.000E+00 -.121E+01 -.121E+01   0.522E-14 -.102E+00 -.102E+00
   0.235E-14 -.122E+03 -.122E+03   -.258E-13 0.120E+03 0.120E+03   0.000E+00 0.121E+01 0.121E+01   -.214E-14 0.102E+00 0.102E+00
   -.427E-14 -.157E+03 -.157E+03   0.276E-13 0.155E+03 0.155E+03   0.000E+00 0.123E+01 0.123E+01   0.535E-14 0.152E+00 0.152E+00
   -.810E-14 -.589E-05 -.928E-05   -.239E-13 0.413E-10 0.383E-10   0.000E+00 -.122E-18 -.542E-19   0.344E-14 -.246E-05 0.299E-05
   -.991E-14 0.157E+03 0.157E+03   -.434E-13 -.155E+03 -.155E+03   0.000E+00 -.123E+01 -.123E+01   0.743E-14 -.152E+00 -.152E+00
   0.672E-13 -.252E-04 -.149E-04   0.567E-14 0.872E-11 0.367E-10   0.000E+00 -.847E-20 0.102E-19   0.112E-13 0.211E-05 0.211E-05
   0.605E-13 0.568E+02 0.568E+02   -.355E-13 -.561E+02 -.561E+02   0.000E+00 -.610E+00 -.610E+00   0.657E-14 -.838E-01 -.839E-01
   0.555E-13 -.568E+02 -.568E+02   0.149E-13 0.561E+02 0.561E+02   0.000E+00 0.610E+00 0.610E+00   0.317E-14 0.839E-01 0.839E-01
   0.332E-12 -.708E+02 -.708E+02   -.104E-13 0.694E+02 0.694E+02   0.000E+00 0.137E+01 0.137E+01   0.362E-13 0.116E+00 0.116E+00
   0.291E-12 0.708E+02 0.708E+02   0.314E-13 -.694E+02 -.694E+02   0.000E+00 -.137E+01 -.137E+01   0.438E-13 -.116E+00 -.116E+00
   0.121E-12 0.178E+02 0.395E+02   0.112E-13 -.169E+02 -.399E+02   0.000E+00 -.866E+00 0.399E+00   0.187E-13 -.229E-01 -.541E-01
   0.120E-12 -.178E+02 -.395E+02   0.108E-13 0.169E+02 0.399E+02   0.000E+00 0.866E+00 -.399E+00   0.295E-13 0.229E-01 0.541E-01
   0.115E-12 -.344E+02 -.106E+03   0.147E-13 0.325E+02 0.102E+03   0.000E+00 0.189E+01 0.462E+01   0.233E-13 0.525E-01 0.655E-01
   0.119E-12 -.104E-04 0.497E-05   0.687E-14 -.345E-11 0.477E-10   0.000E+00 0.983E-19 -.136E-19   0.249E-13 -.209E-05 -.222E-05
   0.112E-12 0.344E+02 0.106E+03   -.105E-13 -.325E+02 -.102E+03   0.000E+00 -.189E+01 -.462E+01   0.316E-13 -.525E-01 -.655E-01
   0.119E-12 0.395E+02 0.178E+02   0.175E-13 -.399E+02 -.169E+02   0.000E+00 0.399E+00 -.866E+00   0.147E-13 -.541E-01 -.229E-01
   0.119E-12 -.395E+02 -.178E+02   -.296E-13 0.399E+02 0.169E+02   0.000E+00 -.399E+00 0.866E+00   0.145E-13 0.541E-01 0.229E-01
   0.105E-12 -.106E+03 -.344E+02   0.320E-13 0.102E+03 0.325E+02   0.000E+00 0.462E+01 0.189E+01   0.254E-13 0.655E-01 0.525E-01
   0.115E-12 -.276E-04 0.409E-04   0.214E-13 0.236E-10 -.187E-10   0.000E+00 -.203E-19 0.881E-19   0.215E-13 -.221E-05 -.205E-05
   0.122E-12 0.106E+03 0.344E+02   -.174E-13 -.102E+03 -.325E+02   0.000E+00 -.462E+01 -.189E+01   0.936E-14 -.655E-01 -.525E-01
   -.193E-14 0.435E+02 0.435E+02   0.432E-13 -.430E+02 -.430E+02   0.000E+00 -.490E+00 -.490E+00   0.738E-14 -.501E-01 -.501E-01
   -.387E-14 -.491E-04 0.990E-06   -.428E-14 0.226E-11 0.546E-11   0.000E+00 0.136E-19 -.136E-19   -.431E-14 0.183E-05 0.191E-05
   -.101E-13 -.435E+02 -.435E+02   -.208E-13 0.430E+02 0.430E+02   0.000E+00 0.490E+00 0.490E+00   0.305E-14 0.501E-01 0.501E-01
   -.834E-14 -.405E+02 -.405E+02   -.195E-13 0.403E+02 0.403E+02   0.000E+00 0.158E+00 0.158E+00   -.674E-14 0.434E-01 0.434E-01
   -.745E-14 0.405E+02 0.405E+02   -.934E-14 -.403E+02 -.403E+02   0.000E+00 -.158E+00 -.158E+00   -.712E-15 -.434E-01 -.434E-01
   0.192E-11 0.371E-04 -.464E-05   0.691E-15 0.142E-13 -.107E-12   0.000E+00 -.971E-15 -.167E-15   0.333E-12 -.159E-04 -.473E-05

 POSITION                                       TOTAL-FORCE (eV/Angst)
      0.00000      4.03196      0.13292         0.000000     -0.010189     -0.010189
      0.00000      3.77927      3.77927         0.000000      0.010189      0.010189
      0.00000      7.68488      3.78584         0.000000      0.011720      0.011720
      0.00000      7.81561      7.81561         0.000000     -0.000000     -0.000000
      0.00000      0.12634      0.12634         0.000000     -0.011720     -0.011720
      1.93886      9.76513      5.86609         0.000000     -0.000000     -0.000000
      1.93886      1.95054     -1.94850         0.000000      0.005330      0.005330
      1.93886      5.86069      5.86069         0.000000     -0.005330     -0.005330
      1.93886      5.86877      1.96973         0.000000     -0.001467     -0.001467
      1.93886      1.94246      1.94246         0.000000      0.001467      0.001467
      1.93886      9.74175      7.82304         0.000000     -0.023309     -0.047783
      1.93886      5.88947      7.80818         0.000000      0.023309      0.047783
      1.93886      5.90091      3.95697         0.000000      0.038550      0.014774
      1.93886      5.85513      0.00657         0.000000     -0.000000     -0.000000
      1.93886      1.91032     -0.04478         0.000000     -0.038550     -0.014774
      1.93886      7.82304      9.74175         0.000000     -0.047783     -0.023309
      1.93886      7.80818      5.88947         0.000000      0.047783      0.023309
      1.93886      3.95697      5.90091         0.000000      0.014774      0.038550
      1.93886      3.90561      1.95609         0.000000     -0.000000     -0.000000
      1.93886      3.85426     -1.98872         0.000000     -0.014774     -0.038550
      0.00000      9.74033      9.74033         0.000000     -0.022020     -0.022020
      0.00000      9.76513      5.86609         0.000000     -0.000000     -0.000000
      0.00000      5.89089      5.89089         0.000000      0.022020      0.022020
      0.00000      5.87320      1.97416         0.000000     -0.002379     -0.002379
      0.00000      1.93803      1.93803         0.000000      0.002379      0.002379
    total drift:                                0.000000      0.000021     -0.000009

  FREE ENERGIE OF THE ION-ELECTRON SYSTEM (eV)
  free  energy   TOTEN  =      -186.59144339 eV

  energy  without entropy=     -186.59144339  energy(sigma->0) =     -186.59144339

 total charge

[...]

 magnetization (x)

# of ion       s       p       d       f       tot
    1        0.000  -0.000   0.002   0.002   0.003
    2        0.000  -0.000   0.002   0.002   0.003
    3        0.001   0.001   0.011   0.006   0.018
    4        0.001   0.001   0.014   0.007   0.023
    5        0.001   0.001   0.011   0.006   0.018
    6        0.021   0.019   3.651   0.000   3.691
    7        0.024   0.023   3.493   0.000   3.540
    8        0.024   0.023   3.493   0.000   3.540
    9        0.015   0.013   1.627   0.000   1.655
   10        0.015   0.013   1.627   0.000   1.655
   11        0.004  -0.042   0.000   0.000  -0.039
   12        0.004  -0.042   0.000   0.000  -0.039
   13        0.006  -0.034   0.000   0.000  -0.029
   14        0.007   0.026   0.000   0.000   0.033
   15        0.006  -0.034   0.000   0.000  -0.029
   16        0.004  -0.044   0.000   0.000  -0.040
   17        0.004  -0.044   0.000   0.000  -0.040
   18        0.006  -0.034   0.000   0.000  -0.028
   19        0.007   0.021   0.000   0.000   0.028
   20        0.006  -0.034   0.000   0.000  -0.028
   21        0.004  -0.058   0.000   0.000  -0.054
   22        0.004  -0.053   0.000   0.000  -0.048
   23        0.004  -0.058   0.000   0.000  -0.054
   24        0.006  -0.009   0.000   0.000  -0.003
   25        0.006  -0.009   0.000   0.000  -0.003
tot          0.180  -0.356  13.930   0.022  13.775

 BZINTS: Fermi energy:  7.682185;186.000000 electrons
         Band energy:-298.743143;  BLOECHL correction: -0.094059