 vasp.5.4.4.18Apr17-6-g9f103f2a35 (build Oct 03 2018 13:58:34) complex

 executed on             LinuxIFC date 2019.06.04  02:04:43

 INCAR:
 POTCAR:    PAW_PBE La 06Sep2000
 POTCAR:    PAW_PBE Mn 06Sep2000
 POTCAR:    PAW_PBE Ni 02Aug2007
 POTCAR:    PAW_PBE O 08Apr2002

 POTCAR:    PAW_PBE La 06Sep2000
   VRHFIN =La : [core=Kr4d]

   TITEL  = PAW_PBE La 06Sep2000
   POMASS =  138.900; ZVAL   =   11.000    mass and valenz
   ENMAX  =  219.292; ENMIN  =  164.469 eV

 POTCAR:    PAW_PBE Mn 06Sep2000
   VRHFIN =Mn: d6 s1

   TITEL  = PAW_PBE Mn 06Sep2000
   POMASS =   54.938; ZVAL   =    7.000    mass and valenz
   ENMAX  =  269.864; ENMIN  =  202.398 eV

 POTCAR:    PAW_PBE Ni 02Aug2007
   VRHFIN =Ni:

   TITEL  = PAW_PBE Ni 02Aug2007
   POMASS =   58.690; ZVAL   =   10.000    mass and valenz
   ENMAX  =  269.532; ENMIN  =  202.149 eV

 POTCAR:    PAW_PBE O 08Apr2002
   VRHFIN =O: s2p4

   TITEL  = PAW_PBE O 08Apr2002
   POMASS =   16.000; ZVAL   =    6.000    mass and valenz
   ENMAX  =  400.000; ENMIN  =  300.000 eV

 Optimization of the real space projectors (new method)

 maximal supplied QI-value         = 13.42
 optimisation between [QCUT,QGAM] = [ 11.67, 23.35] = [ 38.16,152.62] Ry
 Optimized for a Real-space Cutoff    1.63 Angstroem

   l    n(q)    QCUT    max X(q) W(low)/X(q) W(high)/X(q)  e(spline)
   0     11    11.673    13.882    0.27E-04    0.79E-05    0.11E-06
   0     11    11.673    12.184    0.39E-04    0.13E-04    0.19E-06
   1     11    11.673     4.523    0.73E-05    0.76E-05    0.12E-06
   1     11    11.673     4.424    0.87E-05    0.13E-04    0.19E-06
   2     10    11.673    52.481    0.65E-04    0.36E-04    0.18E-06
   2     10    11.673    38.501    0.61E-04    0.33E-04    0.17E-06
   3     10    11.673    65.631    0.17E-03    0.14E-03    0.37E-06
   3     10    11.673    56.854    0.17E-03    0.14E-03    0.37E-06
 Optimization of the real space projectors (new method)

[...]

   l    n(q)    QCUT    max X(q) W(low)/X(q) W(high)/X(q)  e(spline)
   2      9    11.539    60.317    0.19E-03    0.47E-04    0.16E-06
   2      9    11.539    55.921    0.19E-03    0.48E-04    0.16E-06
   0     10    11.539    51.690    0.80E-04    0.50E-04    0.24E-06
   0     10    11.539    30.015    0.73E-04    0.45E-04    0.22E-06
   1     10    11.539    18.849    0.87E-04    0.16E-03    0.71E-07
   1     10    11.539    14.624    0.73E-04    0.13E-03    0.64E-07
 Optimization of the real space projectors (new method)

 maximal supplied QI-value         = 24.76
 optimisation between [QCUT,QGAM] = [ 11.64, 23.27] = [ 37.91,151.63] Ry
 Optimized for a Real-space Cutoff    1.14 Angstroem

   l    n(q)    QCUT    max X(q) W(low)/X(q) W(high)/X(q)  e(spline)
   0      8    11.635    20.381    0.10E-03    0.33E-03    0.24E-06
   0      8    11.635    15.268    0.11E-03    0.35E-03    0.26E-06
   1      7    11.635     5.964    0.24E-03    0.31E-03    0.30E-06
   1      7    11.635     5.382    0.22E-03    0.25E-03    0.26E-06
  PAW_PBE La 06Sep2000                  :
  PAW_PBE Mn 06Sep2000                  :
  PAW_PBE Ni 02Aug2007                  :
  PAW_PBE O 08Apr2002                   :

 POSCAR: SCEL6_1_3_2_1_0_0/5
  positions in direct lattice
  velocities in cartesian coordinates
 exchange correlation table for  LEXCH =        8
   RHO(1)=    0.500       N(1)  =     2000
   RHO(2)=  100.500       N(2)  =     4000

 ion  position               nearest neighbor table
   1  0.000  0.665  0.175-  28 2.64  22 2.67  22 2.67  17 2.70  17 2.70  30 2.73  29 2.74  13 2.80
                            13 2.80  23 2.80  23 2.80   9 3.27   9 3.27  12 3.33  12 3.33  11 3.35
   2  0.000  0.333  0.333-  29 2.74  28 2.74  27 2.74  30 2.74  22 2.74  22 2.74  21 2.74  21 2.74
                            18 2.75  18 2.75  16 2.75  16 2.75  10 3.36  12 3.36  10 3.36  12 3.36
   3  0.000  0.002  0.492-  29 2.64  21 2.67  21 2.67  17 2.70  17 2.70  27 2.73  28 2.74  15 2.80
                            15 2.80  20 2.80  20 2.80  11 3.27  11 3.27  10 3.33  10 3.33   9 3.35
   4  0.000  0.657  0.656-  16 2.64  16 2.64  28 2.64  27 2.65  20 2.73  20 2.73  19 2.75  19 2.75
                            25 2.82  26 2.82   9 3.27   9 3.27  10 3.29  10 3.29   7 3.41   7 3.41
   5  0.000  0.333  0.833-  15 2.73  15 2.73  13 2.73  13 2.73  26 2.73  25 2.73  27 2.73  30 2.73
                            24 2.73  24 2.73  19 2.73  19 2.73  10 3.34  12 3.34  10 3.34  12 3.34
   6  0.000  0.010  0.011-  18 2.64  18 2.64  29 2.64  30 2.65  23 2.73  23 2.73  24 2.75  24 2.75
                            26 2.82  25 2.82  11 3.27  11 3.27  12 3.29  12 3.29   8 3.41   8 3.41
   7  0.500  0.999  0.750-  15 1.88  20 1.90  24 1.91  14 1.93  26 1.94  26 1.94   5 3.35   5 3.35
                             4 3.41   4 3.41   6 3.43   6 3.43   3 3.43   3 3.43
   8  0.500  0.667  0.917-  13 1.88  23 1.90  19 1.91  14 1.93  25 1.94  25 1.94   5 3.35   5 3.35
                             6 3.41   6 3.41   4 3.43   4 3.43   1 3.43   1 3.43
   9  0.500  0.668  0.417-  16 1.92  17 1.92  28 1.94  28 1.94  22 1.94  20 1.96   4 3.27   4 3.27
                             1 3.27   1 3.27   3 3.35   3 3.35   2 3.36   2 3.36
  10  0.500  0.333  0.584-  27 1.94  27 1.94  21 1.94  16 1.96  19 1.97  15 1.97   4 3.29   4 3.29
                             3 3.33   3 3.33   5 3.34   5 3.34   2 3.36   2 3.36
  11  0.500  0.999  0.249-  18 1.92  17 1.92  29 1.94  29 1.94  21 1.94  23 1.96   6 3.27   6 3.27
                             3 3.27   3 3.27   1 3.35   1 3.35   2 3.36   2 3.36
  12  0.500  0.334  0.083-  30 1.94  30 1.94  22 1.94  18 1.96  24 1.97  13 1.97   6 3.29   6 3.29
                             1 3.33   1 3.33   5 3.34   5 3.34   2 3.36   2 3.36
  13  0.500  0.503  0.996-   8 1.88  12 1.97   5 2.73   5 2.73   1 2.80   1 2.80
  14  0.500  0.833  0.833-   7 1.93   8 1.93
  15  0.500  0.164  0.670-   7 1.88  10 1.97   5 2.73   5 2.73   3 2.80   3 2.80
  16  0.500  0.503  0.501-   9 1.92  10 1.96   4 2.64   4 2.64   2 2.75   2 2.75
  17  0.500  0.833  0.333-  11 1.92   9 1.92   1 2.70   1 2.70   3 2.70   3 2.70
  18  0.500  0.163  0.166-  11 1.92  12 1.96   6 2.64   6 2.64   2 2.75   2 2.75
  19  0.500  0.502  0.753-   8 1.91  10 1.97   5 2.73   5 2.73   4 2.75   4 2.75
  20  0.500  0.836  0.587-   7 1.90   9 1.96   4 2.73   4 2.73   3 2.80   3 2.80
  21  0.500  0.165  0.417-  10 1.94  11 1.94   3 2.67   3 2.67   2 2.74   2 2.74
  22  0.500  0.501  0.250-  12 1.94   9 1.94   1 2.67   1 2.67   2 2.74   2 2.74
  23  0.500  0.831  0.080-   8 1.90  11 1.96   6 2.73   6 2.73   1 2.80   1 2.80
  24  0.500  0.164  0.914-   7 1.91  12 1.97   5 2.73   5 2.73   6 2.75   6 2.75
  25  0.000  0.666  0.916-   8 1.94   8 1.94   5 2.73   4 2.82   6 2.82
  26  0.000  0.001  0.751-   7 1.94   7 1.94   5 2.73   6 2.82   4 2.82
  27  0.000  0.334  0.584-  10 1.94  10 1.94   4 2.65   3 2.73   5 2.73   2 2.74
  28  0.000  0.667  0.417-   9 1.94   9 1.94   1 2.64   4 2.64   2 2.74   3 2.74
  29  0.000  0.999  0.250-  11 1.94  11 1.94   3 2.64   6 2.64   2 2.74   1 2.74
  30  0.000  0.332  0.083-  12 1.94  12 1.94   6 2.65   1 2.73   5 2.73   2 2.74

  LATTYP: Found a simple monoclinic cell.
 ALAT       =    11.6208961021
 B/A-ratio  =     0.3331122671
 C/A-ratio  =     1.4892449289
 COS(beta)  =    -0.8949528101

  Lattice vectors:

 A1 = (   0.0000000000, -11.6208951836,   0.0046203348)
 A2 = (   3.8710630463,   0.0000000000,   0.0000000000)
 A3 = (   0.0000000000,  15.4914447652,   7.7152612350)

Analysis of symmetry for initial positions (statically):
 Subroutine PRICEL returns:
 Original cell was already a primitive cell.

 Routine SETGRP: Setting up the symmetry group for a
 simple monoclinic supercell.

 Subroutine GETGRP returns: Found  4 space group operations
 (whereof  2 operations were pure point group operations)
 out of a pool of  4 trial point group operations.

The static configuration has the point symmetry C_1h.
 The point group associated with its full space group is C_2h.

Analysis of symmetry for dynamics (positions and initial velocities):
 Subroutine PRICEL returns:
 Original cell was already a primitive cell.

[...]

The dynamic configuration has the point symmetry C_1h.
 The point group associated with its full space group is C_2h.

Analysis of structural, dynamic, and magnetic symmetry:
 Subroutine PRICEL returns:
 Original cell was already a primitive cell.

 Routine SETGRP: Setting up the symmetry group for a
 simple monoclinic supercell.

 Subroutine GETGRP returns: Found  4 space group operations
 (whereof  2 operations were pure point group operations)
 out of a pool of  4 trial point group operations.

The magnetic configuration has the point symmetry C_1h.
 The point group associated with its full space group is C_2h.

 Subroutine INISYM returns: Found  4 space group operations
 (whereof  2 operations are pure point group operations),
 and found     1 'primitive' translations

 KPOINTS: Automatic mesh

Automatic generation of k-mesh.
 generate k-points for:    5    2    2
Space group operators:
 irot       det(A)        alpha          n_x          n_y          n_z        tau_x        tau_y        tau_z
    1     1.000000     0.000000     1.000000     0.000000     0.000000     0.000000     0.000000     0.000000
    2    -1.000000   180.000000     1.000000     0.000000     0.000000     0.000000     0.000000     0.000000
    3    -1.000000     0.000000     1.000000     0.000000     0.000000     0.000000    -0.333333    -0.333333
    4     1.000000   180.000000     1.000000     0.000000     0.000000     0.000000    -0.333333    -0.333333

 Subroutine IBZKPT returns following result:

 Found     12 irreducible k-points:

 Following reciprocal coordinates:
            Coordinates               Weight
  0.000000  0.000000  0.000000      1.000000
  0.200000  0.000000  0.000000      2.000000
  0.400000  0.000000  0.000000      2.000000
  0.000000  0.500000  0.000000      1.000000
  0.200000  0.500000  0.000000      2.000000
  0.400000  0.500000  0.000000      2.000000
  0.000000  0.000000  0.500000      1.000000
  0.200000  0.000000  0.500000      2.000000
  0.400000  0.000000  0.500000      2.000000
  0.000000  0.500000  0.500000      1.000000
  0.200000  0.500000  0.500000      2.000000
  0.400000  0.500000  0.500000      2.000000

 Following cartesian coordinates:
            Coordinates               Weight
  0.000000  0.000000  0.000000      1.000000
 -0.051665  0.000000  0.000000      2.000000
 -0.103331  0.000000  0.000000      2.000000
  0.000000  0.043043  0.043187      1.000000
 -0.051665  0.043043  0.043187      2.000000
 -0.103331  0.043043  0.043187      2.000000
  0.000000  0.043017 -0.021568      1.000000
 -0.051665  0.043017 -0.021568      2.000000
 -0.103331  0.043017 -0.021568      2.000000
  0.000000  0.086060  0.021619      1.000000
 -0.051665  0.086060  0.021619      2.000000
 -0.103331  0.086060  0.021619      2.000000

 TETIRR: Found     60 inequivalent tetrahedra from      120

 SYSTEM =  final
 POSCAR =  SCEL6_1_3_2_1_0_0/5

 Startparameter for this run:
   NWRITE =      2    write-flag & timer
   PREC   = accura    normal or accurate (medium, high low for compatibility)
[...]
     30      -7.1097      1.00000
     31      -7.0982      1.00000
     32      -7.0503      1.00000
     33      -7.0164      1.00000
     34      -7.0082      1.00000
     35      -6.9814      1.00000
     36      -6.8446      1.00000
     37      -6.8299      1.00000
     38      -6.7502      1.00000
     39      -6.6428      1.00000
     40      -6.5884      1.00000
     41      -6.5592      1.00000
     42      -6.3304      1.00000
     43       0.4041      1.00000
     44       0.5769      1.00000
     45       0.6747      1.00000
     46       0.9388      1.00000
     47       1.1328      1.00000
     48       1.1914      1.00000
     49       1.3638      1.00000
     50       1.4788      1.00000
     51       1.5725      1.00000
     52       1.9446      1.00000
     53       2.0024      1.00000
     54       2.0513      1.00000
     55       2.1104      1.00000
     56       2.1300      1.00000
     57       2.1378      1.00000
     58       2.1922      1.00000
     59       2.2197      1.00000
     60       2.2297      1.00000
[...]
    132      11.0789      0.00000
    133      11.1060      0.00000
    134      11.1578      0.00000
    135      11.2015      0.00000
    136      11.2275      0.00000
    137      11.2570      0.00000
    138      11.2728      0.00000
    139      11.2900      0.00000
    140      11.3033      0.00000
    141      11.3385      0.00000
    142      11.3570      0.00000
    143      11.3709      0.00000
    144      11.4179      0.00000
    145      11.4245      0.00000
    146      11.4560      0.00000

[...]

 spin component 2

[...]

 k-point    12 :       0.4000    0.5000    0.5000
  band No.  band energies     occupation
      1     -23.6459      1.00000
      2     -23.6101      1.00000
      3     -23.6089      1.00000
      4     -23.5866      1.00000
      5     -23.5605      1.00000
      6     -23.5360      1.00000
      7     -10.8572      1.00000
      8     -10.8211      1.00000
      9     -10.6516      1.00000
     10     -10.5944      1.00000
     11     -10.1523      1.00000
     12     -10.1349      1.00000
     13     -10.0606      1.00000
     14     -10.0247      1.00000
     15      -9.9625      1.00000
     16      -9.8753      1.00000
     17      -9.7908      1.00000
     18      -9.7534      1.00000
     19      -9.6111      1.00000
     20      -9.5967      1.00000
     21      -9.5670      1.00000
     22      -9.4273      1.00000
     23      -9.3359      1.00000
     24      -9.3357      1.00000
     25      -7.6018      1.00000
     26      -7.5457      1.00000
     27      -7.4667      1.00000
     28      -7.4234      1.00000
     29      -7.1688      1.00000
     30      -7.1620      1.00000
     31      -7.1558      1.00000
     32      -7.0492      1.00000
     33      -7.0486      1.00000
     34      -7.0226      1.00000
     35      -6.9338      1.00000
     36      -6.8717      1.00000
     37      -6.7968      1.00000
     38      -6.7906      1.00000
     39      -6.6965      1.00000
     40      -6.6627      1.00000
     41      -6.5910      1.00000
     42      -6.5307      1.00000
     43       1.2312      1.00000
     44       1.3500      1.00000
     45       1.8407      1.00000
     46       2.0125      1.00000
     47       2.0967      1.00000
     48       2.1163      1.00000
     49       2.1220      1.00000
     50       2.2734      1.00000
     51       2.3352      1.00000
     52       2.3436      1.00000
     53       2.4410      1.00000
     54       2.5194      1.00000
     55       2.5990      1.00000
     56       2.6697      1.00000
     57       2.7359      1.00000
     58       2.7451      1.00000
     59       2.7831      1.00000
     60       2.8296      1.00000
[...]
    132      11.3035      0.00000
    133      11.3112      0.00000
    134      11.3277      0.00000
    135      11.3350      0.00000
    136      11.3426      0.00000
    137      11.3532      0.00000
    138      11.3586      0.00000
    139      11.3767      0.00000
    140      11.3993      0.00000
    141      11.4064      0.00000
    142      11.4124      0.00000
    143      11.4294      0.00000
    144      11.4413      0.00000
    145      11.4757      0.00000
    146      11.5072      0.00000

 soft charge-density along one line, spin component           1
         0         1         2         3         4         5         6         7         8         9
 total charge-density along one line

 soft charge-density along one line, spin component           2
         0         1         2         3         4         5         6         7         8         9
 total charge-density along one line

------------------------ aborting loop because EDIFF is reached ----------------------------------------

 total charge

# of ion       s       p       d       f       tot
    1        2.000   5.700   0.496   0.192   8.388
    2        1.999   5.699   0.487   0.188   8.373
    3        2.000   5.700   0.496   0.192   8.388
    4        2.001   5.701   0.503   0.195   8.399
    5        2.000   5.701   0.497   0.194   8.392
    6        2.001   5.701   0.503   0.195   8.399
    7        0.346   0.544   4.861   0.000   5.751
    8        0.346   0.544   4.861   0.000   5.751
    9        0.425   0.638   8.323   0.000   9.385
   10        0.411   0.605   8.314   0.000   9.330
   11        0.425   0.638   8.323   0.000   9.385
   12        0.411   0.605   8.314   0.000   9.330
   13        1.563   3.454   0.000   0.000   5.017
   14        1.562   3.467   0.000   0.000   5.028
   15        1.563   3.454   0.000   0.000   5.017
   16        1.561   3.442   0.000   0.000   5.004
   17        1.561   3.444   0.000   0.000   5.005
   18        1.561   3.442   0.000   0.000   5.004
   19        1.562   3.457   0.000   0.000   5.019
   20        1.562   3.455   0.000   0.000   5.018
   21        1.562   3.436   0.000   0.000   4.997
   22        1.562   3.436   0.000   0.000   4.997
   23        1.563   3.455   0.000   0.000   5.018
   24        1.562   3.457   0.000   0.000   5.019
   25        1.565   3.454   0.000   0.000   5.019
   26        1.565   3.454   0.000   0.000   5.019
   27        1.560   3.443   0.000   0.000   5.003
   28        1.561   3.446   0.000   0.000   5.007
   29        1.561   3.446   0.000   0.000   5.007
   30        1.560   3.443   0.000   0.000   5.003
tot         42.483  99.856  45.979   1.155 189.473

 magnetization (x)

[...]

  FORCE on cell =-STRESS in cart. coord.  units (eV):
  Direction    XX          YY          ZZ          XY          YZ          ZX
  Alpha Z   989.15150   989.15150   989.15150
  Ewald   -5227.78586 -5411.21720 -5268.27829    -0.00000    23.88106     0.00000
  Hartree  1320.02806  1154.95131  1273.49549     0.00000    25.20405    -0.00000
  E(xc)   -1066.71164 -1066.94651 -1066.85063    -0.00000    -0.01888    -0.00000
  Local    -937.60889  -591.31132  -848.76442     0.00000   -48.51591     0.00000
  n-local   429.64141   429.20190   429.89660    -0.00099     0.25668    -0.00166
  augment   634.00930   635.22553   633.38846     0.00000    -0.02274     0.00000
  Kinetic  3858.62193  3861.35651  3858.22765     0.00057    -0.86677     0.00128
  Fock        0.00000     0.00000     0.00000     0.00000     0.00000     0.00000
  Total      -0.65417     0.41174     0.26637     0.00000    -0.08250     0.00000
  in kB      -3.01742     1.89917     1.22866     0.00000    -0.38055     0.00000

 VOLUME and BASIS-vectors are now :
  energy-cutoff  :      520.00
  volume of cell :      347.35
      direct lattice vectors                 reciprocal lattice vectors
    -3.871063046  0.000000000  0.000000000    -0.258326973  0.000000000  0.000000000
     0.000000000  3.870549582  7.719881570     0.000000000  0.086086232  0.086374249
     0.000000000  7.750345602 -7.724501905     0.000000000  0.086034740 -0.043135601

  length of vectors
     3.871063046  8.635839595 10.942384869     0.258326973  0.121948145  0.096242696

 FORCES acting on ions
    electron-ion (+dipol)            ewald-force                    non-local-force                 convergence-correction
   0.173E-13 0.896E+02 -.801E+02   -.212E-13 -.890E+02 0.793E+02   0.000E+00 -.615E+00 0.776E+00   -.844E-14 -.114E-01 0.216E-02
   0.817E-14 0.621E-03 -.883E-04   -.745E-14 0.169E-03 0.180E-03   0.000E+00 0.136E-18 0.542E-19   -.152E-13 -.394E-05 -.794E-05
   0.644E-14 -.896E+02 0.801E+02   -.197E-13 0.890E+02 -.793E+02   0.000E+00 0.615E+00 -.776E+00   -.216E-13 0.114E-01 -.215E-02
   0.595E-14 -.155E+03 0.148E+02   -.207E-13 0.154E+03 -.148E+02   0.000E+00 0.120E+01 -.459E-01   -.161E-13 0.761E-02 -.499E-02
   0.646E-14 0.645E-03 -.417E-04   0.257E-14 0.175E-03 0.137E-03   0.000E+00 0.136E-18 0.407E-18   -.115E-13 -.799E-05 -.666E-05
   0.324E-14 0.155E+03 -.148E+02   0.484E-13 -.154E+03 0.148E+02   0.000E+00 -.120E+01 0.459E-01   -.995E-14 -.760E-02 0.499E-02
   -.612E-13 -.598E+01 0.354E+02   -.452E-13 0.585E+01 -.352E+02   0.000E+00 0.144E+00 -.223E+00   -.666E-15 0.364E-02 0.199E-02
   -.582E-13 0.598E+01 -.354E+02   0.168E-13 -.585E+01 0.352E+02   0.000E+00 -.144E+00 0.223E+00   -.960E-14 -.364E-02 -.198E-02
   -.341E-12 -.489E+02 0.394E+01   0.194E-13 0.483E+02 -.431E+01   0.000E+00 0.546E+00 0.365E+00   -.493E-13 0.101E-02 -.566E-02
   -.293E-12 -.552E+02 0.445E+02   0.103E-13 0.544E+02 -.440E+02   0.000E+00 0.753E+00 -.487E+00   -.349E-13 0.574E-02 -.105E-01
   -.303E-12 0.489E+02 -.394E+01   -.168E-13 -.483E+02 0.431E+01   0.000E+00 -.546E+00 -.365E+00   -.433E-13 -.100E-02 0.566E-02
   -.358E-12 0.552E+02 -.445E+02   0.194E-13 -.544E+02 0.440E+02   0.000E+00 -.753E+00 0.487E+00   -.363E-13 -.575E-02 0.105E-01
   -.112E-12 0.152E+02 -.627E+02   0.383E-13 -.147E+02 0.574E+02   0.000E+00 -.447E+00 0.530E+01   -.355E-13 -.564E-02 -.195E-01
   -.116E-12 0.711E-03 0.657E-05   0.193E-13 0.121E-04 0.523E-05   0.000E+00 -.108E-18 0.108E-18   -.236E-13 0.778E-06 0.247E-05
   -.111E-12 -.152E+02 0.627E+02   -.103E-13 0.147E+02 -.574E+02   0.000E+00 0.447E+00 -.530E+01   -.156E-13 0.564E-02 0.195E-01
   -.113E-12 -.246E+02 0.210E+02   -.915E-14 0.235E+02 -.224E+02   0.000E+00 0.109E+01 0.132E+01   -.232E-13 0.343E-02 -.313E-02
   -.123E-12 0.769E-03 0.188E-04   0.536E-14 -.554E-04 0.193E-04   0.000E+00 0.000E+00 0.108E-18   -.299E-13 0.298E-05 0.959E-06
   -.125E-12 0.246E+02 -.210E+02   -.483E-14 -.235E+02 0.224E+02   0.000E+00 -.109E+01 -.132E+01   -.348E-13 -.343E-02 0.313E-02
   -.121E-12 -.738E+02 -.175E+01   0.106E-13 0.698E+02 0.197E+01   0.000E+00 0.403E+01 -.201E+00   -.213E-13 -.180E-01 -.420E-02
   -.121E-12 -.912E+02 0.127E+02   0.181E-13 0.869E+02 -.123E+02   0.000E+00 0.436E+01 -.382E+00   -.212E-13 -.138E-01 -.189E-02
   -.119E-12 -.181E+02 0.805E+01   -.140E-13 0.181E+02 -.723E+01   0.000E+00 0.675E-02 -.845E+00   -.179E-13 0.458E-02 -.163E-02
   -.120E-12 0.181E+02 -.805E+01   0.291E-13 -.181E+02 0.723E+01   0.000E+00 -.675E-02 0.845E+00   -.241E-13 -.458E-02 0.163E-02
   -.124E-12 0.912E+02 -.127E+02   -.175E-13 -.869E+02 0.123E+02   0.000E+00 -.436E+01 0.382E+00   -.269E-13 0.138E-01 0.189E-02
   -.119E-12 0.738E+02 0.175E+01   -.145E-15 -.698E+02 -.197E+01   0.000E+00 -.403E+01 0.201E+00   -.215E-13 0.179E-01 0.420E-02
   0.749E-14 0.234E+01 -.269E+02   -.415E-13 -.205E+01 0.274E+02   0.000E+00 -.314E+00 -.511E+00   -.986E-14 -.407E-02 -.172E-02
   0.374E-14 -.234E+01 0.269E+02   0.588E-13 0.205E+01 -.274E+02   0.000E+00 0.314E+00 0.511E+00   -.203E-13 0.407E-02 0.173E-02
   0.364E-14 -.299E+02 0.264E+02   -.112E-13 0.295E+02 -.266E+02   0.000E+00 0.449E+00 0.177E+00   -.997E-14 0.507E-02 -.645E-02
   0.377E-14 -.273E+02 0.334E+01   -.536E-14 0.271E+02 -.351E+01   0.000E+00 0.152E+00 0.171E+00   -.263E-14 0.265E-02 -.193E-02
   0.589E-14 0.273E+02 -.334E+01   -.172E-13 -.271E+02 0.351E+01   0.000E+00 -.152E+00 -.171E+00   -.558E-14 -.265E-02 0.193E-02
   0.117E-13 0.299E+02 -.264E+02   -.785E-14 -.295E+02 0.266E+02   0.000E+00 -.449E+00 -.177E+00   -.608E-14 -.508E-02 0.645E-02
   -.275E-11 0.538E-02 0.104E-03   0.264E-13 0.107E-13 -.746E-13   0.000E+00 -.172E-14 0.305E-15   -.607E-12 0.406E-05 -.489E-05

 POSITION                                       TOTAL-FORCE (eV/Angst)
      0.00000      3.92978      3.78097         0.000000     -0.041965     -0.048367
      0.00000      3.87363     -0.00154         0.000000     -0.000000      0.000000
      0.00000      3.81749     -3.78405         0.000000      0.041965      0.048367
      0.00000      7.62464      0.00631         0.000000     -0.003401      0.019467
      0.00000      7.74880     -3.86379         0.000000     -0.000000      0.000000
      0.00000      0.12262     -0.00939         0.000000      0.003401     -0.019467
     -1.93553      9.67877      1.92280         0.000000      0.018477      0.005099
     -1.93553      9.68939     -1.93050         0.000000     -0.018477     -0.005099
     -1.93553      5.81913      1.93454         0.000000     -0.021815     -0.013573
     -1.93553      5.81286     -1.94371         0.000000     -0.015590      0.024455
     -1.93553      5.79868      5.78226         0.000000      0.021815      0.013573
     -1.93553      1.93441      1.94063         0.000000      0.015590     -0.024455
     -1.93553      9.66721     -3.81498         0.000000     -0.004306     -0.002081
     -1.93553      9.68408     -0.00385         0.000000     -0.000000      0.000000
     -1.93553      5.83040     -3.91260         0.000000      0.004306      0.002081
     -1.93553      5.83057      0.01766         0.000000     -0.016378     -0.043541
     -1.93553      5.80891      3.85840         0.000000     -0.000000      0.000000
     -1.93553      1.91669     -0.02074         0.000000      0.016378      0.043541
     -1.93553      7.77973     -1.93617         0.000000      0.011427      0.012428
     -1.93553      7.78281      1.91822         0.000000      0.025333     -0.001098
     -1.93553      3.87292     -1.94587         0.000000      0.006124     -0.028227
     -1.93553      3.87435      1.94279         0.000000     -0.006124      0.028227
     -1.93553      3.83501      5.79858         0.000000     -0.025333      0.001098
     -1.93553      7.71788     -5.79141         0.000000     -0.011427     -0.012428
      0.00000      9.67382     -1.93023         0.000000     -0.023296     -0.000892
      0.00000      5.82379     -5.79735         0.000000      0.023296      0.000892
      0.00000      5.82082     -1.93103         0.000000     -0.037578      0.018569
      0.00000      5.81357      1.93333         0.000000     -0.037411      0.003823
      0.00000      5.80424      5.78347         0.000000      0.037411     -0.003823
      0.00000      1.92645      1.92795         0.000000      0.037578     -0.018569
    total drift:                               -0.000000      0.005384      0.000099

  FREE ENERGIE OF THE ION-ELECTRON SYSTEM (eV)
  free  energy   TOTEN  =      -213.71579801 eV

  energy  without entropy=     -213.71579801  energy(sigma->0) =     -213.71579801

 total charge

[...]

 magnetization (x)

# of ion       s       p       d       f       tot
    1        0.000   0.000   0.006   0.003   0.009
    2        0.000  -0.000   0.002   0.002   0.003
    3        0.000   0.000   0.006   0.003   0.009
    4        0.000   0.001   0.008   0.004   0.012
    5        0.001   0.001   0.010   0.004   0.016
    6        0.000   0.001   0.008   0.004   0.012
    7        0.022   0.023   3.322   0.000   3.368
    8        0.022   0.023   3.322   0.000   3.368
    9        0.017   0.012   1.430   0.000   1.458
   10        0.014   0.006   1.517   0.000   1.537
   11        0.017   0.012   1.430   0.000   1.458
   12        0.014   0.006   1.517   0.000   1.537
   13        0.005  -0.042   0.000   0.000  -0.038
   14        0.001  -0.014   0.000   0.000  -0.012
   15        0.005  -0.042   0.000   0.000  -0.038
   16        0.006  -0.067   0.000   0.000  -0.061
   17        0.006  -0.079   0.000   0.000  -0.074
   18        0.006  -0.067   0.000   0.000  -0.061
   19        0.004  -0.030   0.000   0.000  -0.025
   20        0.005  -0.025   0.000   0.000  -0.020
   21        0.006  -0.076   0.000   0.000  -0.069
   22        0.006  -0.076   0.000   0.000  -0.069
   23        0.005  -0.025   0.000   0.000  -0.020
   24        0.004  -0.030   0.000   0.000  -0.025
   25        0.004  -0.061   0.000   0.000  -0.057
   26        0.004  -0.061   0.000   0.000  -0.057
   27        0.006  -0.060   0.000   0.000  -0.054
   28        0.006  -0.056   0.000   0.000  -0.050
   29        0.006  -0.056   0.000   0.000  -0.050
   30        0.006  -0.060   0.000   0.000  -0.054
tot          0.200  -0.843  12.577   0.019  11.953

 BZINTS: Fermi energy:  7.566030;228.000000 electrons
         Band energy:-291.565849;  BLOECHL correction: -0.140871