 vasp.5.4.4.18Apr17-6-g9f103f2a35 (build Oct 03 2018 13:58:34) complex

 executed on             LinuxIFC date 2019.06.04  01:15:29

 INCAR:
 POTCAR:    PAW_PBE La 06Sep2000
 POTCAR:    PAW_PBE Mn 06Sep2000
 POTCAR:    PAW_PBE Ni 02Aug2007
 POTCAR:    PAW_PBE O 08Apr2002

 POTCAR:    PAW_PBE La 06Sep2000
   VRHFIN =La : [core=Kr4d]

   TITEL  = PAW_PBE La 06Sep2000
   POMASS =  138.900; ZVAL   =   11.000    mass and valenz
   ENMAX  =  219.292; ENMIN  =  164.469 eV

 POTCAR:    PAW_PBE Mn 06Sep2000
   VRHFIN =Mn: d6 s1

   TITEL  = PAW_PBE Mn 06Sep2000
   POMASS =   54.938; ZVAL   =    7.000    mass and valenz
   ENMAX  =  269.864; ENMIN  =  202.398 eV

 POTCAR:    PAW_PBE Ni 02Aug2007
   VRHFIN =Ni:

   TITEL  = PAW_PBE Ni 02Aug2007
   POMASS =   58.690; ZVAL   =   10.000    mass and valenz
   ENMAX  =  269.532; ENMIN  =  202.149 eV

 POTCAR:    PAW_PBE O 08Apr2002
   VRHFIN =O: s2p4

   TITEL  = PAW_PBE O 08Apr2002
   POMASS =   16.000; ZVAL   =    6.000    mass and valenz
   ENMAX  =  400.000; ENMIN  =  300.000 eV

 Optimization of the real space projectors (new method)

 maximal supplied QI-value         = 13.42
 optimisation between [QCUT,QGAM] = [ 11.67, 23.35] = [ 38.16,152.62] Ry
 Optimized for a Real-space Cutoff    1.63 Angstroem

   l    n(q)    QCUT    max X(q) W(low)/X(q) W(high)/X(q)  e(spline)
   0     11    11.673    13.882    0.27E-04    0.79E-05    0.11E-06
   0     11    11.673    12.184    0.39E-04    0.13E-04    0.19E-06
   1     11    11.673     4.523    0.73E-05    0.76E-05    0.12E-06
   1     11    11.673     4.424    0.87E-05    0.13E-04    0.19E-06
   2     10    11.673    52.481    0.65E-04    0.36E-04    0.18E-06
   2     10    11.673    38.501    0.61E-04    0.33E-04    0.17E-06
   3     10    11.673    65.631    0.17E-03    0.14E-03    0.37E-06
   3     10    11.673    56.854    0.17E-03    0.14E-03    0.37E-06
 Optimization of the real space projectors (new method)

[...]

   l    n(q)    QCUT    max X(q) W(low)/X(q) W(high)/X(q)  e(spline)
   2      9    11.539    60.317    0.19E-03    0.47E-04    0.16E-06
   2      9    11.539    55.921    0.19E-03    0.48E-04    0.16E-06
   0     10    11.539    51.690    0.80E-04    0.50E-04    0.24E-06
   0     10    11.539    30.015    0.73E-04    0.45E-04    0.22E-06
   1     10    11.539    18.849    0.87E-04    0.16E-03    0.71E-07
   1     10    11.539    14.624    0.73E-04    0.13E-03    0.64E-07
 Optimization of the real space projectors (new method)

 maximal supplied QI-value         = 24.76
 optimisation between [QCUT,QGAM] = [ 11.64, 23.27] = [ 37.91,151.63] Ry
 Optimized for a Real-space Cutoff    1.14 Angstroem

   l    n(q)    QCUT    max X(q) W(low)/X(q) W(high)/X(q)  e(spline)
   0      8    11.635    20.381    0.10E-03    0.33E-03    0.24E-06
   0      8    11.635    15.268    0.11E-03    0.35E-03    0.26E-06
   1      7    11.635     5.964    0.24E-03    0.31E-03    0.30E-06
   1      7    11.635     5.382    0.22E-03    0.25E-03    0.26E-06
  PAW_PBE La 06Sep2000                  :
  PAW_PBE Mn 06Sep2000                  :
  PAW_PBE Ni 02Aug2007                  :
  PAW_PBE O 08Apr2002                   :

 POSCAR: SCEL6_6_1_1_0_5_3/6
  positions in direct lattice
  velocities in cartesian coordinates
 exchange correlation table for  LEXCH =        8
   RHO(1)=    0.500       N(1)  =     2000
   RHO(2)=  100.500       N(2)  =     4000

 ion  position               nearest neighbor table
   1  0.668  0.171  0.337-  23 2.70  17 2.71  29 2.71  14 2.73  26 2.73  24 2.73  24 2.73  30 2.73
                            18 2.73  27 2.76  15 2.76  19 2.77  11 3.31   9 3.33  12 3.34  12 3.34
   2  0.333  0.338  0.667-  28 2.71  17 2.71  29 2.71  16 2.71  22 2.73  24 2.73  23 2.73  23 2.73
                            25 2.76  13 2.76  14 2.76  26 2.76  11 3.33  11 3.33  10 3.33  12 3.33
   3  0.998  0.500  0.996-  23 2.70  16 2.71  28 2.71  13 2.73  25 2.73  22 2.73  22 2.73  15 2.73
                            27 2.73  18 2.76  30 2.76  21 2.77  11 3.31   9 3.33  10 3.34  10 3.34
   4  0.668  0.666  0.337-  20 2.70  17 2.71  29 2.71  14 2.73  26 2.73  21 2.73  21 2.73  30 2.73
                            18 2.73  27 2.76  15 2.76  22 2.77  11 3.31   9 3.33  12 3.34  12 3.34
   5  0.333  0.829  0.667-  28 2.71  16 2.71  17 2.71  29 2.71  19 2.73  21 2.73  20 2.73  20 2.73
                            25 2.76  14 2.76  13 2.76  26 2.76  11 3.33  11 3.33  10 3.33  12 3.33
   6  0.998  0.996  0.996-  20 2.70  16 2.71  28 2.71  13 2.73  25 2.73  19 2.73  19 2.73  15 2.73
                            27 2.73  18 2.76  30 2.76  24 2.77  11 3.31   9 3.33  10 3.34  10 3.34
   7  0.500  0.250  0.000-  30 1.90  18 1.90  19 1.90  22 1.90  25 1.90  13 1.90   6 3.36   3 3.36
                             6 3.36   3 3.36   1 3.36   4 3.36   2 3.37   5 3.37
   8  0.167  0.917  0.333-  15 1.90  27 1.90  24 1.90  21 1.90  26 1.90  14 1.90   1 3.36   4 3.36
                             1 3.36   4 3.36   6 3.36   3 3.36   2 3.37   5 3.37
   9  0.833  0.083  0.667-  13 1.97  25 1.97  26 1.97  14 1.97  20 1.98  23 1.98   6 3.33   4 3.33
                             3 3.33   1 3.33   2 3.37   5 3.37   2 3.37   5 3.37
  10  0.500  0.750  0.001-  27 1.96  15 1.96  22 1.97  19 1.97  28 1.98  16 1.98   5 3.33   2 3.33
                             3 3.34   6 3.34   3 3.34   6 3.34   4 3.38   1 3.38
  11  0.833  0.583  0.667-  20 1.89  23 1.89  16 1.89  28 1.89  29 1.89  17 1.89   3 3.31   1 3.31
                             6 3.31   4 3.31   2 3.33   5 3.33   2 3.33   5 3.33
  12  0.166  0.416  0.333-  18 1.96  30 1.96  21 1.97  24 1.97  29 1.98  17 1.98   5 3.33   2 3.33
                             4 3.34   1 3.34   4 3.34   1 3.34   3 3.38   6 3.38
  13  0.665  0.168  0.836-   7 1.90   9 1.97   3 2.73   6 2.73   2 2.76   5 2.76
  14  0.002  0.998  0.497-   8 1.90   9 1.97   4 2.73   1 2.73   2 2.76   5 2.76
  15  0.330  0.835  0.169-   8 1.90  10 1.96   3 2.73   6 2.73   4 2.76   1 2.76
  16  0.671  0.665  0.829-  11 1.89  10 1.98   6 2.71   3 2.71   5 2.71   2 2.71
  17  0.996  0.502  0.504-  11 1.89  12 1.98   1 2.71   4 2.71   5 2.71   2 2.71
  18  0.337  0.332  0.164-   7 1.90  12 1.96   1 2.73   4 2.73   6 2.76   3 2.76
  19  0.500  0.004  1.000-   7 1.90  10 1.97   5 2.73   6 2.73   6 2.73   1 2.77
  20  0.833  0.827  0.667-  11 1.89   9 1.98   6 2.70   4 2.70   5 2.73   5 2.73
  21  0.167  0.671  0.334-   8 1.90  12 1.97   5 2.73   4 2.73   4 2.73   3 2.77
  22  0.500  0.496  1.000-   7 1.90  10 1.97   2 2.73   3 2.73   3 2.73   4 2.77
  23  0.833  0.339  0.667-  11 1.89   9 1.98   3 2.70   1 2.70   2 2.73   2 2.73
  24  0.167  0.163  0.334-   8 1.90  12 1.97   2 2.73   1 2.73   1 2.73   6 2.77
  25  0.172  0.168  0.836-   7 1.90   9 1.97   3 2.73   6 2.73   2 2.76   5 2.76
  26  0.495  0.998  0.497-   8 1.90   9 1.97   4 2.73   1 2.73   2 2.76   5 2.76
  27  0.840  0.835  0.169-   8 1.90  10 1.96   3 2.73   6 2.73   4 2.76   1 2.76
  28  0.159  0.665  0.829-  11 1.89  10 1.98   6 2.71   3 2.71   5 2.71   2 2.71
  29  0.508  0.502  0.504-  11 1.89  12 1.98   1 2.71   4 2.71   5 2.71   2 2.71
  30  0.827  0.332  0.164-   7 1.90  12 1.96   1 2.73   4 2.73   6 2.76   3 2.76

  LATTYP: Found a body centered orthorhombic cell.
 ALAT       =     5.4670584996
 B/A-ratio  =     1.4144313289
 C/A-ratio  =     3.0002893559

  Lattice vectors:

 A1 = (   7.7321475764,  -3.8663894142,   3.8663534286)
 A2 = (   3.8663534383,   3.8663894046,   7.7321475669)
 A3 = (  -7.7321475765,  -3.8663894046,  -3.8663534286)

Analysis of symmetry for initial positions (statically):
 Subroutine PRICEL returns:
 Original cell was already a primitive cell.

 Routine SETGRP: Setting up the symmetry group for a
 body centered orthorhombic supercell.

 Subroutine GETGRP returns: Found  8 space group operations
 (whereof  2 operations were pure point group operations)
 out of a pool of  8 trial point group operations.

The static configuration has the point symmetry C_1h.
 The point group associated with its full space group is D_2h.

Analysis of symmetry for dynamics (positions and initial velocities):
 Subroutine PRICEL returns:
 Original cell was already a primitive cell.

[...]

The dynamic configuration has the point symmetry C_1h.
 The point group associated with its full space group is D_2h.

Analysis of structural, dynamic, and magnetic symmetry:
 Subroutine PRICEL returns:
 Original cell was already a primitive cell.

 Routine SETGRP: Setting up the symmetry group for a
 body centered orthorhombic supercell.

 Subroutine GETGRP returns: Found  8 space group operations
 (whereof  2 operations were pure point group operations)
 out of a pool of  8 trial point group operations.

The magnetic configuration has the point symmetry C_1h.
 The point group associated with its full space group is D_2h.

 Subroutine INISYM returns: Found  8 space group operations
 (whereof  2 operations are pure point group operations),
 and found     1 'primitive' translations

 KPOINTS: Automatic mesh

Automatic generation of k-mesh.
 generate k-points for:    4    3    2
Space group operators:
 irot       det(A)        alpha          n_x          n_y          n_z        tau_x        tau_y        tau_z
    1     1.000000     0.000000     1.000000     0.000000     0.000000     0.000000     0.000000     0.000000
    2    -1.000000   180.000000     0.707107     0.000000    -0.707107     0.000000     0.000000     0.000000
    3    -1.000000     0.000000     1.000000     0.000000     0.000000    -0.333333     0.166667     0.333333
    4     1.000000   180.000000     0.707107    -0.000000     0.707107     0.000000    -0.500000     0.000000
    5    -1.000000   180.000000     0.707107    -0.000000     0.707107     0.666667     0.666667     1.333333
    6     1.000000   180.000000    -0.000000    -1.000000    -0.000000     0.666667     0.666667     1.333333
    7    -1.000000   180.000000    -0.000000    -1.000000    -0.000000    -0.000000    -0.500000    -0.000000
    8     1.000000   180.000000     0.707107     0.000000    -0.707107    -0.333333     0.166667     0.333333

 Subroutine IBZKPT returns following result:

 Found     12 irreducible k-points:

 Following reciprocal coordinates:
            Coordinates               Weight
  0.000000  0.000000  0.000000      1.000000
  0.250000  0.000000 -0.000000      2.000000
  0.500000  0.000000 -0.000000      2.000000
  0.000000  0.333333  0.000000      2.000000
  0.250000  0.333333  0.000000      2.000000
  0.500000  0.333333  0.000000      4.000000
 -0.250000  0.333333  0.000000      2.000000
  0.000000  0.000000  0.500000      1.000000
  0.250000  0.000000  0.500000      2.000000
  0.000000  0.333333  0.500000      2.000000
  0.250000  0.333333  0.500000      2.000000
 -0.250000  0.333333  0.500000      2.000000

 Following cartesian coordinates:
            Coordinates               Weight
  0.000000  0.000000  0.000000      1.000000
  0.043112 -0.000000 -0.021558      2.000000
  0.086224 -0.000000 -0.043115      2.000000
  0.014370  0.043107  0.014370      2.000000
  0.057482  0.043107 -0.007188      2.000000
  0.100594  0.043107 -0.028746      4.000000
 -0.028742  0.043107  0.035927      2.000000
[...]
     30      -7.2075      1.00000
     31      -7.2071      1.00000
     32      -7.2071      1.00000
     33      -7.0436      1.00000
     34      -7.0158      1.00000
     35      -6.8272      1.00000
     36      -6.8172      1.00000
     37      -6.8007      1.00000
     38      -6.7904      1.00000
     39      -6.7064      1.00000
     40      -6.6591      1.00000
     41      -6.6056      1.00000
     42      -6.5721      1.00000
     43       0.3926      1.00000
     44       0.3985      1.00000
     45       0.4281      1.00000
     46       0.4386      1.00000
     47       0.6806      1.00000
     48       0.7793      1.00000
     49       0.8568      1.00000
     50       1.1757      1.00000
     51       1.3951      1.00000
     52       1.4356      1.00000
     53       1.5551      1.00000
     54       1.5761      1.00000
     55       1.7011      1.00000
     56       1.7089      1.00000
     57       1.8070      1.00000
     58       1.8143      1.00000
     59       1.8847      1.00000
     60       1.9750      1.00000
[...]
    132      11.1287      0.00000
    133      11.1801      0.00000
    134      11.2115      0.00000
    135      11.2339      0.00000
    136      11.2509      0.00000
    137      11.2709      0.00000
    138      11.2850      0.00000
    139      11.3111      0.00000
    140      11.3221      0.00000
    141      11.3375      0.00000
    142      11.3573      0.00000
    143      11.3727      0.00000
    144      11.4035      0.00000
    145      11.4233      0.00000
    146      11.4584      0.00000

[...]

 spin component 2

[...]

 k-point    12 :      -0.2500    0.3333    0.5000
  band No.  band energies     occupation
      1     -23.6400      1.00000
      2     -23.6328      1.00000
      3     -23.6245      1.00000
      4     -23.5727      1.00000
      5     -23.5712      1.00000
      6     -23.5542      1.00000
      7     -10.9419      1.00000
      8     -10.8651      1.00000
      9     -10.8547      1.00000
     10     -10.4500      1.00000
     11     -10.4129      1.00000
     12     -10.3540      1.00000
     13      -9.9664      1.00000
     14      -9.9189      1.00000
     15      -9.9111      1.00000
     16      -9.6889      1.00000
     17      -9.6794      1.00000
     18      -9.6552      1.00000
     19      -9.4828      1.00000
     20      -9.4635      1.00000
     21      -9.4582      1.00000
     22      -9.2903      1.00000
     23      -9.2671      1.00000
     24      -9.2573      1.00000
     25      -7.3983      1.00000
     26      -7.3303      1.00000
     27      -7.2419      1.00000
     28      -7.1537      1.00000
     29      -7.1197      1.00000
     30      -7.0994      1.00000
     31      -6.9960      1.00000
     32      -6.9749      1.00000
     33      -6.9639      1.00000
     34      -6.9531      1.00000
     35      -6.9434      1.00000
     36      -6.9255      1.00000
     37      -6.8711      1.00000
     38      -6.7963      1.00000
     39      -6.7287      1.00000
     40      -6.6506      1.00000
     41      -6.5996      1.00000
     42      -6.5594      1.00000
     43       1.6315      1.00000
     44       1.7727      1.00000
     45       1.7863      1.00000
     46       1.9258      1.00000
     47       1.9824      1.00000
     48       2.0040      1.00000
     49       2.3924      1.00000
     50       2.5175      1.00000
     51       2.5671      1.00000
     52       2.7210      1.00000
     53       2.7602      1.00000
     54       2.7759      1.00000
     55       2.9408      1.00000
     56       2.9579      1.00000
     57       2.9801      1.00000
     58       2.9844      1.00000
     59       3.0256      1.00000
     60       3.0819      1.00000
[...]
    132      11.3057      0.00000
    133      11.3156      0.00000
    134      11.3214      0.00000
    135      11.3315      0.00000
    136      11.3375      0.00000
    137      11.3577      0.00000
    138      11.3638      0.00000
    139      11.3795      0.00000
    140      11.3836      0.00000
    141      11.3983      0.00000
    142      11.4058      0.00000
    143      11.4193      0.00000
    144      11.4470      0.00000
    145      11.4770      0.00000
    146      11.4901      0.00000

 soft charge-density along one line, spin component           1
         0         1         2         3         4         5         6         7         8         9
 total charge-density along one line

 soft charge-density along one line, spin component           2
         0         1         2         3         4         5         6         7         8         9
 total charge-density along one line

------------------------ aborting loop because EDIFF is reached ----------------------------------------

 total charge

# of ion       s       p       d       f       tot
    1        2.000   5.701   0.494   0.192   8.386
    2        2.000   5.701   0.494   0.191   8.385
    3        2.000   5.701   0.494   0.192   8.386
    4        2.000   5.701   0.494   0.192   8.386
    5        2.000   5.701   0.494   0.191   8.385
    6        2.000   5.701   0.494   0.192   8.387
    7        0.362   0.586   4.854   0.000   5.802
    8        0.362   0.586   4.854   0.000   5.802
    9        0.387   0.560   8.315   0.000   9.262
   10        0.387   0.558   8.318   0.000   9.263
   11        0.466   0.750   8.336   0.000   9.552
   12        0.387   0.558   8.318   0.000   9.263
   13        1.561   3.460   0.000   0.000   5.021
   14        1.561   3.460   0.000   0.000   5.021
   15        1.561   3.460   0.000   0.000   5.021
   16        1.562   3.436   0.000   0.000   4.997
   17        1.562   3.436   0.000   0.000   4.997
   18        1.561   3.460   0.000   0.000   5.021
   19        1.561   3.462   0.000   0.000   5.022
   20        1.562   3.436   0.000   0.000   4.997
   21        1.561   3.462   0.000   0.000   5.023
   22        1.561   3.462   0.000   0.000   5.023
   23        1.562   3.436   0.000   0.000   4.997
   24        1.561   3.462   0.000   0.000   5.022
   25        1.560   3.463   0.000   0.000   5.023
   26        1.560   3.463   0.000   0.000   5.023
   27        1.561   3.464   0.000   0.000   5.025
   28        1.562   3.438   0.000   0.000   4.999
   29        1.562   3.438   0.000   0.000   4.999
   30        1.561   3.464   0.000   0.000   5.025
tot         42.445  99.962  45.959   1.150 189.517

 magnetization (x)

[...]

  FORCE on cell =-STRESS in cart. coord.  units (eV):
  Direction    XX          YY          ZZ          XY          YZ          ZX
  Alpha Z   990.95440   990.95440   990.95440
  Ewald   -5318.91444 -5327.86848 -5318.91439     0.00003     0.00003   -10.25446
  Hartree  1234.51163  1226.67359  1234.51171    -0.00002    -0.00001   -10.17470
  E(xc)   -1066.79305 -1066.77596 -1066.79302    -0.00000    -0.00000     0.00090
  Local    -763.46246  -746.25916  -763.46192    -0.00024    -0.00055    20.55162
  n-local   428.16032   428.28100   428.28408     0.02445    -0.03952     0.01343
  augment   634.86406   634.74036   634.86388    -0.00010     0.00063    -0.01439
  Kinetic  3860.05288  3859.46351  3859.66664     0.07412    -0.04795    -0.18493
  Fock        0.00000     0.00000     0.00000     0.00000     0.00000     0.00000
  Total      -0.75764    -0.79074    -0.75764     0.00000     0.00000    -0.06043
  in kB      -3.50102    -3.65401    -3.50102     0.00000     0.00000    -0.27926

 VOLUME and BASIS-vectors are now :
  energy-cutoff  :      520.00
  volume of cell :      346.72
      direct lattice vectors                 reciprocal lattice vectors
     3.865794138  0.000000000 -3.865794138     0.172448550 -0.000000000 -0.086230512
     0.000000000  7.732778819  0.000000000     0.043109019  0.129319618  0.043109019
     3.866353438 -3.866389414  7.732147567     0.086218038 -0.000000000  0.086218038

  length of vectors
     5.467058500  7.732778819  9.470151108     0.192806129  0.142969712  0.121930719

 FORCES acting on ions
    electron-ion (+dipol)            ewald-force                    non-local-force                 convergence-correction
   0.325E+02 0.295E+02 0.325E+02   -.323E+02 -.293E+02 -.323E+02   -.200E+00 -.165E+00 -.200E+00   0.817E-03 0.950E-04 0.815E-03
   -.220E-03 0.576E+02 -.100E-02   -.157E-03 -.573E+02 -.176E-03   -.266E-11 -.326E+00 -.266E-11   0.377E-05 0.694E-03 0.429E-05
   -.325E+02 0.295E+02 -.325E+02   0.323E+02 -.293E+02 0.323E+02   0.200E+00 -.165E+00 0.200E+00   -.819E-03 0.956E-04 -.817E-03
   0.325E+02 -.295E+02 0.325E+02   -.323E+02 0.293E+02 -.323E+02   -.200E+00 0.165E+00 -.200E+00   0.817E-03 -.948E-04 0.814E-03
   -.224E-03 -.576E+02 -.101E-02   -.149E-03 0.573E+02 -.168E-03   0.266E-11 0.326E+00 0.266E-11   0.405E-05 -.693E-03 0.516E-05
   -.325E+02 -.295E+02 -.325E+02   0.323E+02 0.293E+02 0.323E+02   0.200E+00 0.165E+00 0.200E+00   -.819E-03 -.962E-04 -.818E-03
   -.241E+01 -.728E-04 -.241E+01   0.240E+01 -.268E-05 0.240E+01   -.396E-01 0.329E-10 -.396E-01   -.853E-03 0.876E-07 -.853E-03
   0.241E+01 -.581E-04 0.241E+01   -.240E+01 0.121E-03 -.240E+01   0.396E-01 -.329E-10 0.396E-01   0.851E-03 0.157E-06 0.851E-03
   0.114E-03 -.189E-03 0.138E-03   -.887E-04 -.128E-03 -.291E-03   0.169E-20 0.593E-20 -.356E-19   0.329E-05 0.702E-06 0.297E-05
   -.254E+02 -.126E-03 -.254E+02   0.260E+02 0.667E-05 0.260E+02   -.560E+00 0.465E-09 -.560E+00   -.267E-02 -.981E-07 -.267E-02
   0.103E-03 -.148E-03 0.125E-03   -.882E-04 -.183E-03 -.319E-03   0.457E-19 -.678E-20 -.271E-19   0.412E-05 -.429E-06 0.379E-05
   0.254E+02 -.262E-04 0.254E+02   -.260E+02 0.139E-03 -.260E+02   0.560E+00 -.465E-09 0.560E+00   0.267E-02 -.444E-06 0.267E-02
   -.420E+00 0.714E-04 -.403E+02   0.149E+00 -.336E-04 0.358E+02   0.281E+00 -.203E-08 0.460E+01   0.478E-04 0.355E-06 -.493E-02
   0.420E+00 0.601E-03 0.403E+02   -.149E+00 0.136E-04 -.358E+02   -.281E+00 0.203E-08 -.460E+01   -.464E-04 0.388E-06 0.493E-02
   -.890E+01 0.109E-02 -.355E+02   0.927E+01 0.363E-04 0.308E+02   -.391E+00 -.179E-08 0.472E+01   -.559E-03 -.538E-08 -.404E-02
   -.917E+01 0.616E-04 -.499E+02   0.923E+01 -.874E-05 0.531E+02   -.727E-01 0.141E-08 -.332E+01   -.631E-03 -.475E-07 0.103E-01
   0.917E+01 0.575E-03 0.499E+02   -.923E+01 0.331E-07 -.531E+02   0.727E-01 -.141E-08 0.332E+01   0.634E-03 -.311E-06 -.103E-01
   0.890E+01 0.113E-02 0.355E+02   -.927E+01 0.188E-04 -.308E+02   0.391E+00 0.179E-08 -.472E+01   0.555E-03 -.102E-06 0.404E-02
   -.100E+02 -.401E+02 -.100E+02   0.103E+02 0.356E+02 0.103E+02   -.303E+00 0.456E+01 -.303E+00   -.726E-03 -.428E-02 -.726E-03
   -.309E-03 -.534E+02 -.996E-03   -.874E-04 0.567E+02 -.104E-03   -.273E-10 -.334E+01 -.273E-10   0.232E-05 0.109E-01 0.209E-05
   0.100E+02 -.401E+02 0.100E+02   -.103E+02 0.356E+02 -.103E+02   0.303E+00 0.456E+01 0.303E+00   0.724E-03 -.428E-02 0.724E-03
   -.100E+02 0.401E+02 -.100E+02   0.103E+02 -.356E+02 0.103E+02   -.303E+00 -.456E+01 -.303E+00   -.726E-03 0.428E-02 -.726E-03
   -.311E-03 0.534E+02 -.997E-03   -.858E-04 -.567E+02 -.102E-03   0.273E-10 0.334E+01 0.273E-10   0.228E-05 -.109E-01 0.201E-05
   0.100E+02 0.401E+02 0.100E+02   -.103E+02 -.356E+02 -.103E+02   0.303E+00 -.456E+01 0.303E+00   0.724E-03 0.428E-02 0.724E-03
   -.403E+02 0.122E-03 -.420E+00   0.358E+02 -.336E-04 0.149E+00   0.460E+01 -.203E-08 0.281E+00   -.493E-02 0.332E-06 0.477E-04
   0.403E+02 0.647E-03 0.419E+00   -.358E+02 0.136E-04 -.149E+00   -.460E+01 0.203E-08 -.281E+00   0.493E-02 0.297E-06 -.464E-04
   -.355E+02 0.114E-02 -.891E+01   0.308E+02 0.363E-04 0.927E+01   0.472E+01 -.179E-08 -.391E+00   -.404E-02 -.406E-07 -.559E-03
   -.499E+02 0.114E-03 -.917E+01   0.531E+02 -.874E-05 0.923E+01   -.332E+01 0.141E-08 -.727E-01   0.103E-01 -.157E-06 -.631E-03
   0.499E+02 0.629E-03 0.917E+01   -.531E+02 0.331E-07 -.923E+01   0.332E+01 -.141E-08 0.727E-01   -.103E-01 -.313E-06 0.634E-03
   0.355E+02 0.119E-02 0.890E+01   -.308E+02 0.188E-04 -.927E+01   -.472E+01 0.179E-08 0.391E+00   0.404E-02 -.182E-06 0.556E-03
   -.624E-02 0.137E-01 -.141E-01   -.426E-13 0.111E-12 -.959E-13   0.178E-14 -.888E-15 0.389E-15   0.456E-05 0.746E-06 0.398E-05

 POSITION                                       TOTAL-FORCE (eV/Angst)
      3.88670      0.01692      0.02090         0.031179      0.003435      0.031179
      3.86617      0.03340      3.86617         0.000000      0.002377      0.000000
      7.71143      0.01692      3.84564        -0.031179      0.003435     -0.031179
      3.88670      3.84947      0.02090         0.031179     -0.003435      0.031179
      3.86617      3.83299      3.86617        -0.000000     -0.002377     -0.000000
      7.71143      3.84947      3.84564        -0.031179     -0.003435     -0.031179
      1.93399      1.93319     -1.93181        -0.046222      0.000000     -0.046222
      1.93199      5.79958      1.93199         0.046222     -0.000000      0.046222
      5.79906     -1.93320      1.93327         0.000000      0.000000      0.000000
      1.93685      5.79958     -1.92894         0.016172     -0.000000      0.016172
      5.79906      1.93319      1.93327         0.000000     -0.000000      0.000000
      1.92913      1.93320      1.92913        -0.016172      0.000000     -0.016172
      5.80352     -1.93319      3.89831         0.010115     -0.000000      0.012447
      1.92881      5.79958      3.83402        -0.010115      0.000000     -0.012447
      1.92882      5.79958      0.03496        -0.027609      0.000000     -0.025860
      5.79917      1.93320      3.82093        -0.015362      0.000000     -0.040554
      5.79896      1.93319      0.04561         0.015362     -0.000000      0.040554
      1.93716      1.93319     -0.03477         0.027609     -0.000000      0.025860
      5.79770     -3.83455      5.79770        -0.029760     -0.016489     -0.029760
      5.79906      3.82052      1.93327        -0.000000     -0.039880     -0.000000
      1.93463      3.89823      1.93463         0.029760     -0.016489      0.029760
      5.79770     -0.03184      5.79770        -0.029760      0.016489     -0.029760
      5.79906      0.04587      1.93327         0.000000      0.039880      0.000000
      1.93463     -0.03184      1.93463         0.029760      0.016489      0.029760
      3.89831     -1.93319      5.80352         0.012447     -0.000000      0.010115
      3.83402      5.79958      1.92881        -0.012447      0.000000     -0.010115
      3.90075      5.79958     -1.93698        -0.025860      0.000000     -0.027609
      3.82093      1.93320      5.79917        -0.040554      0.000000     -0.015362
      3.91141      1.93319      1.93316         0.040554     -0.000000      0.015362
      3.83102      1.93319     -1.92863         0.025860     -0.000000      0.027609
    total drift:                               -0.006238      0.013660     -0.014070

  FREE ENERGIE OF THE ION-ELECTRON SYSTEM (eV)
  free  energy   TOTEN  =      -214.17701426 eV

  energy  without entropy=     -214.17701426  energy(sigma->0) =     -214.17701426

 total charge

[...]

 magnetization (x)

# of ion       s       p       d       f       tot
    1        0.001   0.001   0.007   0.002   0.011
    2        0.000   0.001   0.005   0.002   0.008
    3        0.001   0.001   0.007   0.002   0.011
    4        0.001   0.001   0.007   0.002   0.011
    5        0.000   0.001   0.005   0.002   0.008
    6        0.001   0.001   0.007   0.002   0.011
    7        0.025   0.038   3.155   0.000   3.217
    8        0.025   0.038   3.155   0.000   3.217
    9        0.005  -0.003   1.643   0.000   1.645
   10        0.005  -0.003   1.650   0.000   1.651
   11        0.015   0.020   0.888   0.000   0.924
   12        0.005  -0.003   1.650   0.000   1.651
   13        0.004  -0.014   0.000   0.000  -0.010
   14        0.004  -0.014   0.000   0.000  -0.010
   15        0.004  -0.012   0.000   0.000  -0.007
   16        0.005  -0.062   0.000   0.000  -0.057
   17        0.005  -0.062   0.000   0.000  -0.057
   18        0.004  -0.012   0.000   0.000  -0.007
   19        0.004  -0.016   0.000   0.000  -0.012
   20        0.006  -0.059   0.000   0.000  -0.054
   21        0.004  -0.016   0.000   0.000  -0.012
   22        0.004  -0.016   0.000   0.000  -0.012
   23        0.006  -0.059   0.000   0.000  -0.054
   24        0.004  -0.016   0.000   0.000  -0.012
   25        0.004  -0.012   0.000   0.000  -0.008
   26        0.004  -0.012   0.000   0.000  -0.008
   27        0.004  -0.008   0.000   0.000  -0.004
   28        0.005  -0.062   0.000   0.000  -0.056
   29        0.005  -0.062   0.000   0.000  -0.056
   30        0.004  -0.008   0.000   0.000  -0.004
tot          0.162  -0.430  12.178   0.013  11.924

 BZINTS: Fermi energy:  7.335235;228.000000 electrons
         Band energy:-288.857796;  BLOECHL correction:  0.000000