 vasp.5.4.4.18Apr17-6-g9f103f2a35 (build Oct 03 2018 13:58:34) complex

 executed on             LinuxIFC date 2019.06.04  01:43:36

 INCAR:
 POTCAR:    PAW_PBE La 06Sep2000
 POTCAR:    PAW_PBE Mn 06Sep2000
 POTCAR:    PAW_PBE Ni 02Aug2007
 POTCAR:    PAW_PBE O 08Apr2002

 POTCAR:    PAW_PBE La 06Sep2000
   VRHFIN =La : [core=Kr4d]

   TITEL  = PAW_PBE La 06Sep2000
   POMASS =  138.900; ZVAL   =   11.000    mass and valenz
   ENMAX  =  219.292; ENMIN  =  164.469 eV

 POTCAR:    PAW_PBE Mn 06Sep2000
   VRHFIN =Mn: d6 s1

   TITEL  = PAW_PBE Mn 06Sep2000
   POMASS =   54.938; ZVAL   =    7.000    mass and valenz
   ENMAX  =  269.864; ENMIN  =  202.398 eV

 POTCAR:    PAW_PBE Ni 02Aug2007
   VRHFIN =Ni:

   TITEL  = PAW_PBE Ni 02Aug2007
   POMASS =   58.690; ZVAL   =   10.000    mass and valenz
   ENMAX  =  269.532; ENMIN  =  202.149 eV

 POTCAR:    PAW_PBE O 08Apr2002
   VRHFIN =O: s2p4

   TITEL  = PAW_PBE O 08Apr2002
   POMASS =   16.000; ZVAL   =    6.000    mass and valenz
   ENMAX  =  400.000; ENMIN  =  300.000 eV

 Optimization of the real space projectors (new method)

 maximal supplied QI-value         = 13.42
 optimisation between [QCUT,QGAM] = [ 11.67, 23.35] = [ 38.16,152.62] Ry
 Optimized for a Real-space Cutoff    1.63 Angstroem

   l    n(q)    QCUT    max X(q) W(low)/X(q) W(high)/X(q)  e(spline)
   0     11    11.673    13.882    0.27E-04    0.79E-05    0.11E-06
   0     11    11.673    12.184    0.39E-04    0.13E-04    0.19E-06
   1     11    11.673     4.523    0.73E-05    0.76E-05    0.12E-06
   1     11    11.673     4.424    0.87E-05    0.13E-04    0.19E-06
   2     10    11.673    52.481    0.65E-04    0.36E-04    0.18E-06
   2     10    11.673    38.501    0.61E-04    0.33E-04    0.17E-06
   3     10    11.673    65.631    0.17E-03    0.14E-03    0.37E-06
   3     10    11.673    56.854    0.17E-03    0.14E-03    0.37E-06
 Optimization of the real space projectors (new method)

[...]

   l    n(q)    QCUT    max X(q) W(low)/X(q) W(high)/X(q)  e(spline)
   2      9    11.539    60.317    0.19E-03    0.47E-04    0.16E-06
   2      9    11.539    55.921    0.19E-03    0.48E-04    0.16E-06
   0     10    11.539    51.690    0.80E-04    0.50E-04    0.24E-06
   0     10    11.539    30.015    0.73E-04    0.45E-04    0.22E-06
   1     10    11.539    18.849    0.87E-04    0.16E-03    0.71E-07
   1     10    11.539    14.624    0.73E-04    0.13E-03    0.64E-07
 Optimization of the real space projectors (new method)

 maximal supplied QI-value         = 24.76
 optimisation between [QCUT,QGAM] = [ 11.64, 23.27] = [ 37.91,151.63] Ry
 Optimized for a Real-space Cutoff    1.14 Angstroem

   l    n(q)    QCUT    max X(q) W(low)/X(q) W(high)/X(q)  e(spline)
   0      8    11.635    20.381    0.10E-03    0.33E-03    0.24E-06
   0      8    11.635    15.268    0.11E-03    0.35E-03    0.26E-06
   1      7    11.635     5.964    0.24E-03    0.31E-03    0.30E-06
   1      7    11.635     5.382    0.22E-03    0.25E-03    0.26E-06
  PAW_PBE La 06Sep2000                  :
  PAW_PBE Mn 06Sep2000                  :
  PAW_PBE Ni 02Aug2007                  :
  PAW_PBE O 08Apr2002                   :

 POSCAR: SCEL6_6_1_1_0_5_3/7
  positions in direct lattice
  velocities in cartesian coordinates
 exchange correlation table for  LEXCH =        8
   RHO(1)=    0.500       N(1)  =     2000
   RHO(2)=  100.500       N(2)  =     4000

 ion  position               nearest neighbor table
   1  0.668  0.166  0.336-  23 2.69  14 2.70  26 2.70  24 2.72  24 2.72  17 2.73  29 2.73  27 2.73
                            15 2.73  19 2.75  30 2.75  18 2.75   8 3.31  11 3.33   9 3.33   9 3.33
   2  0.332  0.334  0.664-  24 2.69  17 2.70  29 2.70  23 2.72  23 2.72  14 2.73  26 2.73  28 2.73
                            16 2.73  22 2.75  25 2.75  13 2.75  12 3.31   9 3.33  11 3.33  11 3.33
   3  0.000  0.505  0.000-  15 2.70  27 2.70  16 2.70  28 2.70  22 2.72  22 2.72  21 2.72  23 2.72
                            13 2.75  25 2.75  18 2.75  30 2.75  11 3.32   9 3.32  10 3.32  10 3.32
   4  0.668  0.670  0.336-  20 2.69  14 2.70  26 2.70  21 2.72  21 2.72  17 2.73  29 2.73  27 2.73
                            15 2.73  22 2.75  30 2.75  18 2.75   8 3.31  11 3.33   9 3.33   9 3.33
   5  0.332  0.830  0.664-  21 2.69  17 2.70  29 2.70  20 2.72  20 2.72  14 2.73  26 2.73  28 2.73
                            16 2.73  19 2.75  25 2.75  13 2.75  12 3.31   9 3.33  11 3.33  11 3.33
   6  1.000  0.995  1.000-  16 2.70  28 2.70  15 2.70  27 2.70  19 2.72  19 2.72  20 2.72  24 2.72
                            18 2.75  30 2.75  13 2.75  25 2.75   9 3.32  11 3.32  10 3.32  10 3.32
   7  0.500  0.250  0.000-  19 1.90  22 1.90  25 1.90  30 1.90  13 1.90  18 1.90   3 3.36   6 3.36
                             3 3.36   6 3.36   2 3.37   1 3.37   4 3.37   5 3.37
   8  0.834  0.084  0.667-  26 1.94  14 1.94  20 1.94  23 1.94  13 1.94  25 1.94   4 3.31   1 3.31
                             5 3.35   2 3.35   5 3.35   2 3.35   6 3.35   3 3.35
   9  0.167  0.917  0.333-  26 1.91  14 1.91  15 1.91  27 1.91  24 1.92  21 1.92   6 3.32   3 3.32
                             2 3.33   5 3.33   1 3.33   4 3.33   1 3.33   4 3.33
  10  0.500  0.750  0.000-  27 1.93  28 1.93  15 1.93  16 1.93  19 1.96  22 1.96   3 3.32   6 3.32
                             3 3.32   6 3.32   4 3.35   5 3.35   2 3.35   1 3.35
  11  0.833  0.583  0.667-  29 1.91  17 1.91  16 1.91  28 1.91  23 1.92  20 1.92   3 3.32   6 3.32
                             1 3.33   4 3.33   2 3.33   5 3.33   2 3.33   5 3.33
  12  0.166  0.416  0.333-  29 1.94  17 1.94  21 1.94  24 1.94  18 1.94  30 1.94   5 3.31   2 3.31
                             4 3.35   1 3.35   4 3.35   1 3.35   3 3.35   6 3.35
  13  0.665  0.168  0.835-   7 1.90   8 1.94   3 2.75   6 2.75   2 2.75   5 2.75
  14  0.001  0.999  0.498-   9 1.91   8 1.94   4 2.70   1 2.70   2 2.73   5 2.73
  15  0.332  0.834  0.167-   9 1.91  10 1.93   3 2.70   6 2.70   4 2.73   1 2.73
  16  0.668  0.666  0.833-  11 1.91  10 1.93   6 2.70   3 2.70   5 2.73   2 2.73
  17  0.999  0.501  0.502-  11 1.91  12 1.94   5 2.70   2 2.70   1 2.73   4 2.73
  18  0.335  0.332  0.165-   7 1.90  12 1.94   6 2.75   3 2.75   1 2.75   4 2.75
  19  0.500  0.004  0.000-   7 1.90  10 1.96   6 2.72   6 2.72   1 2.75   5 2.75
  20  0.833  0.832  0.666-  11 1.92   8 1.94   4 2.69   5 2.72   5 2.72   6 2.72
  21  0.167  0.668  0.334-   9 1.92  12 1.94   5 2.69   4 2.72   4 2.72   3 2.72
  22  0.500  0.496  1.000-   7 1.90  10 1.96   3 2.72   3 2.72   2 2.75   4 2.75
  23  0.833  0.335  0.666-  11 1.92   8 1.94   1 2.69   2 2.72   2 2.72   3 2.72
  24  0.167  0.165  0.334-   9 1.92  12 1.94   2 2.69   1 2.72   1 2.72   6 2.72
  25  0.170  0.168  0.835-   7 1.90   8 1.94   3 2.75   6 2.75   2 2.75   5 2.75
  26  0.498  0.999  0.498-   9 1.91   8 1.94   4 2.70   1 2.70   2 2.73   5 2.73
  27  0.835  0.834  0.167-   9 1.91  10 1.93   3 2.70   6 2.70   4 2.73   1 2.73
  28  0.165  0.666  0.833-  11 1.91  10 1.93   6 2.70   3 2.70   5 2.73   2 2.73
  29  0.502  0.501  0.502-  11 1.91  12 1.94   5 2.70   2 2.70   1 2.73   4 2.73
  30  0.830  0.332  0.165-   7 1.90  12 1.94   6 2.75   3 2.75   1 2.75   4 2.75

  LATTYP: Found a body centered orthorhombic cell.
 ALAT       =     5.4441842925
 B/A-ratio  =     1.4189913710
 C/A-ratio  =     2.9993229520

  Lattice vectors:

 A1 = (   7.6979360785,  -3.8626252714,   3.8483164377)
 A2 = (   3.8483164474,   3.8626252618,   7.6979360691)
 A3 = (  -7.6979360786,  -3.8626252618,  -3.8483164378)

Analysis of symmetry for initial positions (statically):
 Subroutine PRICEL returns:
 Original cell was already a primitive cell.

 Routine SETGRP: Setting up the symmetry group for a
 body centered orthorhombic supercell.

 Subroutine GETGRP returns: Found  8 space group operations
 (whereof  4 operations were pure point group operations)
 out of a pool of  8 trial point group operations.

The static configuration has the point symmetry C_2v.
 The point group associated with its full space group is D_2h.

Analysis of symmetry for dynamics (positions and initial velocities):
 Subroutine PRICEL returns:
 Original cell was already a primitive cell.

[...]

The dynamic configuration has the point symmetry C_2v.
 The point group associated with its full space group is D_2h.

Analysis of structural, dynamic, and magnetic symmetry:
 Subroutine PRICEL returns:
 Original cell was already a primitive cell.

 Routine SETGRP: Setting up the symmetry group for a
 body centered orthorhombic supercell.

 Subroutine GETGRP returns: Found  8 space group operations
 (whereof  4 operations were pure point group operations)
 out of a pool of  8 trial point group operations.

The magnetic configuration has the point symmetry C_2v.
 The point group associated with its full space group is D_2h.

 Subroutine INISYM returns: Found  8 space group operations
 (whereof  4 operations are pure point group operations),
 and found     1 'primitive' translations

 KPOINTS: Automatic mesh

Automatic generation of k-mesh.
 generate k-points for:    4    3    2
Space group operators:
 irot       det(A)        alpha          n_x          n_y          n_z        tau_x        tau_y        tau_z
    1     1.000000     0.000000     1.000000     0.000000     0.000000     0.000000     0.000000     0.000000
    2    -1.000000   180.000000     0.707107    -0.000000     0.707107     0.000000     0.000000     0.000000
    3     1.000000   180.000000    -0.000000    -1.000000    -0.000000     0.000000     0.000000     0.000000
    4    -1.000000   180.000000     0.707107     0.000000    -0.707107     0.000000     0.000000     0.000000
    5    -1.000000     0.000000     1.000000     0.000000     0.000000    -0.000000    -0.500000    -0.000000
    6     1.000000   180.000000     0.707107    -0.000000     0.707107    -0.000000    -0.500000    -0.000000
    7    -1.000000   180.000000    -0.000000    -1.000000    -0.000000    -0.000000    -0.500000    -0.000000
    8     1.000000   180.000000     0.707107     0.000000    -0.707107    -0.000000    -0.500000    -0.000000

 Subroutine IBZKPT returns following result:

 Found     12 irreducible k-points:

 Following reciprocal coordinates:
            Coordinates               Weight
  0.000000  0.000000  0.000000      1.000000
  0.250000 -0.000000  0.000000      2.000000
  0.500000 -0.000000  0.000000      2.000000
  0.000000  0.333333  0.000000      2.000000
  0.250000  0.333333  0.000000      2.000000
  0.500000  0.333333  0.000000      4.000000
 -0.250000  0.333333  0.000000      2.000000
  0.000000 -0.000000  0.500000      1.000000
  0.250000 -0.000000  0.500000      2.000000
  0.000000  0.333333  0.500000      2.000000
  0.250000  0.333333  0.500000      2.000000
 -0.250000  0.333333  0.500000      2.000000

 Following cartesian coordinates:
            Coordinates               Weight
  0.000000  0.000000  0.000000      1.000000
  0.043297 -0.000000 -0.021645      2.000000
  0.086594 -0.000000 -0.043289      2.000000
  0.014435  0.043149  0.014435      2.000000
  0.057731  0.043149 -0.007210      2.000000
  0.101028  0.043149 -0.028855      4.000000
 -0.028862  0.043149  0.036079      2.000000
[...]
     30      -6.9926      1.00000
     31      -6.9834      1.00000
     32      -6.9822      1.00000
     33      -6.8169      1.00000
     34      -6.7935      1.00000
     35      -6.6039      1.00000
     36      -6.5781      1.00000
     37      -6.5766      1.00000
     38      -6.5612      1.00000
     39      -6.4770      1.00000
     40      -6.4313      1.00000
     41      -6.3812      1.00000
     42      -6.3354      1.00000
     43       0.3760      1.00000
     44       0.4281      1.00000
     45       0.4428      1.00000
     46       0.4873      1.00000
     47       0.7015      1.00000
     48       0.9132      1.00000
     49       0.9439      1.00000
     50       1.0014      1.00000
     51       1.3302      1.00000
     52       1.5635      1.00000
     53       1.5882      1.00000
     54       1.7413      1.00000
     55       1.7719      1.00000
     56       1.7734      1.00000
     57       1.8592      1.00000
     58       1.8854      1.00000
     59       1.8902      1.00000
     60       1.9772      1.00000
[...]
    134      11.3886      0.00000
    135      11.4297      0.00000
    136      11.4335      0.00000
    137      11.4758      0.00000
    138      11.4891      0.00000
    139      11.5065      0.00000
    140      11.5253      0.00000
    141      11.5548      0.00000
    142      11.5721      0.00000
    143      11.5787      0.00000
    144      11.6083      0.00000
    145      11.6299      0.00000
    146      11.6611      0.00000
    147      11.6913      0.00000
    148      11.7256      0.00000

[...]

 spin component 2

[...]

 k-point    12 :      -0.2500    0.3333    0.5000
  band No.  band energies     occupation
      1     -23.4168      1.00000
      2     -23.4055      1.00000
      3     -23.3999      1.00000
      4     -23.3455      1.00000
      5     -23.3395      1.00000
      6     -23.3273      1.00000
      7     -10.8261      1.00000
      8     -10.8002      1.00000
      9     -10.7828      1.00000
     10     -10.3744      1.00000
     11     -10.3475      1.00000
     12     -10.2750      1.00000
     13      -9.8769      1.00000
     14      -9.8635      1.00000
     15      -9.8395      1.00000
     16      -9.6114      1.00000
     17      -9.5647      1.00000
     18      -9.5630      1.00000
     19      -9.3900      1.00000
     20      -9.3633      1.00000
     21      -9.3613      1.00000
     22      -9.1907      1.00000
     23      -9.1608      1.00000
     24      -9.1115      1.00000
     25      -7.1856      1.00000
     26      -7.1154      1.00000
     27      -7.0268      1.00000
     28      -6.9330      1.00000
     29      -6.8939      1.00000
     30      -6.8724      1.00000
     31      -6.7868      1.00000
     32      -6.7669      1.00000
     33      -6.7562      1.00000
     34      -6.7376      1.00000
     35      -6.7307      1.00000
     36      -6.7046      1.00000
     37      -6.6589      1.00000
     38      -6.5802      1.00000
     39      -6.5189      1.00000
     40      -6.4246      1.00000
     41      -6.3733      1.00000
     42      -6.3414      1.00000
     43       1.6656      1.00000
     44       1.7373      1.00000
     45       1.8424      1.00000
     46       2.0761      1.00000
     47       2.0947      1.00000
     48       2.1299      1.00000
     49       2.3620      1.00000
     50       2.4028      1.00000
     51       2.4883      1.00000
     52       2.4984      1.00000
     53       2.6301      1.00000
     54       2.6814      1.00000
     55       2.8063      1.00000
     56       2.8585      1.00000
     57       2.8689      1.00000
     58       2.9136      1.00000
     59       2.9616      1.00000
     60       3.0018      1.00000
[...]
    134      11.5143      0.00000
    135      11.5291      0.00000
    136      11.5451      0.00000
    137      11.5556      0.00000
    138      11.5584      0.00000
    139      11.5706      0.00000
    140      11.5850      0.00000
    141      11.6041      0.00000
    142      11.6126      0.00000
    143      11.6269      0.00000
    144      11.6471      0.00000
    145      11.6670      0.00000
    146      11.6731      0.00000
    147      11.7074      0.00000
    148      11.7270      0.00000

 soft charge-density along one line, spin component           1
         0         1         2         3         4         5         6         7         8         9
 total charge-density along one line

 soft charge-density along one line, spin component           2
         0         1         2         3         4         5         6         7         8         9
 total charge-density along one line

------------------------ aborting loop because EDIFF is reached ----------------------------------------

 total charge

# of ion       s       p       d       f       tot
    1        2.000   5.702   0.498   0.193   8.393
    2        2.000   5.702   0.498   0.193   8.393
    3        2.000   5.702   0.499   0.194   8.396
    4        2.000   5.702   0.498   0.193   8.393
    5        2.000   5.702   0.498   0.193   8.393
    6        2.001   5.702   0.499   0.194   8.396
    7        0.360   0.575   4.864   0.000   5.799
    8        0.413   0.609   8.318   0.000   9.339
    9        0.443   0.682   8.317   0.000   9.442
   10        0.414   0.611   8.323   0.000   9.347
   11        0.443   0.682   8.317   0.000   9.442
   12        0.413   0.609   8.318   0.000   9.339
   13        1.562   3.455   0.000   0.000   5.018
   14        1.563   3.436   0.000   0.000   4.999
   15        1.562   3.434   0.000   0.000   4.996
   16        1.562   3.434   0.000   0.000   4.996
   17        1.563   3.436   0.000   0.000   4.999
   18        1.562   3.455   0.000   0.000   5.018
   19        1.563   3.459   0.000   0.000   5.021
   20        1.562   3.437   0.000   0.000   4.999
   21        1.562   3.437   0.000   0.000   4.999
   22        1.563   3.459   0.000   0.000   5.021
   23        1.562   3.434   0.000   0.000   4.996
   24        1.562   3.434   0.000   0.000   4.996
   25        1.562   3.461   0.000   0.000   5.023
   26        1.563   3.429   0.000   0.000   4.992
   27        1.562   3.440   0.000   0.000   5.002
   28        1.562   3.440   0.000   0.000   5.002
   29        1.563   3.429   0.000   0.000   4.992
   30        1.562   3.461   0.000   0.000   5.023
tot         42.612  99.947  49.447   1.162 193.168

 magnetization (x)

[...]

  FORCE on cell =-STRESS in cart. coord.  units (eV):
  Direction    XX          YY          ZZ          XY          YZ          ZX
  Alpha Z   995.01309   995.01309   995.01309
  Ewald   -5457.90029 -5497.44654 -5457.90022     0.00005     0.00005    -7.93031
  Hartree  1312.82276  1291.78281  1312.82274    -0.00000    -0.00001    -8.02774
  E(xc)   -1087.40674 -1087.44340 -1087.40670    -0.00000    -0.00000     0.00631
  Local    -853.59433  -798.74888  -853.59364    -0.00034    -0.00057    15.69811
  n-local   442.90679   442.35693   442.77055    -0.06804    -0.02674    -0.13110
  augment   778.56629   780.54456   778.56578     0.00022     0.00052     0.02918
  Kinetic  3869.67880  3873.73138  3869.42496     0.37346    -0.12978     0.47167
  Fock        0.00000     0.00000     0.00000     0.00000     0.00000     0.00000
  Total      -0.10854    -0.21005    -0.10854    -0.00000    -0.00000     0.11988
  in kB      -0.50643    -0.98008    -0.50643    -0.00000    -0.00000     0.55935

 VOLUME and BASIS-vectors are now :
  energy-cutoff  :      520.00
  volume of cell :      343.38
      direct lattice vectors                 reciprocal lattice vectors
     3.849619631  0.000000000 -3.849619631     0.173187055 -0.000000000 -0.086578868
     0.000000000  7.725250533  0.000000000     0.043304094  0.129445640  0.043304094
     3.848316447 -3.862625271  7.697936069     0.086608187 -0.000000000  0.086608187

  length of vectors
     5.444184292  7.725250533  9.433325670     0.193622459  0.143201476  0.122482473

 FORCES acting on ions
    electron-ion (+dipol)            ewald-force                    non-local-force                 convergence-correction
   0.282E+02 -.269E+02 0.282E+02   -.280E+02 0.267E+02 -.280E+02   -.187E+00 0.172E+00 -.187E+00   0.266E-02 -.225E-02 0.266E-02
   -.282E+02 0.269E+02 -.282E+02   0.280E+02 -.267E+02 0.280E+02   0.187E+00 -.172E+00 0.187E+00   -.266E-02 0.225E-02 -.266E-02
   -.137E-05 0.548E+02 -.490E-06   -.304E-05 -.544E+02 -.304E-05   -.354E-11 -.352E+00 -.354E-11   0.217E-06 0.486E-02 0.532E-06
   0.282E+02 0.269E+02 0.282E+02   -.280E+02 -.267E+02 -.280E+02   -.187E+00 -.172E+00 -.187E+00   0.266E-02 0.225E-02 0.266E-02
   -.282E+02 -.269E+02 -.282E+02   0.280E+02 0.267E+02 0.280E+02   0.187E+00 0.172E+00 0.187E+00   -.266E-02 -.225E-02 -.266E-02
   0.137E-05 -.548E+02 0.490E-06   0.304E-05 0.544E+02 0.304E-05   0.354E-11 0.352E+00 0.354E-11   -.217E-06 -.486E-02 -.532E-06
   -.121E-11 0.283E-11 -.166E-11   0.000E+00 -.260E-13 0.320E-13   0.000E+00 0.000E+00 0.000E+00   -.831E-13 0.868E-13 -.457E-13
   -.278E+02 -.528E-04 -.278E+02   0.280E+02 -.146E-03 0.280E+02   -.167E+00 0.138E-09 -.167E+00   -.527E-02 -.739E-07 -.527E-02
   0.468E+01 0.716E-04 0.468E+01   -.470E+01 0.165E-03 -.470E+01   0.283E-01 -.234E-10 0.283E-01   0.200E-02 -.241E-06 0.201E-02
   -.194E-11 0.107E-11 -.303E-11   -.355E-13 -.378E-14 0.870E-13   0.424E-21 0.746E-20 -.529E-21   -.741E-14 -.749E-13 0.315E-13
   -.468E+01 -.716E-04 -.468E+01   0.470E+01 -.165E-03 0.470E+01   -.283E-01 0.234E-10 -.283E-01   -.200E-02 0.241E-06 -.201E-02
   0.278E+02 0.528E-04 0.278E+02   -.280E+02 0.146E-03 -.280E+02   0.167E+00 -.138E-09 0.167E+00   0.527E-02 0.739E-07 0.527E-02
   -.885E+01 -.512E-03 -.526E+02   0.891E+01 -.294E-04 0.486E+02   -.710E-01 -.165E-08 0.406E+01   -.114E-02 0.395E-08 -.150E-02
   -.899E+01 0.253E-04 -.172E+02   0.929E+01 -.145E-05 0.184E+02   -.331E+00 0.669E-09 -.128E+01   -.944E-03 -.976E-07 -.199E-02
   -.161E+00 0.524E-03 0.172E+02   0.458E+00 0.765E-05 -.181E+02   -.316E+00 -.280E-09 0.991E+00   -.217E-03 -.134E-06 0.107E-02
   0.161E+00 -.524E-03 -.172E+02   -.458E+00 -.765E-05 0.181E+02   0.316E+00 0.280E-09 -.991E+00   0.217E-03 0.134E-06 -.107E-02
   0.899E+01 -.253E-04 0.172E+02   -.929E+01 0.145E-05 -.184E+02   0.331E+00 -.669E-09 0.128E+01   0.944E-03 0.976E-07 0.199E-02
   0.885E+01 0.512E-03 0.526E+02   -.891E+01 0.294E-04 -.486E+02   0.710E-01 0.165E-08 -.406E+01   0.114E-02 -.395E-08 0.150E-02
   -.294E-05 -.540E+02 -.370E-05   -.348E-05 0.496E+02 -.348E-05   0.441E-10 0.439E+01 0.441E-10   -.225E-07 -.289E-02 -.245E-07
   -.962E+01 -.194E+02 -.963E+01   0.977E+01 0.205E+02 0.977E+01   -.166E+00 -.112E+01 -.166E+00   -.124E-02 -.244E-02 -.124E-02
   0.962E+01 0.194E+02 0.963E+01   -.977E+01 -.205E+02 -.977E+01   0.166E+00 0.112E+01 0.166E+00   0.124E-02 0.244E-02 0.124E-02
   0.294E-05 0.540E+02 0.370E-05   0.348E-05 -.496E+02 0.348E-05   -.441E-10 -.439E+01 -.441E-10   0.225E-07 0.289E-02 0.245E-07
   -.962E+01 0.194E+02 -.963E+01   0.977E+01 -.205E+02 0.977E+01   -.166E+00 0.112E+01 -.166E+00   -.124E-02 0.244E-02 -.124E-02
   0.962E+01 -.194E+02 0.963E+01   -.977E+01 0.205E+02 -.977E+01   0.166E+00 -.112E+01 0.166E+00   0.124E-02 -.244E-02 0.124E-02
   -.526E+02 -.516E-03 -.885E+01   0.486E+02 -.294E-04 0.891E+01   0.406E+01 -.165E-08 -.710E-01   -.150E-02 0.220E-07 -.114E-02
   -.172E+02 0.126E-04 -.899E+01   0.184E+02 -.145E-05 0.929E+01   -.128E+01 0.669E-09 -.331E+00   -.199E-02 -.118E-06 -.944E-03
   0.172E+02 0.520E-03 -.162E+00   -.181E+02 0.765E-05 0.458E+00   0.991E+00 -.280E-09 -.316E+00   0.107E-02 -.120E-06 -.217E-03
   -.172E+02 -.520E-03 0.162E+00   0.181E+02 -.765E-05 -.458E+00   -.991E+00 0.280E-09 0.316E+00   -.107E-02 0.120E-06 0.217E-03
   0.172E+02 -.126E-04 0.899E+01   -.184E+02 0.145E-05 -.929E+01   0.128E+01 -.669E-09 0.331E+00   0.199E-02 0.118E-06 0.944E-03
   0.526E+02 0.516E-03 0.885E+01   -.486E+02 0.294E-04 -.891E+01   -.406E+01 0.165E-08 0.710E-01   0.150E-02 -.220E-07 0.114E-02
   -.112E-10 -.594E-12 -.152E-10   0.426E-13 0.828E-13 0.462E-13   0.000E+00 -.347E-17 0.722E-15   -.108E-12 -.109E-12 0.208E-12

 POSITION                                       TOTAL-FORCE (eV/Angst)
      3.86707     -0.01710      0.01745         0.044149     -0.017951      0.044149
      3.83086      0.01710      3.83086        -0.044149      0.017951     -0.044149
      0.00000      3.89750      0.00000         0.000000      0.038176      0.000000
      3.86707      3.87973      0.01745         0.044149      0.017951      0.044149
      3.83086      3.84552      3.83086        -0.044149     -0.017951     -0.044149
      7.69794      3.82775      3.84832        -0.000000     -0.038176     -0.000000
      1.92481      1.93131     -1.92481        -0.000000     -0.000000      0.000000
      5.77698     -1.93131      1.92737         0.007063     -0.000000      0.007063
      1.92328      5.79394      1.92328         0.012477     -0.000000      0.012477
      1.92481      5.79394     -1.92481        -0.000000     -0.000000      0.000000
      5.77466      1.93131      1.92504        -0.012477      0.000000     -0.012477
      1.92095      1.93131      1.92095        -0.007063      0.000000     -0.007063
      5.77546     -1.93131      3.87137        -0.012139     -0.000000      0.057553
      1.92147      5.79394      3.83353        -0.031910      0.000000     -0.053498
      1.92009      5.79394      0.00927        -0.019407     -0.000000      0.086944
      5.77785      1.93131      3.83905         0.019407      0.000000     -0.086944
      5.77647      1.93131      0.01478         0.031910     -0.000000      0.053498
      1.92248      1.93131     -0.02305         0.012139      0.000000     -0.057553
      1.92481      0.03000     -1.92481         0.000000      0.003654      0.000000
      5.77163      3.84997      1.92201        -0.026633     -0.074898     -0.026633
      1.92631      3.87528      1.92631         0.026633      0.074898      0.026633
      5.77313     -0.03000      5.77313        -0.000000     -0.003654     -0.000000
      5.77163      0.01265      1.92201        -0.026633      0.074898     -0.026633
      1.92631     -0.01265      1.92631         0.026633     -0.074898      0.026633
      3.87137     -1.93131      5.77546         0.057553     -0.000000     -0.012139
      3.83353      5.79394      1.92147        -0.053498      0.000000     -0.031910
      3.85889      5.79394     -1.92953         0.086944     -0.000000     -0.019407
      3.83905      1.93131      5.77785        -0.086944      0.000000      0.019407
      3.86440      1.93131      1.92685         0.053498     -0.000000      0.031910
      3.82657      1.93131     -1.92714        -0.057553      0.000000      0.012139
    total drift:                               -0.000000     -0.000000     -0.000000

  FREE ENERGIE OF THE ION-ELECTRON SYSTEM (eV)
  free  energy   TOTEN  =      -206.94929944 eV

  energy  without entropy=     -206.94929944  energy(sigma->0) =     -206.94929944

 total charge

[...]

 magnetization (x)

# of ion       s       p       d       f       tot
    1        0.001  -0.000   0.005   0.003   0.008
    2        0.001  -0.000   0.005   0.003   0.008
    3        0.001   0.000   0.006   0.003   0.010
    4        0.001  -0.000   0.005   0.003   0.008
    5        0.001  -0.000   0.005   0.003   0.008
    6        0.001   0.000   0.006   0.003   0.010
    7        0.026   0.033   3.209   0.000   3.268
    8        0.013   0.002   1.492   0.000   1.507
    9        0.018   0.014   1.208   0.000   1.240
   10        0.013   0.002   1.494   0.000   1.509
   11        0.018   0.014   1.208   0.000   1.240
   12        0.013   0.002   1.492   0.000   1.507
   13        0.004  -0.038   0.000   0.000  -0.034
   14        0.005  -0.101   0.000   0.000  -0.096
   15        0.005  -0.092   0.000   0.000  -0.086
   16        0.005  -0.092   0.000   0.000  -0.086
   17        0.005  -0.101   0.000   0.000  -0.096
   18        0.004  -0.038   0.000   0.000  -0.034
   19        0.005  -0.036   0.000   0.000  -0.031
   20        0.006  -0.081   0.000   0.000  -0.076
   21        0.006  -0.081   0.000   0.000  -0.076
   22        0.005  -0.036   0.000   0.000  -0.031
   23        0.006  -0.084   0.000   0.000  -0.078
   24        0.006  -0.084   0.000   0.000  -0.078
   25        0.004  -0.034   0.000   0.000  -0.029
   26        0.006  -0.110   0.000   0.000  -0.104
   27        0.006  -0.087   0.000   0.000  -0.081
   28        0.006  -0.087   0.000   0.000  -0.081
   29        0.006  -0.110   0.000   0.000  -0.104
   30        0.004  -0.034   0.000   0.000  -0.029
tot          0.196  -1.257  10.136   0.016   9.091

 BZINTS: Fermi energy:  7.499280;231.000000 electrons
         Band energy:-250.887381;  BLOECHL correction: -0.031108