 vasp.5.4.4.18Apr17-6-g9f103f2a35 (build Oct 03 2018 13:58:34) complex

 executed on             LinuxIFC date 2019.06.04  01:11:53

 INCAR:
 POTCAR:    PAW_PBE La 06Sep2000
 POTCAR:    PAW_PBE Mn 06Sep2000
 POTCAR:    PAW_PBE Ni 02Aug2007
 POTCAR:    PAW_PBE O 08Apr2002

 POTCAR:    PAW_PBE La 06Sep2000
   VRHFIN =La : [core=Kr4d]

   TITEL  = PAW_PBE La 06Sep2000
   POMASS =  138.900; ZVAL   =   11.000    mass and valenz
   ENMAX  =  219.292; ENMIN  =  164.469 eV

 POTCAR:    PAW_PBE Mn 06Sep2000
   VRHFIN =Mn: d6 s1

   TITEL  = PAW_PBE Mn 06Sep2000
   POMASS =   54.938; ZVAL   =    7.000    mass and valenz
   ENMAX  =  269.864; ENMIN  =  202.398 eV

 POTCAR:    PAW_PBE Ni 02Aug2007
   VRHFIN =Ni:

   TITEL  = PAW_PBE Ni 02Aug2007
   POMASS =   58.690; ZVAL   =   10.000    mass and valenz
   ENMAX  =  269.532; ENMIN  =  202.149 eV

 POTCAR:    PAW_PBE O 08Apr2002
   VRHFIN =O: s2p4

   TITEL  = PAW_PBE O 08Apr2002
   POMASS =   16.000; ZVAL   =    6.000    mass and valenz
   ENMAX  =  400.000; ENMIN  =  300.000 eV

 Optimization of the real space projectors (new method)

 maximal supplied QI-value         = 13.42
 optimisation between [QCUT,QGAM] = [ 11.67, 23.35] = [ 38.16,152.62] Ry
 Optimized for a Real-space Cutoff    1.63 Angstroem

   l    n(q)    QCUT    max X(q) W(low)/X(q) W(high)/X(q)  e(spline)
   0     11    11.673    13.882    0.27E-04    0.79E-05    0.11E-06
   0     11    11.673    12.184    0.39E-04    0.13E-04    0.19E-06
   1     11    11.673     4.523    0.73E-05    0.76E-05    0.12E-06
   1     11    11.673     4.424    0.87E-05    0.13E-04    0.19E-06
   2     10    11.673    52.481    0.65E-04    0.36E-04    0.18E-06
   2     10    11.673    38.501    0.61E-04    0.33E-04    0.17E-06
   3     10    11.673    65.631    0.17E-03    0.14E-03    0.37E-06
   3     10    11.673    56.854    0.17E-03    0.14E-03    0.37E-06
 Optimization of the real space projectors (new method)

[...]

   l    n(q)    QCUT    max X(q) W(low)/X(q) W(high)/X(q)  e(spline)
   2      9    11.539    60.317    0.19E-03    0.47E-04    0.16E-06
   2      9    11.539    55.921    0.19E-03    0.48E-04    0.16E-06
   0     10    11.539    51.690    0.80E-04    0.50E-04    0.24E-06
   0     10    11.539    30.015    0.73E-04    0.45E-04    0.22E-06
   1     10    11.539    18.849    0.87E-04    0.16E-03    0.71E-07
   1     10    11.539    14.624    0.73E-04    0.13E-03    0.64E-07
 Optimization of the real space projectors (new method)

 maximal supplied QI-value         = 24.76
 optimisation between [QCUT,QGAM] = [ 11.64, 23.27] = [ 37.91,151.63] Ry
 Optimized for a Real-space Cutoff    1.14 Angstroem

   l    n(q)    QCUT    max X(q) W(low)/X(q) W(high)/X(q)  e(spline)
   0      8    11.635    20.381    0.10E-03    0.33E-03    0.24E-06
   0      8    11.635    15.268    0.11E-03    0.35E-03    0.26E-06
   1      7    11.635     5.964    0.24E-03    0.31E-03    0.30E-06
   1      7    11.635     5.382    0.22E-03    0.25E-03    0.26E-06
  PAW_PBE La 06Sep2000                  :
  PAW_PBE Mn 06Sep2000                  :
  PAW_PBE Ni 02Aug2007                  :
  PAW_PBE O 08Apr2002                   :

 POSCAR: SCEL6_3_2_1_1_1_0/0
  positions in direct lattice
  velocities in cartesian coordinates
 exchange correlation table for  LEXCH =        8
   RHO(1)=    0.500       N(1)  =     2000
   RHO(2)=  100.500       N(2)  =     4000

 ion  position               nearest neighbor table
   1  0.164  0.172  0.328-  17 2.72  30 2.72  24 2.73  14 2.77  13 2.77  27 2.77  20 2.77  23 2.77
                            29 2.78  16 2.81  26 2.82  19 2.82  12 3.34   9 3.37   7 3.37  11 3.38
   2  0.328  0.336  0.672-  18 2.72  28 2.72  24 2.73  15 2.77  16 2.77  25 2.77  22 2.77  19 2.77
                            29 2.78  13 2.81  26 2.82  23 2.82  12 3.34   9 3.37  10 3.37   8 3.38
   3  0.500  0.500  0.000-  22 2.77  23 2.77  14 2.77  15 2.77  25 2.77  27 2.77  21 2.77  24 2.77
                            17 2.77  18 2.77  28 2.78  30 2.78   8 3.39  11 3.39   9 3.39   9 3.39
   4  0.672  0.664  0.328-  17 2.72  30 2.72  21 2.73  14 2.77  13 2.77  27 2.77  23 2.77  20 2.77
                            29 2.78  16 2.81  26 2.82  22 2.82  12 3.34   9 3.37   7 3.37  11 3.38
   5  0.836  0.828  0.672-  18 2.72  28 2.72  21 2.73  15 2.77  16 2.77  25 2.77  19 2.77  22 2.77
                            29 2.78  13 2.81  26 2.82  20 2.82  12 3.34   9 3.37  10 3.37   8 3.38
   6  0.000  0.000  0.000-  19 2.77  20 2.77  14 2.77  15 2.77  25 2.77  27 2.77  21 2.77  24 2.77
                            17 2.77  18 2.77  28 2.78  30 2.78   8 3.39  11 3.39   9 3.39   9 3.39
   7  0.667  0.167  0.334-  30 1.94  26 1.95  20 1.96  23 1.96  14 1.99  13 1.99   1 3.37   4 3.37
                             3 3.40   6 3.40   4 3.42   1 3.42
   8  0.834  0.334  0.667-  13 1.93  18 1.94  19 1.95  22 1.95  29 1.96  25 1.96   2 3.38   5 3.38
                             3 3.39   6 3.39   5 3.41   2 3.41   1 3.42   4 3.42
   9  0.500  0.000  0.000-  21 1.92  24 1.92  14 1.95  15 1.95  25 1.96  27 1.96   4 3.37   5 3.37
                             1 3.37   2 3.37   3 3.39   6 3.39   3 3.39   6 3.39
  10  0.333  0.833  0.666-  28 1.94  26 1.95  19 1.96  22 1.96  15 1.99  16 1.99   2 3.37   5 3.37
                             3 3.40   6 3.40   5 3.42   2 3.42
  11  0.166  0.666  0.333-  16 1.93  17 1.94  20 1.95  23 1.95  29 1.96  27 1.96   1 3.38   4 3.38
                             3 3.39   6 3.39   4 3.41   1 3.41   5 3.42   2 3.42
  12  0.000  0.500  0.000-  28 1.97  30 1.97  17 1.98  18 1.98  21 2.00  24 2.00   4 3.34   5 3.34
                             1 3.34   2 3.34
  13  0.752  0.252  0.503-   8 1.93   7 1.99   1 2.77   4 2.77   2 2.81   5 2.81
  14  0.583  0.083  0.166-   9 1.95   7 1.99   1 2.77   4 2.77   3 2.77   6 2.77
  15  0.417  0.917  0.834-   9 1.95  10 1.99   2 2.77   5 2.77   3 2.77   6 2.77
  16  0.248  0.748  0.497-  11 1.93  10 1.99   2 2.77   5 2.77   4 2.81   1 2.81
  17  0.083  0.583  0.168-  11 1.94  12 1.98   1 2.72   4 2.72   3 2.77   6 2.77
  18  0.917  0.417  0.832-   8 1.94  12 1.98   2 2.72   5 2.72   3 2.77   6 2.77
  19  0.083  0.084  0.667-   8 1.95  10 1.96   6 2.77   5 2.77   2 2.77   1 2.82
  20  0.917  0.916  0.333-  11 1.95   7 1.96   6 2.77   1 2.77   4 2.77   5 2.82
  21  0.745  0.755  0.000-   9 1.92  12 2.00   4 2.73   5 2.73   3 2.77   6 2.77
  22  0.584  0.583  0.667-   8 1.95  10 1.96   3 2.77   2 2.77   5 2.77   4 2.82
  23  0.416  0.417  0.333-  11 1.95   7 1.96   3 2.77   4 2.77   1 2.77   2 2.82
  24  0.255  0.245  0.000-   9 1.92  12 2.00   1 2.73   2 2.73   3 2.77   6 2.77
  25  0.667  0.167  0.833-   9 1.96   8 1.96   2 2.77   5 2.77   3 2.77   6 2.77
  26  0.500  0.000  0.500-   7 1.95  10 1.95   4 2.82   5 2.82   1 2.82   2 2.82
  27  0.333  0.833  0.167-   9 1.96  11 1.96   1 2.77   4 2.77   3 2.77   6 2.77
  28  0.168  0.668  0.831-  10 1.94  12 1.97   2 2.72   5 2.72   3 2.78   6 2.78
  29  0.000  0.500  0.500-   8 1.96  11 1.96   4 2.78   5 2.78   1 2.78   2 2.78
  30  0.832  0.332  0.169-   7 1.94  12 1.97   1 2.72   4 2.72   3 2.78   6 2.78

  LATTYP: Found a base centered monoclinic cell.
 ALAT       =    11.0900217882
 B/A-ratio  =     0.7065032386
 C/A-ratio  =     2.3737769961
 COS(beta)  =    -0.7749285058

  Lattice vectors:

 A1 = (   3.9149331010,   3.9175681549,   3.9268873972)
 A2 = (   3.9149331010,  -3.9175681549,   3.9268873972)
 A3 = ( -11.7472709553,   0.0000000000, -23.5588584789)

Analysis of symmetry for initial positions (statically):
 Subroutine PRICEL returns:
 Original cell was already a primitive cell.

 Routine SETGRP: Setting up the symmetry group for a
 base centered monoclinic supercell.

 Subroutine GETGRP returns: Found  4 space group operations
 (whereof  2 operations were pure point group operations)
 out of a pool of  4 trial point group operations.

The static configuration has the point symmetry S_2 .
 The point group associated with its full space group is C_2h.

Analysis of symmetry for dynamics (positions and initial velocities):
 Subroutine PRICEL returns:
 Original cell was already a primitive cell.

[...]

The dynamic configuration has the point symmetry S_2 .
 The point group associated with its full space group is C_2h.

Analysis of structural, dynamic, and magnetic symmetry:
 Subroutine PRICEL returns:
 Original cell was already a primitive cell.

 Routine SETGRP: Setting up the symmetry group for a
 base centered monoclinic supercell.

 Subroutine GETGRP returns: Found  4 space group operations
 (whereof  2 operations were pure point group operations)
 out of a pool of  4 trial point group operations.

The magnetic configuration has the point symmetry S_2 .
 The point group associated with its full space group is C_2h.

 Subroutine INISYM returns: Found  4 space group operations
 (whereof  2 operations are pure point group operations),
 and found     1 'primitive' translations

 KPOINTS: Automatic mesh

Automatic generation of k-mesh.
 generate k-points for:    3    3    2
Space group operators:
 irot       det(A)        alpha          n_x          n_y          n_z        tau_x        tau_y        tau_z
    1     1.000000     0.000001     1.000000     0.000000     0.000000     0.000000     0.000000     0.000000
    2    -1.000000     0.000001     1.000000     0.000000     0.000000     0.000000     0.000000     0.000000
    3     1.000000   180.000000     0.000000     1.000000     0.000000     0.500000     0.500000     0.000000
    4    -1.000000   180.000000     0.000000     1.000000     0.000000     0.500000     0.500000     0.000000

 Subroutine IBZKPT returns following result:

 Found      8 irreducible k-points:

 Following reciprocal coordinates:
            Coordinates               Weight
  0.000000  0.000000  0.000000      1.000000
  0.333333  0.000000  0.000000      4.000000
  0.333333  0.333333  0.000000      2.000000
 -0.333333  0.333333  0.000000      2.000000
  0.000000  0.000000  0.500000      1.000000
  0.333333  0.000000  0.500000      4.000000
  0.333333  0.333333  0.500000      2.000000
 -0.333333  0.333333  0.500000      2.000000

 Following cartesian coordinates:
            Coordinates               Weight
  0.000000  0.000000  0.000000      1.000000
  0.028384 -0.042543  0.014144      4.000000
  0.056769  0.000000  0.028289      2.000000
 -0.000000  0.085087 -0.000000      2.000000
 -0.042590  0.000000  0.042460      1.000000
 -0.014206 -0.042543  0.056605      4.000000
  0.014179  0.000000  0.070749      2.000000
 -0.042590  0.085087  0.042460      2.000000

 TETIRR: Found     25 inequivalent tetrahedra from      108

 SYSTEM =  final
 POSCAR =  SCEL6_3_2_1_1_1_0/0

 Startparameter for this run:
   NWRITE =      2    write-flag & timer
   PREC   = accura    normal or accurate (medium, high low for compatibility)
   ISTART =      0    job   : 0-new  1-cont  2-samecut
   ICHARG =      1    charge: 1-file 2-atom 10-const
   ISPIN  =      2    spin polarized calculation?
   LNONCOLLINEAR =      F non collinear calculations
   LSORBIT =      F    spin-orbit coupling
   INIWAV =      1    electr: 0-lowe 1-rand  2-diag
   LASPH  =      F    aspherical Exc in radial PAW
[...]
     30      -7.9031      1.00000
     31      -7.8875      1.00000
     32      -7.8354      1.00000
     33      -7.6934      1.00000
     34      -7.6895      1.00000
     35      -7.6728      1.00000
     36      -7.6695      1.00000
     37      -7.6512      1.00000
     38      -7.6159      1.00000
     39      -7.5718      1.00000
     40      -7.5416      1.00000
     41      -7.5080      1.00000
     42      -7.4918      1.00000
     43       0.2147      1.00000
     44       0.3360      1.00000
     45       0.8663      1.00000
     46       0.9647      1.00000
     47       0.9937      1.00000
     48       1.0581      1.00000
     49       1.2015      1.00000
     50       1.2139      1.00000
     51       1.2384      1.00000
     52       1.2486      1.00000
     53       1.3528      1.00000
     54       1.4430      1.00000
     55       1.4590      1.00000
     56       1.5134      1.00000
     57       1.6489      1.00000
     58       1.8436      1.00000
     59       1.8754      1.00000
     60       1.9067      1.00000
[...]
    130      10.2277      0.00000
    131      10.2505      0.00000
    132      10.2944      0.00000
    133      10.3147      0.00000
    134      10.3578      0.00000
    135      10.3770      0.00000
    136      10.4093      0.00000
    137      10.4239      0.00000
    138      10.4385      0.00000
    139      10.4496      0.00000
    140      10.4693      0.00000
    141      10.4734      0.00000
    142      10.4852      0.00000
    143      10.5034      0.00000
    144      10.5441      0.00000

[...]

 spin component 2

[...]

 k-point     8 :      -0.3333    0.3333    0.5000
  band No.  band energies     occupation
      1     -24.4729      1.00000
      2     -24.4697      1.00000
      3     -24.4682      1.00000
      4     -24.4663      1.00000
      5     -24.4618      1.00000
      6     -24.3993      1.00000
      7     -11.3770      1.00000
      8     -11.2727      1.00000
      9     -11.2513      1.00000
     10     -11.1685      1.00000
     11     -11.0766      1.00000
     12     -10.3060      1.00000
     13     -10.2630      1.00000
     14     -10.2400      1.00000
     15     -10.2205      1.00000
     16     -10.1833      1.00000
     17     -10.1377      1.00000
     18     -10.1222      1.00000
     19     -10.0826      1.00000
     20      -9.9492      1.00000
     21      -9.9308      1.00000
     22      -9.8544      1.00000
     23      -9.7436      1.00000
     24      -9.7055      1.00000
     25      -8.3271      1.00000
     26      -8.2042      1.00000
     27      -8.2007      1.00000
     28      -8.0270      1.00000
     29      -8.0253      1.00000
     30      -8.0028      1.00000
     31      -7.9910      1.00000
     32      -7.9079      1.00000
     33      -7.8249      1.00000
     34      -7.7746      1.00000
     35      -7.7527      1.00000
     36      -7.7288      1.00000
     37      -7.7283      1.00000
     38      -7.4699      1.00000
     39      -7.4582      1.00000
     40      -7.4510      1.00000
     41      -7.3975      1.00000
     42      -7.2818      1.00000
     43       1.1074      1.00000
     44       2.0096      1.00000
     45       2.0134      1.00000
     46       2.0288      1.00000
     47       2.0348      1.00000
     48       2.2111      1.00000
     49       2.6687      1.00000
     50       2.6713      1.00000
     51       2.7188      1.00000
     52       2.9594      1.00000
     53       3.0434      1.00000
     54       3.0639      1.00000
     55       3.0730      1.00000
     56       3.0897      1.00000
     57       3.1456      1.00000
     58       3.1631      1.00000
     59       3.1945      1.00000
     60       3.2280      1.00000
[...]
    130      10.4690      0.00000
    131      10.4854      0.00000
    132      10.4933      0.00000
    133      10.5553      0.00000
    134      10.5719      0.00000
    135      10.5975      0.00000
    136      10.6118      0.00000
    137      10.6389      0.00000
    138      10.6471      0.00000
    139      10.6498      0.00000
    140      10.6586      0.00000
    141      10.7724      0.00000
    142      10.8794      0.00000
    143      11.0109      0.00000
    144      11.0722      0.00000

 soft charge-density along one line, spin component           1
         0         1         2         3         4         5         6         7         8         9
 total charge-density along one line

 soft charge-density along one line, spin component           2
         0         1         2         3         4         5         6         7         8         9
 total charge-density along one line

------------------------ aborting loop because EDIFF is reached ----------------------------------------

 total charge

# of ion       s       p       d       f       tot
    1        1.998   5.695   0.476   0.184   8.354
    2        1.998   5.695   0.476   0.184   8.354
    3        1.998   5.695   0.472   0.184   8.349
    4        1.998   5.695   0.476   0.184   8.354
    5        1.998   5.695   0.476   0.184   8.354
    6        1.998   5.695   0.474   0.183   8.351
    7        0.309   0.463   4.901   0.000   5.672
    8        0.323   0.491   4.890   0.000   5.704
    9        0.332   0.508   4.886   0.000   5.726
   10        0.309   0.463   4.901   0.000   5.672
   11        0.323   0.491   4.890   0.000   5.704
   12        0.387   0.548   8.313   0.000   9.248
   13        1.563   3.455   0.000   0.000   5.018
   14        1.564   3.454   0.000   0.000   5.019
   15        1.564   3.454   0.000   0.000   5.019
   16        1.563   3.455   0.000   0.000   5.018
   17        1.559   3.453   0.000   0.000   5.012
   18        1.559   3.453   0.000   0.000   5.012
   19        1.564   3.454   0.000   0.000   5.018
   20        1.564   3.454   0.000   0.000   5.018
   21        1.560   3.454   0.000   0.000   5.014
   22        1.564   3.459   0.000   0.000   5.023
   23        1.564   3.459   0.000   0.000   5.023
   24        1.560   3.454   0.000   0.000   5.013
   25        1.565   3.456   0.000   0.000   5.021
   26        1.562   3.455   0.000   0.000   5.017
   27        1.565   3.456   0.000   0.000   5.021
   28        1.559   3.452   0.000   0.000   5.011
   29        1.565   3.457   0.000   0.000   5.021
   30        1.559   3.452   0.000   0.000   5.011
tot         42.095  99.320  35.631   1.105 178.150

 magnetization (x)

[...]

  FORCE on cell =-STRESS in cart. coord.  units (eV):
  Direction    XX          YY          ZZ          XY          YZ          ZX
  Alpha Z   964.34147   964.34147   964.34147
  Ewald   -4865.17320 -4863.33175 -4880.95908    -0.00000    -0.00000     1.81097
  Hartree  1003.96677  1008.80242   999.79882     0.00000     0.00000     3.16350
  E(xc)   -1005.43998 -1005.52024 -1005.46454     0.00000    -0.00000    -0.01237
  Local    -506.59024  -514.64784  -489.97922     0.00000    -0.00000    -4.96444
  n-local   390.50390   390.11773   389.59039     0.63794     0.42031     0.07846
  augment   198.16878   198.64420   199.21581    -0.00000    -0.00000     0.03866
  Kinetic  3819.94732  3821.84754  3822.84586    -1.42153    -0.62600    -0.12739
  Fock        0.00000     0.00000     0.00000     0.00000     0.00000     0.00000
  Total      -0.27518     0.25353    -0.61048     0.00000     0.00000    -0.01261
  in kB      -1.22057     1.12457    -2.70784     0.00000     0.00000    -0.05592

 VOLUME and BASIS-vectors are now :
  energy-cutoff  :      520.00
  volume of cell :      361.21
      direct lattice vectors                 reciprocal lattice vectors
     3.914933101 -3.917568155  3.926887397     0.085153080 -0.127630198  0.042433452
     3.914933101  3.917568155  3.926887397     0.085153080  0.127630198  0.042433452
    -3.912461449  0.000000000  7.851308890    -0.085179824  0.000000000  0.084920518

  length of vectors
     6.789292015  6.789292015  8.772138045     0.159188920  0.159188920  0.120279246

 FORCES acting on ions
    electron-ion (+dipol)            ewald-force                    non-local-force                 convergence-correction
   0.352E+02 0.296E+02 -.364E+02   -.349E+02 -.292E+02 0.360E+02   -.274E+00 -.295E+00 0.295E+00   -.803E-02 0.330E-02 0.693E-02
   -.352E+02 0.296E+02 0.364E+02   0.349E+02 -.292E+02 -.360E+02   0.274E+00 -.295E+00 -.295E+00   0.803E-02 0.330E-02 -.693E-02
   0.375E-11 0.194E-11 0.157E-11   -.249E-13 0.284E-13 0.426E-13   -.108E-18 0.108E-18 0.000E+00   -.330E-13 0.107E-12 -.121E-12
   0.352E+02 -.296E+02 -.364E+02   -.349E+02 0.292E+02 0.360E+02   -.274E+00 0.295E+00 0.295E+00   -.803E-02 -.330E-02 0.693E-02
   -.352E+02 -.296E+02 0.364E+02   0.349E+02 0.292E+02 -.360E+02   0.274E+00 0.295E+00 -.295E+00   0.803E-02 -.330E-02 -.693E-02
   0.244E-13 0.371E-12 0.551E-13   -.391E-13 0.142E-13 0.000E+00   0.108E-18 0.108E-18 0.000E+00   0.139E-12 -.228E-12 0.302E-13
   0.243E+02 -.149E-11 -.941E+01   -.240E+02 -.360E-13 0.933E+01   -.413E+00 0.000E+00 0.785E-01   -.766E-02 -.438E-13 0.751E-02
   -.379E+01 -.129E-11 0.150E+02   0.379E+01 -.115E-13 -.148E+02   -.170E-01 -.867E-18 -.989E-01   0.740E-02 -.649E-13 -.635E-02
   0.354E-11 -.161E-12 -.227E-11   0.178E-14 -.562E-13 0.426E-13   -.678E-20 -.678E-20 0.136E-19   -.636E-13 0.107E-12 0.747E-14
   -.243E+02 0.271E-12 0.941E+01   0.240E+02 0.252E-13 -.933E+01   0.413E+00 0.000E+00 -.785E-01   0.766E-02 0.626E-13 -.751E-02
   0.379E+01 0.316E-12 -.150E+02   -.379E+01 -.367E-14 0.148E+02   0.170E-01 0.217E-18 0.989E-01   -.740E-02 0.888E-13 0.635E-02
   0.150E-12 -.164E-12 0.921E-13   0.284E-13 0.299E-13 -.924E-13   0.339E-20 0.000E+00 0.136E-19   0.213E-12 -.242E-12 0.235E-12
   0.111E+02 0.139E-11 0.118E+02   -.115E+02 -.438E-13 -.137E+02   0.380E+00 0.000E+00 0.181E+01   0.222E-03 -.395E-13 0.103E-01
   0.105E+02 -.150E-11 -.183E+02   -.104E+02 -.812E-13 0.197E+02   -.786E-01 0.000E+00 -.130E+01   -.584E-02 0.295E-13 0.454E-02
   -.105E+02 0.248E-11 0.183E+02   0.104E+02 -.349E-13 -.197E+02   0.786E-01 -.139E-16 0.130E+01   0.584E-02 0.777E-13 -.454E-02
   -.111E+02 0.675E-12 -.118E+02   0.115E+02 0.503E-14 0.137E+02   -.380E+00 0.000E+00 -.181E+01   -.222E-03 0.752E-13 -.103E-01
   -.115E+01 -.192E-12 -.578E+02   0.160E+01 -.329E-13 0.545E+02   -.461E+00 0.000E+00 0.337E+01   -.630E-02 0.366E-14 0.933E-02
   0.115E+01 -.618E-11 0.578E+02   -.160E+01 -.373E-13 -.545E+02   0.461E+00 0.000E+00 -.337E+01   0.630E-02 -.136E-12 -.933E-02
   -.127E+02 0.647E+01 0.118E+02   0.129E+02 -.697E+01 -.120E+02   -.203E+00 0.552E+00 0.246E+00   0.507E-02 0.195E-01 -.612E-02
   0.127E+02 -.647E+01 -.118E+02   -.129E+02 0.697E+01 0.120E+02   0.203E+00 -.552E+00 -.246E+00   -.507E-02 -.195E-01 0.612E-02
   0.468E-11 -.433E+02 0.295E-12   -.711E-12 0.385E+02 -.787E-12   -.261E-16 0.474E+01 -.759E-17   0.573E-13 -.126E-01 0.684E-13
   -.127E+02 -.647E+01 0.118E+02   0.129E+02 0.697E+01 -.120E+02   -.203E+00 -.552E+00 0.246E+00   0.507E-02 -.195E-01 -.612E-02
   0.127E+02 0.647E+01 -.118E+02   -.129E+02 -.697E+01 0.120E+02   0.203E+00 0.552E+00 -.246E+00   -.507E-02 0.195E-01 0.612E-02
   -.809E-12 0.433E+02 0.373E-11   0.213E-13 -.385E+02 -.249E-13   0.520E-16 -.474E+01 0.451E-16   -.891E-13 0.126E-01 -.956E-14
   -.981E+01 0.552E-12 0.970E+01   0.989E+01 -.411E-13 -.974E+01   -.111E-01 -.434E-18 0.780E-01   0.750E-02 0.274E-13 -.617E-02
   -.989E-12 0.189E-12 0.279E-11   0.533E-13 -.575E-14 -.888E-14   0.000E+00 0.000E+00 0.000E+00   -.944E-13 -.635E-15 -.769E-15
   0.981E+01 0.450E-12 -.970E+01   -.989E+01 0.316E-13 0.974E+01   0.111E-01 0.000E+00 -.780E-01   -.750E-02 0.154E-12 0.617E-02
   -.619E+02 0.721E-12 -.107E+01   0.587E+02 0.341E-13 0.166E+01   0.326E+01 0.000E+00 -.615E+00   -.901E-02 0.891E-14 -.761E-02
   -.202E-13 0.367E-12 0.432E-12   -.533E-13 0.174E-13 0.639E-13   -.271E-19 0.000E+00 0.000E+00   -.146E-14 -.816E-13 0.517E-14
   0.619E+02 0.155E-11 0.107E+01   -.587E+02 0.298E-14 -.166E+01   -.326E+01 0.000E+00 0.615E+00   0.901E-02 -.126E-12 0.761E-02
   -.634E-11 0.444E-11 0.339E-11   -.568E-13 -.105E-13 -.246E-13   0.888E-15 -.434E-18 0.111E-15   0.139E-13 -.178E-12 0.329E-12

 POSITION                                       TOTAL-FORCE (eV/Angst)
      0.03117      0.02896      3.89259         0.046969      0.052664     -0.046531
     -0.02870      0.02896      7.88560        -0.046969      0.052664      0.046531
      3.91493      0.00000      3.92689         0.000000     -0.000000      0.000000
      3.94611     -0.02896      7.81948         0.046969     -0.052664     -0.046531
      3.88623     -0.02896     11.81249        -0.046969     -0.052664      0.046531
      0.00000      0.00000      0.00000         0.000000     -0.000000      0.000000
      1.95389     -1.95878      5.89820        -0.070271     -0.000000      0.002593
      1.96054     -1.95878      9.81982        -0.009855     -0.000000      0.040225
      1.95747     -1.95878      1.96344         0.000000     -0.000000      0.000000
      1.96351      1.95878      9.80688         0.070271     -0.000000     -0.002593
      1.95686      1.95878      5.88527         0.009855     -0.000000     -0.040225
      1.95747      1.95878      1.96344         0.000000     -0.000000      0.000000
      1.96065     -1.95878      7.88770         0.030149     -0.000000     -0.069902
      1.95548     -1.95878      3.91266         0.008556     -0.000000      0.026622
      1.96193      1.95878     11.79242        -0.008556     -0.000000     -0.026622
      1.95676      1.95878      7.81738        -0.030149     -0.000000      0.069902
      1.95067      1.95878      3.94038        -0.016636     -0.000000      0.052671
      1.96673     -1.95878     11.76471         0.016636     -0.000000     -0.052671
     -1.95688      0.00427      5.89030        -0.030726      0.070362      0.032382
      5.87428     -0.00427      9.81479         0.030726     -0.070362     -0.032382
      5.87240      0.04000      5.89033         0.000000     -0.038975      0.000000
      1.95805     -0.00427      9.81718        -0.030726     -0.070362      0.032382
      1.95935      0.00427      5.88790         0.030726      0.070362     -0.032382
      1.95747     -0.04000      1.96344         0.000000      0.038975      0.000000
      0.00148     -1.95878      9.81573         0.074984     -0.000000      0.030625
      0.00124     -1.95878      5.88910         0.000000     -0.000000      0.000000
      3.91593      1.95878      5.88935        -0.074984     -0.000000     -0.030625
      0.01925      1.95878      9.80673         0.045459     -0.000000     -0.033329
      0.00124      1.95878      5.88910         0.000000     -0.000000      0.000000
      3.89816     -1.95878      5.89835        -0.045459     -0.000000      0.033329
    total drift:                               -0.000000      0.000000      0.000000

  FREE ENERGIE OF THE ION-ELECTRON SYSTEM (eV)
  free  energy   TOTEN  =      -232.36534119 eV

  energy  without entropy=     -232.36534119  energy(sigma->0) =     -232.36534119

 total charge

[...]

 magnetization (x)

# of ion       s       p       d       f       tot
    1        0.000   0.001   0.011   0.007   0.019
    2        0.000   0.001   0.011   0.007   0.019
    3        0.001   0.000   0.011   0.005   0.018
    4        0.000   0.001   0.011   0.007   0.019
    5        0.000   0.001   0.011   0.007   0.019
    6        0.000   0.001   0.008   0.006   0.016
    7        0.024   0.027   3.836   0.000   3.887
    8        0.026   0.030   3.723   0.000   3.780
    9        0.028   0.032   3.640   0.000   3.700
   10        0.024   0.027   3.836   0.000   3.887
   11        0.026   0.030   3.723   0.000   3.779
   12        0.010  -0.003   1.697   0.000   1.704
   13        0.005  -0.033   0.000   0.000  -0.028
   14        0.006  -0.035   0.000   0.000  -0.028
   15        0.006  -0.035   0.000   0.000  -0.028
   16        0.005  -0.033   0.000   0.000  -0.028
   17        0.005  -0.002   0.000   0.000   0.003
   18        0.005  -0.002   0.000   0.000   0.003
   19        0.006  -0.035   0.000   0.000  -0.029
   20        0.006  -0.035   0.000   0.000  -0.029
   21        0.005  -0.006   0.000   0.000  -0.001
   22        0.006  -0.029   0.000   0.000  -0.023
   23        0.006  -0.029   0.000   0.000  -0.023
   24        0.005  -0.007   0.000   0.000  -0.001
   25        0.007  -0.037   0.000   0.000  -0.030
   26        0.004  -0.039   0.000   0.000  -0.036
   27        0.007  -0.037   0.000   0.000  -0.030
   28        0.005  -0.011   0.000   0.000  -0.006
   29        0.006  -0.037   0.000   0.000  -0.031
   30        0.005  -0.011   0.000   0.000  -0.006
tot          0.244  -0.307  20.519   0.038  20.494

 BZINTS: Fermi energy:  7.995327;219.000000 electrons
         Band energy:-415.684520;  BLOECHL correction: -0.038127