 vasp.5.4.4.18Apr17-6-g9f103f2a35 (build Oct 03 2018 13:58:34) complex

 executed on             LinuxIFC date 2019.06.04  00:33:01

 INCAR:
 POTCAR:    PAW_PBE La 06Sep2000
 POTCAR:    PAW_PBE Mn 06Sep2000
 POTCAR:    PAW_PBE Ni 02Aug2007
 POTCAR:    PAW_PBE O 08Apr2002

 POTCAR:    PAW_PBE La 06Sep2000
   VRHFIN =La : [core=Kr4d]

   TITEL  = PAW_PBE La 06Sep2000
   POMASS =  138.900; ZVAL   =   11.000    mass and valenz
   ENMAX  =  219.292; ENMIN  =  164.469 eV

 POTCAR:    PAW_PBE Mn 06Sep2000
   VRHFIN =Mn: d6 s1

   TITEL  = PAW_PBE Mn 06Sep2000
   POMASS =   54.938; ZVAL   =    7.000    mass and valenz
   ENMAX  =  269.864; ENMIN  =  202.398 eV

 POTCAR:    PAW_PBE Ni 02Aug2007
   VRHFIN =Ni:

   TITEL  = PAW_PBE Ni 02Aug2007
   POMASS =   58.690; ZVAL   =   10.000    mass and valenz
   ENMAX  =  269.532; ENMIN  =  202.149 eV

 POTCAR:    PAW_PBE O 08Apr2002
   VRHFIN =O: s2p4

   TITEL  = PAW_PBE O 08Apr2002
   POMASS =   16.000; ZVAL   =    6.000    mass and valenz
   ENMAX  =  400.000; ENMIN  =  300.000 eV

 Optimization of the real space projectors (new method)

 maximal supplied QI-value         = 13.42
 optimisation between [QCUT,QGAM] = [ 11.67, 23.35] = [ 38.16,152.62] Ry
 Optimized for a Real-space Cutoff    1.63 Angstroem

   l    n(q)    QCUT    max X(q) W(low)/X(q) W(high)/X(q)  e(spline)
   0     11    11.673    13.882    0.27E-04    0.79E-05    0.11E-06
   0     11    11.673    12.184    0.39E-04    0.13E-04    0.19E-06
   1     11    11.673     4.523    0.73E-05    0.76E-05    0.12E-06
   1     11    11.673     4.424    0.87E-05    0.13E-04    0.19E-06
   2     10    11.673    52.481    0.65E-04    0.36E-04    0.18E-06
   2     10    11.673    38.501    0.61E-04    0.33E-04    0.17E-06
   3     10    11.673    65.631    0.17E-03    0.14E-03    0.37E-06
   3     10    11.673    56.854    0.17E-03    0.14E-03    0.37E-06
 Optimization of the real space projectors (new method)

[...]

   l    n(q)    QCUT    max X(q) W(low)/X(q) W(high)/X(q)  e(spline)
   2      9    11.539    60.317    0.19E-03    0.47E-04    0.16E-06
   2      9    11.539    55.921    0.19E-03    0.48E-04    0.16E-06
   0     10    11.539    51.690    0.80E-04    0.50E-04    0.24E-06
   0     10    11.539    30.015    0.73E-04    0.45E-04    0.22E-06
   1     10    11.539    18.849    0.87E-04    0.16E-03    0.71E-07
   1     10    11.539    14.624    0.73E-04    0.13E-03    0.64E-07
 Optimization of the real space projectors (new method)

 maximal supplied QI-value         = 24.76
 optimisation between [QCUT,QGAM] = [ 11.64, 23.27] = [ 37.91,151.63] Ry
 Optimized for a Real-space Cutoff    1.14 Angstroem

   l    n(q)    QCUT    max X(q) W(low)/X(q) W(high)/X(q)  e(spline)
   0      8    11.635    20.381    0.10E-03    0.33E-03    0.24E-06
   0      8    11.635    15.268    0.11E-03    0.35E-03    0.26E-06
   1      7    11.635     5.964    0.24E-03    0.31E-03    0.30E-06
   1      7    11.635     5.382    0.22E-03    0.25E-03    0.26E-06
  PAW_PBE La 06Sep2000                  :
  PAW_PBE Mn 06Sep2000                  :
  PAW_PBE Ni 02Aug2007                  :
  PAW_PBE O 08Apr2002                   :

 POSCAR: SCEL6_1_6_1_1_0_0/0
  positions in direct lattice
  velocities in cartesian coordinates
 exchange correlation table for  LEXCH =        8
   RHO(1)=    0.500       N(1)  =     2000
   RHO(2)=  100.500       N(2)  =     4000

 ion  position               nearest neighbor table
   1  0.000  0.500  0.156-  30 2.59  24 2.68  17 2.68  17 2.68  24 2.68  29 2.78  29 2.78  12 3.25
                            12 3.25  11 3.40  11 3.40  11 3.40  11 3.40
   2  0.000  0.000  0.331-  29 2.71  23 2.74  16 2.74  16 2.74  23 2.74  28 2.78  28 2.78  15 2.80
                            15 2.80  22 2.80  22 2.80  27 2.82  11 3.36  11 3.36  10 3.40  10 3.40
   3  0.000  0.500  0.500-  26 2.75  28 2.75  21 2.77  22 2.77  14 2.77  15 2.77  14 2.77  15 2.77
                            21 2.77  22 2.77  27 2.77  27 2.77   9 3.40   9 3.40   9 3.40   9 3.40
   4  0.000  0.000  0.669-  25 2.71  20 2.74  13 2.74  13 2.74  20 2.74  26 2.78  26 2.78  21 2.80
                            14 2.80  14 2.80  21 2.80  27 2.82   8 3.36   8 3.36   7 3.40   7 3.40
   5  0.000  0.500  0.844-  30 2.59  19 2.68  18 2.68  18 2.68  19 2.68  25 2.78  25 2.78  12 3.25
                            12 3.25   8 3.40   8 3.40   8 3.40   8 3.40
   6  0.000  0.000  0.000-  30 2.77  30 2.77  19 2.78  24 2.78  17 2.78  18 2.78  17 2.78  18 2.78
                            19 2.78  24 2.78  25 2.79  29 2.79   8 3.40  11 3.40   8 3.40  11 3.40
   7  0.500  0.500  0.668-  26 1.96  26 1.96  13 1.98  20 1.98  14 1.99  21 1.99   4 3.40   4 3.40
                             4 3.40   4 3.40   3 3.41   3 3.41
   8  0.500  0.000  0.833-  13 1.93  20 1.93  19 1.93  18 1.93  25 1.96  25 1.96   4 3.36   4 3.36
                             6 3.40   6 3.40   5 3.40   5 3.40   5 3.40   5 3.40
   9  0.500  0.000  0.500-  14 1.94  15 1.94  21 1.94  22 1.94  27 1.96  27 1.96   3 3.40   3 3.40
                             3 3.40   3 3.40
  10  0.500  0.500  0.332-  28 1.96  28 1.96  16 1.98  23 1.98  22 1.99  15 1.99   2 3.40   2 3.40
                             2 3.40   2 3.40   3 3.41   3 3.41
  11  0.500  0.000  0.167-  16 1.93  23 1.93  17 1.93  24 1.93  29 1.96  29 1.96   2 3.36   2 3.36
                             6 3.40   6 3.40   1 3.40   1 3.40   1 3.40   1 3.40
  12  0.500  0.500  0.000-  30 1.96  30 1.96  19 1.99  24 1.99  17 1.99  18 1.99   1 3.25   1 3.25
                             5 3.25   5 3.25
  13  0.500  0.757  0.750-   8 1.93   7 1.98   4 2.74   4 2.74
  14  0.500  0.248  0.582-   9 1.94   7 1.99   3 2.77   3 2.77   4 2.80   4 2.80
  15  0.500  0.752  0.418-   9 1.94  10 1.99   3 2.77   3 2.77   2 2.80   2 2.80
  16  0.500  0.243  0.250-  11 1.93  10 1.98   2 2.74   2 2.74
  17  0.500  0.753  0.085-  11 1.93  12 1.99   1 2.68   1 2.68   6 2.78   6 2.78
  18  0.500  0.247  0.915-   8 1.93  12 1.99   5 2.68   5 2.68   6 2.78   6 2.78
  19  0.500  0.753  0.915-   8 1.93  12 1.99   5 2.68   5 2.68   6 2.78   6 2.78
  20  0.500  0.243  0.750-   8 1.93   7 1.98   4 2.74   4 2.74
  21  0.500  0.752  0.582-   9 1.94   7 1.99   3 2.77   3 2.77   4 2.80   4 2.80
  22  0.500  0.248  0.418-   9 1.94  10 1.99   3 2.77   3 2.77   2 2.80   2 2.80
  23  0.500  0.757  0.250-  11 1.93  10 1.98   2 2.74   2 2.74
  24  0.500  0.247  0.085-  11 1.93  12 1.99   1 2.68   1 2.68   6 2.78   6 2.78
  25  0.000  0.000  0.832-   8 1.96   8 1.96   4 2.71   5 2.78   5 2.78   6 2.79
  26  0.000  0.500  0.665-   7 1.96   7 1.96   3 2.75   4 2.78   4 2.78
  27  0.000  0.000  0.500-   9 1.96   9 1.96   3 2.77   3 2.77   4 2.82   2 2.82
  28  0.000  0.500  0.335-  10 1.96  10 1.96   3 2.75   2 2.78   2 2.78
  29  0.000  0.000  0.168-  11 1.96  11 1.96   2 2.71   1 2.78   1 2.78   6 2.79
  30  0.000  0.500  0.000-  12 1.96  12 1.96   1 2.59   5 2.59   6 2.77   6 2.77

  LATTYP: Found a simple orthorhombic cell.
 ALAT       =     3.9231478760
 B/A-ratio  =     1.4145996934
 C/A-ratio  =     4.2430038907

  Lattice vectors:

 A1 = (   3.9231478760,   0.0000000000,   0.0000000000)
 A2 = (   0.0000000000,   3.9242190362,   3.9242190362)
 A3 = (   0.0000000000, -11.7704511854,  11.7704511854)

Analysis of symmetry for initial positions (statically):
 Subroutine PRICEL returns:
 Original cell was already a primitive cell.

 Routine SETGRP: Setting up the symmetry group for a
 simple orthorhombic supercell.

 Subroutine GETGRP returns: Found  8 space group operations
 (whereof  8 operations were pure point group operations)
 out of a pool of  8 trial point group operations.

The static configuration has the point symmetry D_2h.

Analysis of symmetry for dynamics (positions and initial velocities):
 Subroutine PRICEL returns:
 Original cell was already a primitive cell.

[...]

The dynamic configuration has the point symmetry D_2h.

Analysis of structural, dynamic, and magnetic symmetry:
 Subroutine PRICEL returns:
 Original cell was already a primitive cell.

 Routine SETGRP: Setting up the symmetry group for a
 simple orthorhombic supercell.

 Subroutine GETGRP returns: Found  8 space group operations
 (whereof  8 operations were pure point group operations)
 out of a pool of  8 trial point group operations.

The magnetic configuration has the point symmetry D_2h.

 Subroutine INISYM returns: Found  8 space group operations
 (whereof  8 operations are pure point group operations),
 and found     1 'primitive' translations

 KPOINTS: Automatic mesh

Automatic generation of k-mesh.
 generate k-points for:    5    4    1
Space group operators:
 irot       det(A)        alpha          n_x          n_y          n_z        tau_x        tau_y        tau_z
    1     1.000000     0.000000     1.000000     0.000000     0.000000     0.000000     0.000000     0.000000
    2    -1.000000     0.000000     1.000000     0.000000     0.000000     0.000000     0.000000     0.000000
    3     1.000000   180.000000     0.000000    -0.707107     0.707107     0.000000     0.000000     0.000000
    4    -1.000000   180.000000     0.000000    -0.707107     0.707107     0.000000     0.000000     0.000000
    5     1.000000   180.000000     0.000000     0.707107     0.707107     0.000000     0.000000     0.000000
    6    -1.000000   180.000000     0.000000     0.707107     0.707107     0.000000     0.000000     0.000000
    7     1.000000   180.000000     1.000000     0.000000     0.000000     0.000000     0.000000     0.000000
    8    -1.000000   180.000000     1.000000     0.000000     0.000000     0.000000     0.000000     0.000000

 Subroutine IBZKPT returns following result:

 Found      9 irreducible k-points:

 Following reciprocal coordinates:
            Coordinates               Weight
  0.000000  0.000000  0.000000      1.000000
  0.200000  0.000000  0.000000      2.000000
  0.400000  0.000000  0.000000      2.000000
  0.000000  0.250000  0.000000      2.000000
  0.200000  0.250000  0.000000      4.000000
  0.400000  0.250000  0.000000      4.000000
  0.000000  0.500000  0.000000      1.000000
  0.200000  0.500000  0.000000      2.000000
  0.400000  0.500000  0.000000      2.000000

 Following cartesian coordinates:
            Coordinates               Weight
  0.000000  0.000000  0.000000      1.000000
  0.050979  0.000000  0.000000      2.000000
  0.101959  0.000000  0.000000      2.000000
  0.000000  0.031853  0.031853      2.000000
  0.050979  0.031853  0.031853      4.000000
  0.101959  0.031853  0.031853      4.000000
  0.000000  0.063707  0.063707      1.000000
  0.050979  0.063707  0.063707      2.000000
  0.101959  0.063707  0.063707      2.000000

 TETIRR: Found     54 inequivalent tetrahedra from      120

 SYSTEM =  final
 POSCAR =  SCEL6_1_6_1_1_0_0/0

 Startparameter for this run:
   NWRITE =      2    write-flag & timer
   PREC   = accura    normal or accurate (medium, high low for compatibility)
   ISTART =      0    job   : 0-new  1-cont  2-samecut
   ICHARG =      1    charge: 1-file 2-atom 10-const
   ISPIN  =      2    spin polarized calculation?
   LNONCOLLINEAR =      F non collinear calculations
   LSORBIT =      F    spin-orbit coupling
[...]
     30      -7.9308      1.00000
     31      -7.9265      1.00000
     32      -7.9209      1.00000
     33      -7.8701      1.00000
     34      -7.8700      1.00000
     35      -7.7648      1.00000
     36      -7.6951      1.00000
     37      -7.6711      1.00000
     38      -7.6697      1.00000
     39      -7.6668      1.00000
     40      -7.5838      1.00000
     41      -7.5379      1.00000
     42      -7.4463      1.00000
     43       0.3589      1.00000
     44       0.4720      1.00000
     45       0.8159      1.00000
     46       1.0791      1.00000
     47       1.1525      1.00000
     48       1.3160      1.00000
     49       1.3519      1.00000
     50       1.4494      1.00000
     51       1.5416      1.00000
     52       1.8246      1.00000
     53       1.8435      1.00000
     54       2.0107      1.00000
     55       2.0741      1.00000
     56       2.0940      1.00000
     57       2.1062      1.00000
     58       2.1126      1.00000
     59       2.1792      1.00000
     60       2.2185      1.00000
[...]
    130      10.1167      0.00000
    131      10.1265      0.00000
    132      10.1883      0.00000
    133      10.2422      0.00000
    134      10.3229      0.00000
    135      10.3409      0.00000
    136      10.3691      0.00000
    137      10.4091      0.00000
    138      10.4202      0.00000
    139      10.4293      0.00000
    140      10.4536      0.00000
    141      10.4683      0.00000
    142      10.4879      0.00000
    143      10.4992      0.00000
    144      10.5512      0.00000

[...]

 spin component 2

[...]

 k-point     9 :       0.4000    0.5000    0.0000
  band No.  band energies     occupation
      1     -24.5238      1.00000
      2     -24.4633      1.00000
      3     -24.4627      1.00000
      4     -24.4517      1.00000
      5     -24.4442      1.00000
      6     -24.4420      1.00000
      7     -11.0486      1.00000
      8     -10.9880      1.00000
      9     -10.9480      1.00000
     10     -10.9135      1.00000
     11     -10.8582      1.00000
     12     -10.8021      1.00000
     13     -10.6605      1.00000
     14     -10.5829      1.00000
     15     -10.5722      1.00000
     16     -10.5147      1.00000
     17     -10.4381      1.00000
     18     -10.2598      1.00000
     19     -10.1798      1.00000
     20     -10.1202      1.00000
     21     -10.0998      1.00000
     22     -10.0444      1.00000
     23      -9.9779      1.00000
     24      -9.9443      1.00000
     25      -8.2349      1.00000
     26      -8.1882      1.00000
     27      -7.9988      1.00000
     28      -7.9633      1.00000
     29      -7.9365      1.00000
     30      -7.9064      1.00000
     31      -7.8654      1.00000
     32      -7.7901      1.00000
     33      -7.6908      1.00000
     34      -7.6846      1.00000
     35      -7.6246      1.00000
     36      -7.6206      1.00000
     37      -7.6145      1.00000
     38      -7.6136      1.00000
     39      -7.5942      1.00000
     40      -7.5932      1.00000
     41      -7.5375      1.00000
     42      -7.3998      1.00000
     43       1.5417      1.00000
     44       1.6170      1.00000
     45       1.7125      1.00000
     46       1.7135      1.00000
     47       1.7255      1.00000
     48       1.7536      1.00000
     49       1.9149      1.00000
     50       2.0103      1.00000
     51       2.2907      1.00000
     52       2.3245      1.00000
     53       2.6662      1.00000
     54       2.7571      1.00000
     55       2.8717      1.00000
     56       2.9115      1.00000
     57       3.0808      1.00000
     58       3.1016      1.00000
     59       3.1089      1.00000
     60       3.1103      1.00000
[...]
    130      10.4399      0.00000
    131      10.4441      0.00000
    132      10.4449      0.00000
    133      10.4581      0.00000
    134      10.4585      0.00000
    135      10.4653      0.00000
    136      10.4919      0.00000
    137      10.5069      0.00000
    138      10.5180      0.00000
    139      10.5226      0.00000
    140      10.6195      0.00000
    141      10.6530      0.00000
    142      10.9375      0.00000
    143      11.0676      0.00000
    144      11.2973      0.00000

 soft charge-density along one line, spin component           1
         0         1         2         3         4         5         6         7         8         9
 total charge-density along one line

 soft charge-density along one line, spin component           2
         0         1         2         3         4         5         6         7         8         9
 total charge-density along one line

------------------------ aborting loop because EDIFF is reached ----------------------------------------

 total charge

# of ion       s       p       d       f       tot
    1        2.000   5.694   0.484   0.186   8.364
    2        1.999   5.696   0.475   0.184   8.353
    3        1.998   5.696   0.475   0.183   8.352
    4        1.999   5.696   0.475   0.184   8.353
    5        2.000   5.694   0.484   0.186   8.364
    6        1.998   5.693   0.469   0.181   8.342
    7        0.299   0.439   4.897   0.000   5.635
    8        0.330   0.509   4.874   0.000   5.713
    9        0.323   0.488   4.881   0.000   5.692
   10        0.299   0.439   4.897   0.000   5.635
   11        0.330   0.509   4.874   0.000   5.713
   12        0.392   0.559   8.327   0.000   9.279
   13        1.564   3.458   0.000   0.000   5.021
   14        1.564   3.455   0.000   0.000   5.019
   15        1.564   3.455   0.000   0.000   5.019
   16        1.564   3.458   0.000   0.000   5.022
   17        1.560   3.459   0.000   0.000   5.019
   18        1.560   3.459   0.000   0.000   5.019
   19        1.560   3.459   0.000   0.000   5.019
   20        1.564   3.458   0.000   0.000   5.021
   21        1.564   3.455   0.000   0.000   5.019
   22        1.564   3.455   0.000   0.000   5.019
   23        1.564   3.458   0.000   0.000   5.022
   24        1.560   3.459   0.000   0.000   5.019
   25        1.565   3.457   0.000   0.000   5.022
   26        1.563   3.454   0.000   0.000   5.017
   27        1.564   3.453   0.000   0.000   5.017
   28        1.563   3.454   0.000   0.000   5.017
   29        1.565   3.457   0.000   0.000   5.022
   30        1.555   3.463   0.000   0.000   5.018
tot         42.089  99.337  35.613   1.106 178.145

 magnetization (x)

[...]

  FORCE on cell =-STRESS in cart. coord.  units (eV):
  Direction    XX          YY          ZZ          XY          YZ          ZX
  Alpha Z   961.12104   961.12104   961.12104
  Ewald   -4755.52596 -4883.23567 -4883.23567    -0.00000    60.41088    -0.00000
  Hartree  1107.61895   991.98756   991.98756     0.00000    65.96860    -0.00000
  E(xc)   -1005.23586 -1005.34281 -1005.34281     0.00000    -0.02747    -0.00000
  Local    -718.11071  -474.09594  -474.09594    -0.00000  -126.55282     0.00000
  n-local   388.95648   388.96939   388.97321    -0.41181     0.44904    -0.41286
  augment   198.38399   197.88930   197.88930    -0.00000     0.00099     0.00000
  Kinetic  3823.33634  3823.21511  3823.18364     0.72708    -0.28446     0.72456
  Fock        0.00000     0.00000     0.00000     0.00000     0.00000     0.00000
  Total       0.54427     0.49415     0.49415     0.00000    -0.03521     0.00000
  in kB       2.40609     2.18453     2.18453     0.00000    -0.15567     0.00000

 VOLUME and BASIS-vectors are now :
  energy-cutoff  :      520.00
  volume of cell :      362.42
      direct lattice vectors                 reciprocal lattice vectors
     3.923147876  0.000000000  0.000000000     0.254897351  0.000000000  0.000000000
     0.000000000  3.924219036  3.924219036     0.000000000  0.127413887  0.127413887
     0.000000000-11.770451185 11.770451185     0.000000000 -0.042479255  0.042479255

  length of vectors
     3.923147876  5.549683783 16.645931702     0.254897351  0.180190447  0.060074739

 FORCES acting on ions
    electron-ion (+dipol)            ewald-force                    non-local-force                 convergence-correction
   -.567E-14 0.142E+03 -.142E+03   0.352E-13 -.141E+03 0.141E+03   0.000E+00 -.110E+01 0.110E+01   0.682E-14 -.125E+00 0.125E+00
   -.564E-14 0.571E+02 -.571E+02   0.178E-13 -.569E+02 0.569E+02   0.000E+00 -.314E+00 0.314E+00   0.740E-14 0.332E-01 -.332E-01
   -.396E-14 0.495E-13 -.701E-13   -.629E-16 -.706E-14 -.213E-13   0.000E+00 -.271E-19 0.271E-19   -.757E-15 -.866E-13 0.109E-12
   -.105E-14 -.571E+02 0.571E+02   0.200E-14 0.569E+02 -.569E+02   0.000E+00 0.314E+00 -.314E+00   -.304E-14 -.332E-01 0.332E-01
   -.479E-14 -.142E+03 0.142E+03   -.133E-13 0.141E+03 -.141E+03   0.000E+00 0.110E+01 -.110E+01   -.109E-13 0.125E+00 -.125E+00
   -.482E-14 0.302E-13 -.603E-13   0.604E-14 0.721E-14 0.641E-13   0.000E+00 -.217E-18 0.217E-18   0.120E-14 0.496E-13 -.215E-13
   0.420E-13 -.208E+02 0.208E+02   -.200E-13 0.209E+02 -.209E+02   0.000E+00 0.264E-01 -.264E-01   0.252E-13 -.167E-01 0.167E-01
   0.568E-13 -.502E+02 0.502E+02   -.347E-13 0.500E+02 -.500E+02   0.000E+00 0.180E+00 -.180E+00   0.252E-13 0.515E-01 -.515E-01
   0.617E-13 -.156E-11 0.159E-11   0.610E-14 0.239E-13 -.381E-13   0.000E+00 0.339E-20 0.000E+00   0.286E-13 -.874E-13 0.705E-13
   0.396E-13 0.208E+02 -.208E+02   -.123E-13 -.209E+02 0.209E+02   0.339E-20 -.264E-01 0.264E-01   0.351E-13 0.167E-01 -.167E-01
   0.621E-13 0.502E+02 -.502E+02   0.217E-13 -.500E+02 0.500E+02   0.000E+00 -.180E+00 0.180E+00   0.291E-13 -.515E-01 0.515E-01
   0.289E-12 0.619E-11 0.605E-12   -.197E-13 0.286E-13 0.286E-13   0.000E+00 0.000E+00 0.000E+00   0.837E-13 -.136E-13 -.807E-14
   0.119E-12 -.264E+02 0.614E+02   0.248E-13 0.256E+02 -.637E+02   0.000E+00 0.834E+00 0.218E+01   0.291E-13 0.180E-01 0.126E-01
   0.114E-12 -.990E+01 0.394E+00   -.304E-15 0.985E+01 0.108E+01   0.217E-18 0.530E-01 -.142E+01   0.485E-13 -.127E-01 0.406E-01
   0.120E-12 0.990E+01 -.394E+00   -.884E-14 -.985E+01 -.108E+01   -.217E-18 -.530E-01 0.142E+01   0.230E-13 0.127E-01 -.406E-01
   0.120E-12 0.264E+02 -.614E+02   -.406E-13 -.256E+02 0.637E+02   0.000E+00 -.834E+00 -.218E+01   0.405E-13 -.180E-01 -.126E-01
   0.119E-12 0.210E+02 -.784E+02   -.423E-13 -.202E+02 0.743E+02   0.000E+00 -.747E+00 0.384E+01   0.378E-13 -.295E-01 0.208E+00
   0.120E-12 -.210E+02 0.784E+02   0.492E-13 0.202E+02 -.743E+02   0.000E+00 0.747E+00 -.384E+01   0.323E-13 0.295E-01 -.208E+00
   0.120E-12 -.784E+02 0.210E+02   -.161E-13 0.743E+02 -.202E+02   0.000E+00 0.384E+01 -.747E+00   0.240E-13 0.208E+00 -.295E-01
   0.110E-12 -.614E+02 0.264E+02   -.290E-13 0.637E+02 -.256E+02   0.000E+00 -.218E+01 -.834E+00   0.315E-13 -.126E-01 -.180E-01
   0.117E-12 -.394E+00 0.990E+01   0.102E-13 -.108E+01 -.985E+01   0.000E+00 0.142E+01 -.530E-01   0.252E-13 -.406E-01 0.127E-01
   0.123E-12 0.394E+00 -.990E+01   -.103E-13 0.108E+01 0.985E+01   0.000E+00 -.142E+01 0.530E-01   0.322E-13 0.406E-01 -.127E-01
   0.121E-12 0.614E+02 -.264E+02   0.384E-13 -.637E+02 0.256E+02   0.000E+00 0.218E+01 0.834E+00   0.305E-13 0.126E-01 0.180E-01
   0.123E-12 0.784E+02 -.210E+02   0.588E-14 -.743E+02 0.202E+02   0.000E+00 -.384E+01 0.747E+00   0.353E-13 -.208E+00 0.295E-01
   -.830E-15 -.445E+02 0.445E+02   0.313E-13 0.445E+02 -.445E+02   -.271E-19 -.109E+00 0.109E+00   -.977E-15 0.398E-01 -.398E-01
   -.343E-14 -.158E+02 0.158E+02   0.274E-13 0.154E+02 -.154E+02   0.000E+00 0.425E+00 -.425E+00   0.347E-14 -.111E-01 0.111E-01
   -.157E-14 -.569E-12 0.577E-12   0.571E-14 -.252E-13 0.110E-13   0.000E+00 -.678E-20 0.678E-20   -.720E-14 -.515E-13 0.434E-13
   -.149E-14 0.158E+02 -.158E+02   0.673E-14 -.154E+02 0.154E+02   0.000E+00 -.425E+00 0.425E+00   -.159E-13 0.111E-01 -.111E-01
   -.607E-15 0.445E+02 -.445E+02   -.284E-13 -.445E+02 0.445E+02   0.271E-19 0.109E+00 -.109E+00   -.557E-14 -.398E-01 0.398E-01
   -.273E-14 0.191E-12 0.173E-12   -.391E-14 0.705E-14 0.497E-13   0.000E+00 0.000E+00 0.000E+00   -.943E-14 0.310E-13 -.403E-13
   0.194E-11 -.139E-11 0.834E-11   0.832E-14 0.213E-12 0.142E-13   0.339E-20 -.500E-15 -.722E-15   0.582E-12 -.458E-14 0.138E-12

 POSITION                                       TOTAL-FORCE (eV/Angst)
      0.00000      0.12743      3.79679         0.000000      0.011424     -0.011424
      0.00000     -3.89152      3.89152         0.000000     -0.007262      0.007262
      0.00000     -3.92312      7.84734         0.000000     -0.000000     -0.000000
      0.00000     -7.87893      7.87893         0.000000      0.007262     -0.007262
      0.00000     -7.97366     11.89788        -0.000000     -0.011424      0.011424
      0.00000      0.00000      0.00000         0.000000     -0.000000     -0.000000
      1.96157     -5.89732      9.82154         0.000000      0.041294     -0.041294
      1.96157     -9.80540      9.80540         0.000000     -0.004041      0.004041
      1.96157     -5.88523      5.88523         0.000000     -0.000000     -0.000000
      1.96157     -1.94891      5.87313         0.000000     -0.041294      0.041294
      1.96157     -1.96506      1.96506         0.000000      0.004041     -0.004041
      1.96157      1.96211      1.96211         0.000000     -0.000000     -0.000000
      1.96157     -5.86103     11.80218         0.000000      0.008675     -0.013830
      1.96157     -5.88036      7.82859         0.000000     -0.005536      0.093361
      1.96157     -1.96587      7.86608         0.000000      0.005536     -0.093361
      1.96157     -1.98520      3.89249         0.000000     -0.008675      0.013830
      1.96157      1.95200      3.95486        -0.000000      0.018486     -0.004837
      1.96157     -9.79823     11.73981         0.000000     -0.018486      0.004837
      1.96157     -7.81559     13.72245         0.000000     -0.004837      0.018486
      1.96157     -7.87796      9.78525         0.000000      0.013830     -0.008675
      1.96157     -3.90437      9.80458         0.000000     -0.093361      0.005536
      1.96157     -3.94186      5.89009         0.000000      0.093361     -0.005536
      1.96157      0.03173      5.90942         0.000000     -0.013830      0.008675
      1.96157     -0.03064      1.97222         0.000000      0.004837     -0.018486
      0.00000     -9.79743      9.79743         0.000000     -0.094578      0.094578
      0.00000     -5.86933      9.79355         0.000000      0.031000     -0.031000
      0.00000     -5.88523      5.88523         0.000000     -0.000000     -0.000000
      0.00000     -1.97691      5.90112        -0.000000     -0.031000      0.031000
      0.00000     -1.97302      1.97302         0.000000      0.094578     -0.094578
      0.00000      1.96211      1.96211         0.000000     -0.000000     -0.000000
    total drift:                                0.000000     -0.000000      0.000000

  FREE ENERGIE OF THE ION-ELECTRON SYSTEM (eV)
  free  energy   TOTEN  =      -232.32407506 eV

  energy  without entropy=     -232.32407506  energy(sigma->0) =     -232.32407506

 total charge

[...]

 magnetization (x)

# of ion       s       p       d       f       tot
    1        0.001   0.001   0.009   0.005   0.015
    2        0.001   0.001   0.013   0.008   0.022
    3        0.001   0.001   0.013   0.007   0.022
    4        0.001   0.001   0.013   0.008   0.022
    5        0.001   0.001   0.009   0.005   0.015
    6        0.000   0.000   0.007   0.004   0.011
    7        0.023   0.023   3.912   0.000   3.957
    8        0.026   0.033   3.624   0.000   3.683
    9        0.025   0.025   3.707   0.000   3.758
   10        0.023   0.023   3.912   0.000   3.957
   11        0.026   0.033   3.624   0.000   3.683
   12        0.013   0.005   1.712   0.000   1.730
   13        0.005  -0.035   0.000   0.000  -0.030
   14        0.006  -0.038   0.000   0.000  -0.032
   15        0.006  -0.038   0.000   0.000  -0.032
   16        0.005  -0.035   0.000   0.000  -0.030
   17        0.006  -0.003   0.000   0.000   0.003
   18        0.006  -0.003   0.000   0.000   0.003
   19        0.006  -0.003   0.000   0.000   0.003
   20        0.005  -0.035   0.000   0.000  -0.030
   21        0.006  -0.038   0.000   0.000  -0.032
   22        0.006  -0.038   0.000   0.000  -0.032
   23        0.005  -0.035   0.000   0.000  -0.030
   24        0.006  -0.003   0.000   0.000   0.003
   25        0.007  -0.037   0.000   0.000  -0.030
   26        0.005  -0.042   0.000   0.000  -0.038
   27        0.005  -0.047   0.000   0.000  -0.042
   28        0.005  -0.042   0.000   0.000  -0.037
   29        0.007  -0.037   0.000   0.000  -0.030
   30        0.007   0.032   0.000   0.000   0.038
tot          0.240  -0.334  20.553   0.037  20.495

 BZINTS: Fermi energy:  7.984202;219.000000 electrons
         Band energy:-424.210781;  BLOECHL correction: -0.147075