 vasp.5.4.4.18Apr17-6-g9f103f2a35 (build Oct 03 2018 13:58:34) complex

 executed on             LinuxIFC date 2019.06.04  01:25:33

 INCAR:
 POTCAR:    PAW_PBE La 06Sep2000
 POTCAR:    PAW_PBE Mn 06Sep2000
 POTCAR:    PAW_PBE Ni 02Aug2007
 POTCAR:    PAW_PBE O 08Apr2002

 POTCAR:    PAW_PBE La 06Sep2000
   VRHFIN =La : [core=Kr4d]

   TITEL  = PAW_PBE La 06Sep2000
   POMASS =  138.900; ZVAL   =   11.000    mass and valenz
   ENMAX  =  219.292; ENMIN  =  164.469 eV

 POTCAR:    PAW_PBE Mn 06Sep2000
   VRHFIN =Mn: d6 s1

   TITEL  = PAW_PBE Mn 06Sep2000
   POMASS =   54.938; ZVAL   =    7.000    mass and valenz
   ENMAX  =  269.864; ENMIN  =  202.398 eV

 POTCAR:    PAW_PBE Ni 02Aug2007
   VRHFIN =Ni:

   TITEL  = PAW_PBE Ni 02Aug2007
   POMASS =   58.690; ZVAL   =   10.000    mass and valenz
   ENMAX  =  269.532; ENMIN  =  202.149 eV

 POTCAR:    PAW_PBE O 08Apr2002
   VRHFIN =O: s2p4

   TITEL  = PAW_PBE O 08Apr2002
   POMASS =   16.000; ZVAL   =    6.000    mass and valenz
   ENMAX  =  400.000; ENMIN  =  300.000 eV

 Optimization of the real space projectors (new method)

 maximal supplied QI-value         = 13.42
 optimisation between [QCUT,QGAM] = [ 11.67, 23.35] = [ 38.16,152.62] Ry
 Optimized for a Real-space Cutoff    1.63 Angstroem

   l    n(q)    QCUT    max X(q) W(low)/X(q) W(high)/X(q)  e(spline)
   0     11    11.673    13.882    0.27E-04    0.79E-05    0.11E-06
   0     11    11.673    12.184    0.39E-04    0.13E-04    0.19E-06
   1     11    11.673     4.523    0.73E-05    0.76E-05    0.12E-06
   1     11    11.673     4.424    0.87E-05    0.13E-04    0.19E-06
   2     10    11.673    52.481    0.65E-04    0.36E-04    0.18E-06
   2     10    11.673    38.501    0.61E-04    0.33E-04    0.17E-06
   3     10    11.673    65.631    0.17E-03    0.14E-03    0.37E-06
   3     10    11.673    56.854    0.17E-03    0.14E-03    0.37E-06
 Optimization of the real space projectors (new method)

[...]

   l    n(q)    QCUT    max X(q) W(low)/X(q) W(high)/X(q)  e(spline)
   2      9    11.539    60.317    0.19E-03    0.47E-04    0.16E-06
   2      9    11.539    55.921    0.19E-03    0.48E-04    0.16E-06
   0     10    11.539    51.690    0.80E-04    0.50E-04    0.24E-06
   0     10    11.539    30.015    0.73E-04    0.45E-04    0.22E-06
   1     10    11.539    18.849    0.87E-04    0.16E-03    0.71E-07
   1     10    11.539    14.624    0.73E-04    0.13E-03    0.64E-07
 Optimization of the real space projectors (new method)

 maximal supplied QI-value         = 24.76
 optimisation between [QCUT,QGAM] = [ 11.64, 23.27] = [ 37.91,151.63] Ry
 Optimized for a Real-space Cutoff    1.14 Angstroem

   l    n(q)    QCUT    max X(q) W(low)/X(q) W(high)/X(q)  e(spline)
   0      8    11.635    20.381    0.10E-03    0.33E-03    0.24E-06
   0      8    11.635    15.268    0.11E-03    0.35E-03    0.26E-06
   1      7    11.635     5.964    0.24E-03    0.31E-03    0.30E-06
   1      7    11.635     5.382    0.22E-03    0.25E-03    0.26E-06
  PAW_PBE La 06Sep2000                  :
  PAW_PBE Mn 06Sep2000                  :
  PAW_PBE Ni 02Aug2007                  :
  PAW_PBE O 08Apr2002                   :

 POSCAR: SCEL4_2_1_2_0_1_1/2
  positions in direct lattice
  velocities in cartesian coordinates
 exchange correlation table for  LEXCH =        8
   RHO(1)=    0.500       N(1)  =     2000
   RHO(2)=  100.500       N(2)  =     4000

 ion  position               nearest neighbor table
   1  0.248  0.248  0.497-  16 2.71  18 2.71  20 2.71  14 2.71  11 2.73  11 2.73   9 2.73   9 2.73
                            15 2.75  17 2.75  19 2.75  13 2.75   6 3.33   6 3.33   8 3.33   8 3.33
   2  0.502  0.502  0.003-  16 2.71  18 2.71  20 2.71  14 2.71  10 2.73  10 2.73  12 2.73  12 2.73
                            13 2.75  19 2.75  17 2.75  15 2.75   8 3.33   8 3.33   6 3.33   6 3.33
   3  0.748  0.748  0.497-  14 2.71  18 2.71  20 2.71  16 2.71  11 2.73  11 2.73   9 2.73   9 2.73
                            13 2.75  17 2.75  19 2.75  15 2.75   6 3.33   6 3.33   8 3.33   8 3.33
   4  0.002  0.002  0.003-  14 2.71  18 2.71  20 2.71  16 2.71  10 2.73  10 2.73  12 2.73  12 2.73
                            15 2.75  19 2.75  17 2.75  13 2.75   8 3.33   8 3.33   6 3.33   6 3.33
   5  0.875  0.375  0.750-  13 1.90  15 1.90  17 1.90  19 1.90   9 1.91  12 1.91   2 3.36   4 3.36
                             3 3.36   1 3.36   1 3.36   2 3.36   3 3.36   4 3.36
   6  0.125  0.625  0.251-  18 1.93  16 1.93  14 1.93  20 1.93  11 1.94  12 1.97   1 3.33   3 3.33
                             3 3.33   1 3.33   2 3.33   4 3.33   4 3.33   2 3.33
   7  0.375  0.875  0.750-  10 1.92  11 1.92  13 1.96  15 1.96  17 1.96  19 1.96   4 3.36   2 3.36
                             1 3.36   3 3.36   1 3.36   2 3.36   3 3.36   4 3.36
   8  0.625  0.125  0.249-  18 1.93  16 1.93  14 1.93  20 1.93  10 1.94   9 1.97   2 3.33   4 3.33
                             2 3.33   4 3.33   3 3.33   1 3.33   1 3.33   3 3.33
   9  0.752  0.252  0.504-   5 1.91   8 1.97   3 2.73   1 2.73   1 2.73   3 2.73
  10  0.499  0.999  0.999-   7 1.92   8 1.94   4 2.73   2 2.73   2 2.73   4 2.73
  11  0.251  0.751  0.501-   7 1.92   6 1.94   1 2.73   3 2.73   1 2.73   3 2.73
  12  0.998  0.498  0.996-   5 1.91   6 1.97   2 2.73   4 2.73   2 2.73   4 2.73
  13  0.121  0.129  0.750-   5 1.90   7 1.96   2 2.75   3 2.75   1 2.75   4 2.75
  14  0.875  0.875  0.250-   6 1.93   8 1.93   3 2.71   4 2.71   1 2.71   2 2.71
  15  0.629  0.621  0.750-   5 1.90   7 1.96   1 2.75   4 2.75   3 2.75   2 2.75
  16  0.375  0.375  0.250-   6 1.93   8 1.93   1 2.71   2 2.71   3 2.71   4 2.71
  17  0.629  0.129  0.750-   5 1.90   7 1.96   1 2.75   3 2.75   2 2.75   4 2.75
  18  0.375  0.875  0.250-   6 1.93   8 1.93   3 2.71   4 2.71   1 2.71   2 2.71
  19  0.121  0.621  0.750-   5 1.90   7 1.96   2 2.75   4 2.75   3 2.75   1 2.75
  20  0.875  0.375  0.250-   6 1.93   8 1.93   3 2.71   4 2.71   1 2.71   2 2.71

  LATTYP: Found a body centered tetragonal cell.
 ALAT       =     5.4559341350
 C/A-ratio  =     2.8345236140

  Lattice vectors:

 A1 = (   0.0000000000,  -3.8579280246,   7.7324870710)
 A2 = (   0.0000000000,   3.8579280246,   7.7324870710)
 A3 = (  -3.8579280246,   0.0000000000,  -7.7324870710)

Analysis of symmetry for initial positions (statically):
 Subroutine PRICEL returns:
 Original cell was already a primitive cell.

 Routine SETGRP: Setting up the symmetry group for a
 body centered tetragonal supercell.

 Subroutine GETGRP returns: Found 16 space group operations
 (whereof  4 operations were pure point group operations)
 out of a pool of 16 trial point group operations.

The static configuration has the point symmetry C_2v.
 The point group associated with its full space group is D_4h.

Analysis of symmetry for dynamics (positions and initial velocities):
 Subroutine PRICEL returns:
 Original cell was already a primitive cell.

[...]

The dynamic configuration has the point symmetry C_2v.
 The point group associated with its full space group is D_4h.

Analysis of structural, dynamic, and magnetic symmetry:
 Subroutine PRICEL returns:
 Original cell was already a primitive cell.

 Routine SETGRP: Setting up the symmetry group for a
 body centered tetragonal supercell.

 Subroutine GETGRP returns: Found 16 space group operations
 (whereof  4 operations were pure point group operations)
 out of a pool of 16 trial point group operations.

The magnetic configuration has the point symmetry C_2v.
 The point group associated with its full space group is D_4h.

 Subroutine INISYM returns: Found 16 space group operations
 (whereof  4 operations are pure point group operations),
 and found     1 'primitive' translations

 KPOINTS: Automatic mesh

Automatic generation of k-mesh.
 generate k-points for:    4    4    3
Space group operators:
 irot       det(A)        alpha          n_x          n_y          n_z        tau_x        tau_y        tau_z
    1     1.000000     0.000000     1.000000     0.000000     0.000000     0.000000     0.000000     0.000000
    2     1.000000   180.000000     0.000000     0.000000     1.000000     0.000000     0.000000     0.000000
    3    -1.000000   180.000000     0.707107     0.707107     0.000000     0.000000     0.000000     0.000000
    4    -1.000000   180.000000     0.707107    -0.707107     0.000000     0.000000     0.000000     0.000000
    5    -1.000000     0.000000     1.000000     0.000000     0.000000     0.750000     0.750000     1.500000
    6     1.000000    90.000000     0.000000     0.000000    -1.000000     0.500000     0.500000     1.000000
    7    -1.000000    90.000000     0.000000     0.000000    -1.000000     0.250000     0.250000     0.500000
    8    -1.000000   180.000000     0.000000     0.000000     1.000000     0.750000     0.750000     1.500000
    9     1.000000    90.000000     0.000000     0.000000     1.000000     0.500000     0.500000     1.000000
   10    -1.000000    90.000000     0.000000     0.000000     1.000000     0.250000     0.250000     0.500000
   11     1.000000   180.000000     0.707107     0.707107     0.000000     0.750000     0.750000     1.500000
   12     1.000000   180.000000     1.000000     0.000000     0.000000     0.250000     0.250000     0.500000
   13    -1.000000   180.000000     1.000000     0.000000     0.000000     0.500000     0.500000     1.000000
   14     1.000000   180.000000     0.707107    -0.707107     0.000000     0.750000     0.750000     1.500000
   15     1.000000   180.000000     0.000000     1.000000     0.000000     0.250000     0.250000     0.500000
   16    -1.000000   180.000000     0.000000     1.000000     0.000000     0.500000     0.500000     1.000000

 Subroutine IBZKPT returns following result:

 Found     17 irreducible k-points:

 Following reciprocal coordinates:
            Coordinates               Weight
  0.000000  0.000000  0.000000      1.000000
  0.250000  0.000000 -0.000000      4.000000
  0.500000  0.000000 -0.000000      2.000000
  0.250000  0.250000 -0.000000      2.000000
  0.500000  0.250000 -0.000000      4.000000
 -0.250000  0.250000  0.000000      2.000000
  0.500000  0.500000 -0.000000      1.000000
  0.000000  0.000000  0.333333      2.000000
  0.250000  0.000000  0.333333      4.000000
  0.500000  0.000000  0.333333      4.000000
 -0.250000  0.000000  0.333333      4.000000
  0.250000  0.250000  0.333333      2.000000
  0.500000  0.250000  0.333333      4.000000
 -0.250000  0.250000  0.333333      4.000000
  0.500000  0.500000  0.333333      2.000000
 -0.250000  0.500000  0.333333      4.000000
 -0.250000 -0.250000  0.333333      2.000000

 Following cartesian coordinates:
            Coordinates               Weight
  0.000000  0.000000  0.000000      1.000000
  0.032401 -0.032401  0.016166      4.000000
  0.064802 -0.064802  0.032331      2.000000
  0.064802  0.000000  0.032331      2.000000
  0.097202 -0.032401  0.048497      4.000000
  0.000000  0.064802  0.000000      2.000000
  0.129603  0.000000  0.064662      1.000000
  0.000000  0.000000  0.043108      2.000000
  0.032401 -0.032401  0.059274      4.000000
  0.064802 -0.064802  0.075439      4.000000
 -0.032401  0.032401  0.026943      4.000000
[...]
  0.5842  0.5183  0.5183

[...]

--------------------------------------- Iteration      1(  19)  ---------------------------------------

atom =   1  type =  1  l = 0

[...]

  o =  0.7865  v =  0.0000  1.0000      0.0000  0.0000
  o =  0.7906  v =  1.0000  0.0000      0.0000  0.0000
atom =  20  type =  4  l = 0

 onsite density matrix

[...]

  0.7858

 occupancies and eigenvectors

  o =  0.7858  v =  0.0000  1.0000      0.0000  0.0000
  o =  0.7913  v =  1.0000  0.0000      0.0000  0.0000
 BZINTS: Fermi energy:  7.530124;153.000000 electrons
         Band energy:-180.550492;  BLOECHL correction: -0.021151

 eigenvalue-minimisations  :  6439
 total energy-change (2. order) :-0.6716899E-03  (-0.7165195E-03)
 number of electron     152.9999998 magnetization       7.0019254
 augmentation part       22.2556431 magnetization       5.7763722

 Free energy of the ion-electron system (eV)
  alpha Z        PSCENC =       661.61185087
  Ewald energy   TEWEN  =    -10794.90971166
  -Hartree energ DENC   =     -2534.53193243
  -exchange      EXHF   =         0.00000000
  -V(xc)+E(xc)   XCENC  =       551.54800902
  PAW double counting   =     13014.48114566   -13159.92051953
  entropy T*S    EENTRO =         0.00000000
  eigenvalues    EBANDS =      -180.55049191
  atomic energy  EATOM  =     12301.96174248
  Solvation  Ediel_sol  =         0.00000000
  free energy    TOTEN  =      -140.30990748 eV

  energy without entropy =     -140.30990748  energy(sigma->0) =     -140.30990748

 average (electrostatic) potential at core
  the test charge radii are     1.1480  1.0210  0.9791  0.7215
  (the norm of the test charge is              1.0000)
       1 -95.0740       2 -95.0740       3 -95.0740       4 -95.0740       5 -43.0617
       6 -83.8992       7 -83.7095       8 -83.8992       9 -66.7640      10 -66.6341
      11 -66.6341      12 -66.7640      13 -66.6908      14 -66.6870      15 -66.6908
      16 -66.6870      17 -66.6908      18 -66.6870      19 -66.6908      20 -66.6870

 E-fermi :   7.5301     XC(G=0): -11.8199     alpha+bet :-16.8441

[...]

 k-point     1 :       0.0000    0.0000    0.0000
  band No.  band energies     occupation
      1     -23.6024      1.00000
      2     -23.5330      1.00000
      3     -23.4510      1.00000
      4     -23.4441      1.00000
      5     -11.1055      1.00000
      6     -10.6437      1.00000
      7      -9.8303      1.00000
      8      -9.8303      1.00000
      9      -9.8134      1.00000
     10      -9.8134      1.00000
     11      -9.7193      1.00000
     12      -9.7072      1.00000
     13      -9.4047      1.00000
     14      -9.3885      1.00000
     15      -9.3432      1.00000
     16      -9.2703      1.00000
     17      -7.3106      1.00000
     18      -7.2435      1.00000
     19      -7.1315      1.00000
     20      -7.1315      1.00000
     21      -7.1127      1.00000
     22      -7.1089      1.00000
     23      -7.1089      1.00000
     24      -7.0548      1.00000
     25      -7.0548      1.00000
     26      -6.9867      1.00000
     27      -6.9867      1.00000
     28      -6.2372      1.00000
     29       0.3307      1.00000
     30       0.3391      1.00000
     31       0.4416      1.00000
     32       0.4926      1.00000
     33       0.9620      1.00000
     34       1.5114      1.00000
     35       1.5175      1.00000
     36       1.8217      1.00000
     37       1.8910      1.00000
     38       1.8910      1.00000
     39       1.8952      1.00000
     40       1.8952      1.00000
     41       2.0583      1.00000
     42       2.2217      1.00000
     43       2.2217      1.00000
     44       2.5456      1.00000
     45       2.7013      1.00000
     46       2.7013      1.00000
     47       2.8749      1.00000
     48       3.1812      1.00000
     49       3.2057      1.00000
     50       3.2057      1.00000
     51       3.5097      1.00000
     52       3.5175      1.00000
     53       3.5175      1.00000
     54       3.7501      1.00000
     55       4.3984      1.00000
     56       4.5625      1.00000
     57       4.6499      1.00000
     58       5.4617      1.00000
     59       5.6170      1.00000
     60       5.6171      1.00000
[...]
     84      10.4967      0.00000
     85      10.5271      0.00000
     86      11.1285      0.00000
     87      11.1776      0.00000
     88      11.2279      0.00000
     89      11.2271      0.00000
     90      11.2487      0.00000
     91      11.3404      0.00000
     92      11.3895      0.00000
     93      11.4351      0.00000
     94      11.4573      0.00000
     95      11.4946      0.00000
     96      11.5301      0.00000
     97      11.5559      0.00000
     98      11.5957      0.00000

[...]

 spin component 2

[...]

 k-point    17 :      -0.2500   -0.2500    0.3333
  band No.  band energies     occupation
      1     -23.5618      1.00000
      2     -23.5000      1.00000
      3     -23.4787      1.00000
      4     -23.4629      1.00000
      5     -10.8674      1.00000
      6     -10.7770      1.00000
      7     -10.5549      1.00000
      8     -10.3745      1.00000
      9      -9.8783      1.00000
     10      -9.8522      1.00000
     11      -9.8069      1.00000
     12      -9.4764      1.00000
     13      -9.3705      1.00000
     14      -9.3119      1.00000
     15      -9.2899      1.00000
     16      -9.1312      1.00000
     17      -7.3578      1.00000
     18      -7.2662      1.00000
     19      -7.0407      1.00000
     20      -7.0343      1.00000
     21      -6.9238      1.00000
     22      -6.8765      1.00000
     23      -6.7915      1.00000
     24      -6.7894      1.00000
     25      -6.7031      1.00000
     26      -6.6940      1.00000
     27      -6.5862      1.00000
     28      -6.4537      1.00000
     29       1.7002      1.00000
     30       1.9199      1.00000
     31       2.1608      1.00000
     32       2.2044      1.00000
     33       2.2270      1.00000
     34       2.3484      1.00000
     35       2.7179      1.00000
     36       2.7606      1.00000
     37       2.7681      1.00000
     38       2.9176      1.00000
     39       2.9665      1.00000
     40       3.0889      1.00000
     41       3.0909      1.00000
     42       3.3182      1.00000
     43       3.3770      1.00000
     44       3.4786      1.00000
     45       3.7102      1.00000
     46       3.7342      1.00000
     47       3.7843      1.00000
     48       3.8563      1.00000
     49       3.9130      1.00000
     50       4.2447      1.00000
     51       4.5040      1.00000
     52       4.5749      1.00000
     53       5.0432      1.00000
     54       5.1478      1.00000
     55       5.5459      1.00000
     56       5.5991      1.00000
     57       5.6055      1.00000
     58       5.6494      1.00000
     59       5.7054      1.00000
     60       5.8237      1.00000
[...]
     84      11.2516      0.00000
     85      11.2908      0.00000
     86      11.3206      0.00000
     87      11.3366      0.00000
     88      11.3665      0.00000
     89      11.3871      0.00000
     90      11.4125      0.00000
     91      11.4333      0.00000
     92      11.4530      0.00000
     93      11.4660      0.00000
     94      11.4811      0.00000
     95      11.4980      0.00000
     96      11.5508      0.00000
     97      11.6067      0.00000
     98      11.6309      0.00000

 soft charge-density along one line, spin component           1
         0         1         2         3         4         5         6         7         8         9
 total charge-density along one line

 soft charge-density along one line, spin component           2
         0         1         2         3         4         5         6         7         8         9
 total charge-density along one line

------------------------ aborting loop because EDIFF is reached ----------------------------------------

 total charge

# of ion       s       p       d       f       tot
    1        2.000   5.701   0.494   0.193   8.388
    2        2.000   5.701   0.494   0.193   8.388
    3        2.000   5.701   0.496   0.192   8.389
    4        2.000   5.701   0.496   0.192   8.389
    5        0.362   0.582   4.866   0.000   5.811
    6        0.423   0.633   8.313   0.000   9.369
    7        0.403   0.600   8.317   0.000   9.321
    8        0.423   0.633   8.313   0.000   9.369
    9        1.562   3.458   0.000   0.000   5.021
   10        1.562   3.433   0.000   0.000   4.994
   11        1.562   3.433   0.000   0.000   4.995
   12        1.562   3.458   0.000   0.000   5.021
   13        1.562   3.459   0.000   0.000   5.021
   14        1.562   3.443   0.000   0.000   5.005
   15        1.562   3.459   0.000   0.000   5.021
   16        1.562   3.430   0.000   0.000   4.992
   17        1.562   3.459   0.000   0.000   5.021
   18        1.562   3.432   0.000   0.000   4.994
   19        1.562   3.459   0.000   0.000   5.021
   20        1.562   3.439   0.000   0.000   5.001
tot         28.353  66.615  31.791   0.771 127.530

 magnetization (x)

[...]

  FORCE on cell =-STRESS in cart. coord.  units (eV):
  Direction    XX          YY          ZZ          XY          YZ          ZX
  Alpha Z   661.61185   661.61185   661.61185
  Ewald   -3587.25116 -3587.25116 -3620.43700     0.00000    -0.00000    -0.00000
  Hartree   853.68258   853.68256   826.80040     0.00000    -0.00000    -0.00002
  E(xc)    -718.05795  -718.05794  -718.03560    -0.00000     0.00000    -0.00002
  Local    -548.90019  -548.90029  -488.42427    -0.00000     0.00000    -0.00042
  n-local   290.55796   290.51814   290.63607     1.39248     0.21664    -0.06443
  augment   471.53433   471.53539   471.39064    -0.00000     0.00000     0.00126
  Kinetic  2576.59984  2576.80558  2575.77982     5.45603    -0.67801     0.23897
  Fock        0.00000     0.00000     0.00000     0.00000     0.00000     0.00000
  Total      -0.13931    -0.13931    -0.67809     0.00000     0.00000    -0.00000
  in kB      -0.96967    -0.96967    -4.72000     0.00000     0.00000    -0.00000

 VOLUME and BASIS-vectors are now :
  energy-cutoff  :      520.00
  volume of cell :      230.17
      direct lattice vectors                 reciprocal lattice vectors
     3.857928025 -3.857928025  0.000000000     0.129603247 -0.129603247  0.064662248
     3.857928025  3.857928025  0.000000000     0.129603247  0.129603247  0.064662248
    -3.857928025  0.000000000  7.732487071     0.000000000  0.000000000  0.129324497

  length of vectors
     5.455934135  5.455934135  8.641467754     0.194358457  0.194358457  0.129324497

 FORCES acting on ions
    electron-ion (+dipol)            ewald-force                    non-local-force                 convergence-correction
   -.293E-05 0.266E-05 -.508E+02   -.233E-10 0.701E-11 0.506E+02   0.000E+00 -.130E-17 0.220E+00   -.154E-05 -.483E-07 -.924E-02
   0.293E-05 -.266E-05 0.508E+02   0.233E-10 -.703E-11 -.506E+02   0.000E+00 0.000E+00 -.220E+00   0.154E-05 0.483E-07 0.924E-02
   -.293E-05 -.266E-05 -.508E+02   -.233E-10 -.699E-11 0.506E+02   0.000E+00 0.130E-17 0.220E+00   -.154E-05 0.483E-07 -.924E-02
   0.293E-05 0.266E-05 0.508E+02   0.233E-10 0.699E-11 -.506E+02   0.867E-18 -.867E-18 -.220E+00   0.154E-05 -.483E-07 0.924E-02
   -.786E-12 0.981E-12 0.258E-11   -.852E-13 0.929E-15 -.528E-13   0.000E+00 0.000E+00 0.000E+00   -.244E-13 0.125E-13 0.341E-12
   -.683E-04 0.346E-12 0.136E+02   -.674E-11 0.574E-13 -.131E+02   -.520E-17 -.867E-18 -.485E+00   -.171E-06 -.605E-13 0.356E-02
   0.349E-11 0.133E-11 0.239E-11   -.567E-13 0.680E-15 -.937E-13   -.106E-19 -.678E-20 0.000E+00   -.296E-13 -.649E-14 0.539E-12
   0.683E-04 -.403E-11 -.136E+02   0.654E-11 0.286E-13 0.131E+02   0.520E-17 0.867E-18 0.485E+00   0.171E-06 -.305E-13 -.356E-02
   -.104E-04 -.182E-11 -.552E+02   0.150E-10 -.328E-13 0.509E+02   -.555E-16 0.000E+00 0.431E+01   -.863E-07 0.610E-15 -.199E-01
   0.325E-05 0.681E-13 0.175E+02   -.149E-10 0.184E-13 -.176E+02   0.000E+00 0.000E+00 0.935E-01   -.525E-07 0.142E-13 0.329E-02
   -.325E-05 0.549E-12 -.175E+02   0.149E-10 -.260E-13 0.176E+02   0.000E+00 0.000E+00 -.935E-01   0.525E-07 -.205E-14 -.329E-02
   0.104E-04 0.125E-11 0.552E+02   -.150E-10 0.258E-13 -.509E+02   0.833E-16 0.000E+00 -.431E+01   0.863E-07 0.798E-14 0.199E-01
   0.448E-12 -.371E+02 0.679E-12   -.339E-13 0.324E+02 0.163E-13   0.564E-17 0.464E+01 0.217E-18   0.253E-13 -.173E-01 0.285E-12
   0.486E-12 -.162E-11 0.129E-11   -.136E-14 -.244E-13 -.229E-13   0.271E-19 0.271E-19 -.163E-18   0.112E-13 0.154E-12 -.325E-12
   0.118E-11 0.371E+02 -.694E-11   -.122E-13 -.324E+02 0.257E-13   0.119E-17 -.464E+01 0.651E-18   -.286E-13 0.173E-01 0.287E-12
   0.221E-11 0.986E-12 -.318E-12   -.269E-14 -.484E-13 -.652E-13   0.000E+00 0.136E-19 0.542E-19   0.582E-14 -.745E-13 -.322E-12
   -.371E+02 0.927E-12 0.702E-06   0.324E+02 -.188E-13 0.332E-12   0.464E+01 0.000E+00 0.434E-18   -.173E-01 0.797E-14 -.421E-07
   -.422E-12 -.716E-12 0.121E-11   0.474E-13 0.196E-13 -.888E-14   0.542E-19 0.271E-19 0.163E-18   0.927E-13 -.169E-13 -.273E-12
   0.371E+02 0.536E-12 -.702E-06   -.324E+02 0.126E-14 -.217E-12   -.464E+01 0.000E+00 0.000E+00   0.173E-01 -.329E-13 0.421E-07
   0.147E-11 -.594E-12 0.179E-11   0.130E-12 0.163E-13 0.462E-13   0.542E-19 0.542E-19 0.271E-18   -.113E-12 -.375E-13 -.306E-12
   0.153E-10 -.296E-11 -.101E-10   0.161E-13 -.876E-14 -.698E-14   -.888E-15 0.949E-19 0.163E-17   0.676E-13 0.379E-14 -.226E-12

 POSITION                                       TOTAL-FORCE (eV/Angst)
      0.00000      0.00000      3.84220        -0.000000     -0.000000     -0.069221
      3.85793      0.00000      0.02405        -0.000000      0.000000      0.069221
      3.85793      0.00000      3.84220        -0.000000      0.000000     -0.069221
     -0.00000      0.00000      0.02405         0.000000     -0.000000      0.069221
      1.92896     -1.92896      5.79937        -0.000000     -0.000000      0.000000
      1.92896      1.92896      1.94046         0.000000     -0.000000      0.012791
      1.92896      1.92896      5.79937        -0.000000     -0.000000      0.000000
      1.92896     -1.92896      1.92578        -0.000000     -0.000000     -0.012791
      1.92896     -1.92896      3.89371        -0.000000     -0.000000     -0.049294
      1.92896      1.92896      7.72303        -0.000000     -0.000000      0.018264
      1.92896      1.92896      3.87570         0.000000     -0.000000     -0.018264
      1.92896     -1.92896      7.70502         0.000000     -0.000000      0.049294
     -1.92896      0.03380      5.79937         0.000000     -0.043055      0.000000
      5.78689      0.00000      1.93312         0.000000      0.000000      0.000000
      1.92896     -0.03380      5.79937        -0.000000      0.043055      0.000000
      1.92896      0.00000      1.93312         0.000000      0.000000      0.000000
      0.03380     -1.92896      5.79937        -0.043055     -0.000000      0.000000
      3.85793      1.92896      1.93312        -0.000000      0.000000      0.000000
     -0.03380      1.92896      5.79937         0.043055     -0.000000      0.000000
      3.85793     -1.92896      1.93312         0.000000     -0.000000      0.000000
    total drift:                                0.000000     -0.000000     -0.000000

  FREE ENERGIE OF THE ION-ELECTRON SYSTEM (eV)
  free  energy   TOTEN  =      -140.30990748 eV

  energy  without entropy=     -140.30990748  energy(sigma->0) =     -140.30990748

 total charge

[...]

 magnetization (x)

# of ion       s       p       d       f       tot
    1        0.001   0.000   0.006   0.003   0.010
    2        0.001   0.000   0.006   0.003   0.010
    3        0.001   0.001   0.006   0.003   0.010
    4        0.000   0.001   0.006   0.003   0.010
    5        0.025   0.034   3.176   0.000   3.234
    6        0.015   0.008   1.401   0.000   1.424
    7        0.006   0.000   1.522   0.000   1.527
    8        0.015   0.008   1.401   0.000   1.424
    9        0.004  -0.029   0.000   0.000  -0.025
   10        0.006  -0.094   0.000   0.000  -0.089
   11        0.006  -0.094   0.000   0.000  -0.089
   12        0.004  -0.029   0.000   0.000  -0.025
   13        0.004  -0.024   0.000   0.000  -0.020
   14        0.005  -0.080   0.000   0.000  -0.075
   15        0.004  -0.024   0.000   0.000  -0.020
   16        0.006  -0.093   0.000   0.000  -0.088
   17        0.004  -0.025   0.000   0.000  -0.021
   18        0.006  -0.091   0.000   0.000  -0.086
   19        0.004  -0.025   0.000   0.000  -0.021
   20        0.005  -0.085   0.000   0.000  -0.079
tot          0.122  -0.643   7.523   0.011   7.014

 BZINTS: Fermi energy:  7.530124;153.000000 electrons
         Band energy:-180.550492;  BLOECHL correction: -0.021151