 vasp.5.4.4.18Apr17-6-g9f103f2a35 (build Oct 03 2018 13:58:34) complex

 executed on             LinuxIFC date 2019.06.04  01:15:17

 INCAR:
 POTCAR:    PAW_PBE La 06Sep2000
 POTCAR:    PAW_PBE Mn 06Sep2000
 POTCAR:    PAW_PBE Ni 02Aug2007
 POTCAR:    PAW_PBE O 08Apr2002

 POTCAR:    PAW_PBE La 06Sep2000
   VRHFIN =La : [core=Kr4d]

   TITEL  = PAW_PBE La 06Sep2000
   POMASS =  138.900; ZVAL   =   11.000    mass and valenz
   ENMAX  =  219.292; ENMIN  =  164.469 eV

 POTCAR:    PAW_PBE Mn 06Sep2000
   VRHFIN =Mn: d6 s1

   TITEL  = PAW_PBE Mn 06Sep2000
   POMASS =   54.938; ZVAL   =    7.000    mass and valenz
   ENMAX  =  269.864; ENMIN  =  202.398 eV

 POTCAR:    PAW_PBE Ni 02Aug2007
   VRHFIN =Ni:

   TITEL  = PAW_PBE Ni 02Aug2007
   POMASS =   58.690; ZVAL   =   10.000    mass and valenz
   ENMAX  =  269.532; ENMIN  =  202.149 eV

 POTCAR:    PAW_PBE O 08Apr2002
   VRHFIN =O: s2p4

   TITEL  = PAW_PBE O 08Apr2002
   POMASS =   16.000; ZVAL   =    6.000    mass and valenz
   ENMAX  =  400.000; ENMIN  =  300.000 eV

 Optimization of the real space projectors (new method)

 maximal supplied QI-value         = 13.42
 optimisation between [QCUT,QGAM] = [ 11.67, 23.35] = [ 38.16,152.62] Ry
 Optimized for a Real-space Cutoff    1.63 Angstroem

   l    n(q)    QCUT    max X(q) W(low)/X(q) W(high)/X(q)  e(spline)
   0     11    11.673    13.882    0.27E-04    0.79E-05    0.11E-06
   0     11    11.673    12.184    0.39E-04    0.13E-04    0.19E-06
   1     11    11.673     4.523    0.73E-05    0.76E-05    0.12E-06
   1     11    11.673     4.424    0.87E-05    0.13E-04    0.19E-06
   2     10    11.673    52.481    0.65E-04    0.36E-04    0.18E-06
   2     10    11.673    38.501    0.61E-04    0.33E-04    0.17E-06
   3     10    11.673    65.631    0.17E-03    0.14E-03    0.37E-06
   3     10    11.673    56.854    0.17E-03    0.14E-03    0.37E-06
 Optimization of the real space projectors (new method)

[...]

   l    n(q)    QCUT    max X(q) W(low)/X(q) W(high)/X(q)  e(spline)
   2      9    11.539    60.317    0.19E-03    0.47E-04    0.16E-06
   2      9    11.539    55.921    0.19E-03    0.48E-04    0.16E-06
   0     10    11.539    51.690    0.80E-04    0.50E-04    0.24E-06
   0     10    11.539    30.015    0.73E-04    0.45E-04    0.22E-06
   1     10    11.539    18.849    0.87E-04    0.16E-03    0.71E-07
   1     10    11.539    14.624    0.73E-04    0.13E-03    0.64E-07
 Optimization of the real space projectors (new method)

 maximal supplied QI-value         = 24.76
 optimisation between [QCUT,QGAM] = [ 11.64, 23.27] = [ 37.91,151.63] Ry
 Optimized for a Real-space Cutoff    1.14 Angstroem

   l    n(q)    QCUT    max X(q) W(low)/X(q) W(high)/X(q)  e(spline)
   0      8    11.635    20.381    0.10E-03    0.33E-03    0.24E-06
   0      8    11.635    15.268    0.11E-03    0.35E-03    0.26E-06
   1      7    11.635     5.964    0.24E-03    0.31E-03    0.30E-06
   1      7    11.635     5.382    0.22E-03    0.25E-03    0.26E-06
  PAW_PBE La 06Sep2000                  :
  PAW_PBE Mn 06Sep2000                  :
  PAW_PBE Ni 02Aug2007                  :
  PAW_PBE O 08Apr2002                   :

 POSCAR: SCEL4_4_1_1_0_3_3/2
  positions in direct lattice
  velocities in cartesian coordinates
 exchange correlation table for  LEXCH =        8
   RHO(1)=    0.500       N(1)  =     2000
   RHO(2)=  100.500       N(2)  =     4000

 ion  position               nearest neighbor table
   1  0.249  0.249  0.254-  15 2.70  19 2.70  11 2.70  20 2.73  16 2.73  12 2.73  12 2.73  16 2.73
                            20 2.73  13 2.76  17 2.76   9 2.76   7 3.30   6 3.33   6 3.33   6 3.33
   2  0.499  0.499  0.504-  14 2.70  18 2.70  10 2.70  15 2.73  19 2.73  11 2.73  11 2.73  19 2.73
                            15 2.73  16 2.76  20 2.76  12 2.76   8 3.31   7 3.33   7 3.33   7 3.33
   3  0.751  0.751  0.746-  15 2.70  19 2.70  11 2.70  18 2.73  14 2.73  10 2.73  10 2.73  18 2.73
                            14 2.73  13 2.76  17 2.76   9 2.76   6 3.31   7 3.33   7 3.33   7 3.33
   4  0.001  0.001  0.996-  14 2.70  18 2.70  10 2.70  17 2.73  13 2.73   9 2.73   9 2.73  17 2.73
                            13 2.73  16 2.76  20 2.76  12 2.76   7 3.30   8 3.33   8 3.33   8 3.33
   5  0.625  0.625  0.125-   9 1.90  12 1.90  13 1.90  16 1.90  17 1.90  20 1.90   1 3.35   1 3.35
                             4 3.35   4 3.35   1 3.35   4 3.35   3 3.38   2 3.38
   6  0.875  0.875  0.375-  12 1.96  16 1.96  20 1.96  11 1.96  19 1.96  15 1.96   3 3.31   1 3.33
                             1 3.33   1 3.33   2 3.35   2 3.35   2 3.35   4 3.38
   7  0.125  0.125  0.625-  10 1.90  11 1.90  14 1.90  15 1.90  18 1.90  19 1.90   1 3.30   4 3.30
                             3 3.33   3 3.33   2 3.33   2 3.33   3 3.33   2 3.33
   8  0.375  0.375  0.875-   9 1.96  13 1.96  17 1.96  10 1.96  14 1.96  18 1.96   2 3.31   4 3.33
                             4 3.33   4 3.33   3 3.35   3 3.35   3 3.35   1 3.38
   9  0.502  0.502  0.002-   5 1.90   8 1.96   4 2.73   4 2.73   1 2.76   3 2.76
  10  0.248  0.248  0.748-   7 1.90   8 1.96   4 2.70   2 2.70   3 2.73   3 2.73
  11  0.002  0.002  0.502-   7 1.90   6 1.96   1 2.70   3 2.70   2 2.73   2 2.73
  12  0.748  0.748  0.248-   5 1.90   6 1.96   1 2.73   1 2.73   4 2.76   2 2.76
  13  0.502  0.995  0.002-   5 1.90   8 1.96   4 2.73   4 2.73   1 2.76   3 2.76
  14  0.248  0.756  0.748-   7 1.90   8 1.96   4 2.70   2 2.70   3 2.73   3 2.73
  15  0.002  0.494  0.502-   7 1.90   6 1.96   1 2.70   3 2.70   2 2.73   2 2.73
  16  0.748  0.255  0.248-   5 1.90   6 1.96   1 2.73   1 2.73   4 2.76   2 2.76
  17  0.995  0.502  0.002-   5 1.90   8 1.96   4 2.73   4 2.73   1 2.76   3 2.76
  18  0.756  0.248  0.748-   7 1.90   8 1.96   4 2.70   2 2.70   3 2.73   3 2.73
  19  0.494  0.002  0.502-   7 1.90   6 1.96   1 2.70   3 2.70   2 2.73   2 2.73
  20  0.255  0.748  0.248-   5 1.90   6 1.96   1 2.73   1 2.73   4 2.76   2 2.76

  LATTYP: Found a trigonal (rhomboedric) cell.
 ALAT       =     9.4568010752
 COS(alpha) =     0.8336301917

  Lattice vectors:

 A1 = (  -3.8624424854,  -7.7197255615,  -3.8624424758)
 A2 = (  -7.7197255615,  -3.8624424854,  -3.8624424758)
 A3 = (  -3.8624424854,  -3.8624424854,  -7.7197255520)

Analysis of symmetry for initial positions (statically):
 Subroutine PRICEL returns:
 Original cell was already a primitive cell.

 Routine SETGRP: Setting up the symmetry group for a
 trigonal (rhombohedral) supercell.

 Subroutine GETGRP returns: Found 12 space group operations
 (whereof  6 operations were pure point group operations)
 out of a pool of 12 trial point group operations.

The static configuration has the point symmetry C_3v.
 The point group associated with its full space group is D_3d.

Analysis of symmetry for dynamics (positions and initial velocities):
 Subroutine PRICEL returns:
 Original cell was already a primitive cell.

[...]

The dynamic configuration has the point symmetry C_3v.
 The point group associated with its full space group is D_3d.

Analysis of structural, dynamic, and magnetic symmetry:
 Subroutine PRICEL returns:
 Original cell was already a primitive cell.

 Routine SETGRP: Setting up the symmetry group for a
 trigonal (rhombohedral) supercell.

 Subroutine GETGRP returns: Found 12 space group operations
 (whereof  6 operations were pure point group operations)
 out of a pool of 12 trial point group operations.

The magnetic configuration has the point symmetry C_3v.
 The point group associated with its full space group is D_3d.

 Subroutine INISYM returns: Found 12 space group operations
 (whereof  6 operations are pure point group operations),
 and found     1 'primitive' translations

 KPOINTS: Automatic mesh

Automatic generation of k-mesh.
 generate k-points for:    4    4    2
Space group operators:
 irot       det(A)        alpha          n_x          n_y          n_z        tau_x        tau_y        tau_z
    1     1.000000     0.000000     1.000000     0.000000     0.000000     0.000000     0.000000     0.000000
    2    -1.000000   180.000000    -0.707107     0.000000     0.707107     0.000000     0.000000     0.000000
    3     1.000000   120.000000     0.577350     0.577350     0.577350     0.000000     0.000000     0.000000
    4    -1.000000   180.000000     0.707107    -0.707107     0.000000     0.000000     0.000000     0.000000
    5     1.000000   120.000000    -0.577350    -0.577350    -0.577350     0.000000     0.000000     0.000000
    6    -1.000000   180.000000    -0.000000     0.707107    -0.707107     0.000000     0.000000     0.000000
    7    -1.000000     0.000000     1.000000     0.000000     0.000000     0.250000     0.250000    -0.750000
    8     1.000000   180.000000    -0.707107     0.000000     0.707107     0.250000     0.250000    -0.750000
    9    -1.000000   120.000000     0.577350     0.577350     0.577350     0.250000     0.250000    -0.750000
   10     1.000000   180.000000     0.707107    -0.707107     0.000000     0.250000     0.250000    -0.750000
   11    -1.000000   120.000000    -0.577350    -0.577350    -0.577350     0.250000     0.250000    -0.750000
   12     1.000000   180.000000    -0.000000     0.707107    -0.707107     0.250000     0.250000    -0.750000

 Subroutine IBZKPT returns following result:

 Found     11 irreducible k-points:

 Following reciprocal coordinates:
            Coordinates               Weight
  0.000000  0.000000  0.000000      1.000000
  0.250000  0.000000  0.000000      4.000000
  0.500000  0.000000  0.000000      3.000000
  0.250000  0.250000 -0.000000      2.000000
  0.500000  0.250000 -0.000000      8.000000
 -0.250000  0.250000  0.000000      2.000000
  0.500000  0.500000 -0.000000      3.000000
 -0.000000 -0.000000  0.500000      1.000000
  0.250000  0.000000  0.500000      4.000000
  0.250000  0.250000  0.500000      2.000000
 -0.250000  0.250000  0.500000      2.000000

 Following cartesian coordinates:
            Coordinates               Weight
  0.000000  0.000000  0.000000      1.000000
 -0.048604  0.016209  0.016209      4.000000
 -0.097208  0.032417  0.032417      3.000000
 -0.032395 -0.032395  0.032417      2.000000
 -0.080999 -0.016187  0.048626      8.000000
  0.064812 -0.064812  0.000000      2.000000
 -0.064791 -0.064791  0.064834      3.000000
  0.032374  0.032374  0.032374      1.000000
 -0.016230  0.048582  0.048582      4.000000
 -0.000022 -0.000022  0.064791      2.000000
  0.097186 -0.032439  0.032374      2.000000

 TETIRR: Found     48 inequivalent tetrahedra from      192

 SYSTEM =  final
 POSCAR =  SCEL4_4_1_1_0_3_3/2

 Startparameter for this run:
   NWRITE =      2    write-flag & timer
   PREC   = accura    normal or accurate (medium, high low for compatibility)
   ISTART =      0    job   : 0-new  1-cont  2-samecut
   ICHARG =      1    charge: 1-file 2-atom 10-const
   ISPIN  =      2    spin polarized calculation?
   LNONCOLLINEAR =      F non collinear calculations
   LSORBIT =      F    spin-orbit coupling
   INIWAV =      1    electr: 0-lowe 1-rand  2-diag
   LASPH  =      F    aspherical Exc in radial PAW
   METAGGA=      F    non-selfconsistent MetaGGA calc.

 Electronic Relaxation 1
[...]
  0.5458  0.4654  0.4654

[...]

--------------------------------------- Iteration      1(  19)  ---------------------------------------

atom =   1  type =  1  l = 0

[...]

  o =  0.7859  v =  0.0000  1.0000      0.0000  0.0000
  o =  0.7914  v =  1.0000  0.0000      0.0000  0.0000
atom =  20  type =  4  l = 0

 onsite density matrix

[...]

  0.7862

 occupancies and eigenvectors

  o =  0.7862  v =  0.0000  1.0000      0.0000  0.0000
  o =  0.7905  v =  1.0000  0.0000      0.0000  0.0000
 BZINTS: Fermi energy:  7.473830;153.000000 electrons
         Band energy:-177.994111;  BLOECHL correction: -0.000006

 eigenvalue-minimisations  :  4227
 total energy-change (2. order) :-0.6675572E-03  (-0.7478153E-03)
 number of electron     153.0000018 magnetization       7.0023198
 augmentation part       22.2568217 magnetization       5.7232011

 Free energy of the ion-electron system (eV)
  alpha Z        PSCENC =       662.70573874
  Ewald energy   TEWEN  =    -10791.24566544
  -Hartree energ DENC   =     -2542.05672749
  -exchange      EXHF   =         0.00000000
  -V(xc)+E(xc)   XCENC  =       551.66193286
  PAW double counting   =     13031.00022209   -13176.40278483
  entropy T*S    EENTRO =         0.00000000
  eigenvalues    EBANDS =      -177.99411084
  atomic energy  EATOM  =     12301.96174248
  Solvation  Ediel_sol  =         0.00000000
  free energy    TOTEN  =      -140.36965244 eV

  energy without entropy =     -140.36965244  energy(sigma->0) =     -140.36965244

 average (electrostatic) potential at core
  the test charge radii are     1.1480  1.0210  0.9791  0.7215
  (the norm of the test charge is              1.0000)
       1 -95.0659       2 -95.0179       3 -95.0179       4 -95.0659       5 -43.0602
       6 -83.6713       7 -84.1286       8 -83.6713       9 -66.6827      10 -66.6622
      11 -66.6622      12 -66.6827      13 -66.6827      14 -66.6622      15 -66.6622
      16 -66.6827      17 -66.6827      18 -66.6622      19 -66.6622      20 -66.6827

 E-fermi :   7.4738     XC(G=0): -11.8281     alpha+bet :-16.8719

[...]

 k-point     1 :       0.0000    0.0000    0.0000
  band No.  band energies     occupation
      1     -23.5782      1.00000
      2     -23.4866      1.00000
      3     -23.4728      1.00000
      4     -23.3817      1.00000
      5     -10.6903      1.00000
      6     -10.6022      1.00000
      7     -10.4929      1.00000
      8      -9.6056      1.00000
      9      -9.6056      1.00000
     10      -9.5850      1.00000
     11      -9.5850      1.00000
     12      -9.4620      1.00000
     13      -9.4478      1.00000
     14      -9.4478      1.00000
     15      -9.3432      1.00000
     16      -9.3432      1.00000
     17      -7.6245      1.00000
     18      -7.6244      1.00000
     19      -7.6227      1.00000
     20      -7.1083      1.00000
     21      -7.1083      1.00000
     22      -7.0848      1.00000
     23      -7.0414      1.00000
     24      -7.0414      1.00000
     25      -6.9913      1.00000
     26      -6.9913      1.00000
     27      -6.4621      1.00000
     28      -6.4457      1.00000
     29       0.4343      1.00000
     30       0.4343      1.00000
     31       0.8906      1.00000
     32       0.9693      1.00000
     33       0.9693      1.00000
     34       1.4939      1.00000
     35       1.6903      1.00000
     36       1.8060      1.00000
     37       1.8060      1.00000
     38       1.8295      1.00000
     39       1.8295      1.00000
     40       1.8443      1.00000
     41       1.9964      1.00000
     42       1.9964      1.00000
     43       2.2322      1.00000
     44       2.2322      1.00000
     45       2.5570      1.00000
     46       2.6090      1.00000
     47       2.7421      1.00000
     48       2.7421      1.00000
     49       2.7714      1.00000
     50       3.5189      1.00000
     51       3.5222      1.00000
     52       3.5222      1.00000
     53       3.8915      1.00000
     54       3.8915      1.00000
     55       5.2216      1.00000
     56       5.2983      1.00000
     57       5.2983      1.00000
     58       5.4564      1.00000
     59       5.5551      1.00000
     60       5.5551      1.00000
[...]
     84      10.2118      0.00000
     85      10.5387      0.00000
     86      10.5857      0.00000
     87      11.2156      0.00000
     88      11.2367      0.00000
     89      11.2736      0.00000
     90      11.3085      0.00000
     91      11.3276      0.00000
     92      11.3510      0.00000
     93      11.4079      0.00000
     94      11.4356      0.00000
     95      11.4614      0.00000
     96      11.5266      0.00000
     97      11.6177      0.00000
     98      11.6416      0.00000

[...]

 spin component 2

[...]

 k-point    11 :      -0.2500    0.2500    0.5000
  band No.  band energies     occupation
      1     -23.5109      1.00000
      2     -23.4903      1.00000
      3     -23.4545      1.00000
      4     -23.4265      1.00000
      5     -10.8930      1.00000
      6     -10.8679      1.00000
      7     -10.4487      1.00000
      8     -10.4351      1.00000
      9      -9.9615      1.00000
     10      -9.9282      1.00000
     11      -9.6530      1.00000
     12      -9.6266      1.00000
     13      -9.4267      1.00000
     14      -9.4210      1.00000
     15      -9.2169      1.00000
     16      -9.1607      1.00000
     17      -7.0645      1.00000
     18      -7.0478      1.00000
     19      -7.0278      1.00000
     20      -7.0115      1.00000
     21      -6.7944      1.00000
     22      -6.7810      1.00000
     23      -6.7760      1.00000
     24      -6.7337      1.00000
     25      -6.5741      1.00000
     26      -6.5732      1.00000
     27      -6.4055      1.00000
     28      -6.3724      1.00000
     29       1.8060      1.00000
     30       1.8199      1.00000
     31       2.0421      1.00000
     32       2.0660      1.00000
     33       2.2364      1.00000
     34       2.4772      1.00000
     35       2.5136      1.00000
     36       2.7840      1.00000
     37       2.8890      1.00000
     38       2.8899      1.00000
     39       2.9254      1.00000
     40       2.9863      1.00000
     41       3.0505      1.00000
     42       3.2831      1.00000
     43       3.3588      1.00000
     44       3.5397      1.00000
     45       3.5520      1.00000
     46       3.7138      1.00000
     47       3.7886      1.00000
     48       3.8760      1.00000
     49       3.9986      1.00000
     50       4.2437      1.00000
     51       4.4021      1.00000
     52       4.4509      1.00000
     53       5.1252      1.00000
     54       5.1730      1.00000
     55       5.3042      1.00000
     56       5.3335      1.00000
     57       5.5533      1.00000
     58       5.5906      1.00000
     59       5.7252      1.00000
     60       5.8206      1.00000
[...]
     84      11.2494      0.00000
     85      11.2844      0.00000
     86      11.3250      0.00000
     87      11.3704      0.00000
     88      11.4175      0.00000
     89      11.4273      0.00000
     90      11.4461      0.00000
     91      11.4656      0.00000
     92      11.4748      0.00000
     93      11.4904      0.00000
     94      11.5058      0.00000
     95      11.5214      0.00000
     96      11.5399      0.00000
     97      11.5609      0.00000
     98      11.5975      0.00000

 soft charge-density along one line, spin component           1
         0         1         2         3         4         5         6         7         8         9
 total charge-density along one line

 soft charge-density along one line, spin component           2
         0         1         2         3         4         5         6         7         8         9
 total charge-density along one line

------------------------ aborting loop because EDIFF is reached ----------------------------------------

 total charge

# of ion       s       p       d       f       tot
    1        2.000   5.702   0.497   0.194   8.392
    2        2.000   5.701   0.497   0.193   8.391
    3        2.000   5.701   0.497   0.193   8.391
    4        2.000   5.702   0.497   0.194   8.392
    5        0.361   0.583   4.860   0.000   5.804
    6        0.398   0.577   8.318   0.000   9.293
    7        0.457   0.721   8.329   0.000   9.507
    8        0.398   0.577   8.318   0.000   9.293
    9        1.561   3.464   0.000   0.000   5.025
   10        1.562   3.447   0.000   0.000   5.009
   11        1.562   3.447   0.000   0.000   5.009
   12        1.561   3.464   0.000   0.000   5.025
   13        1.562   3.432   0.000   0.000   4.993
   14        1.562   3.401   0.000   0.000   4.963
   15        1.562   3.401   0.000   0.000   4.963
   16        1.562   3.432   0.000   0.000   4.993
   17        1.561   3.486   0.000   0.000   5.047
   18        1.562   3.460   0.000   0.000   5.022
   19        1.562   3.460   0.000   0.000   5.022
   20        1.561   3.486   0.000   0.000   5.047
tot         28.355  66.645  31.812   0.773 127.585

 magnetization (x)

[...]

  FORCE on cell =-STRESS in cart. coord.  units (eV):
  Direction    XX          YY          ZZ          XY          YZ          ZX
  Alpha Z   662.70574   662.70574   662.70574
  Ewald   -3597.09162 -3597.09162 -3597.09161   -11.35889   -11.35889   -11.35889
  Hartree   847.20308   847.20308   847.20309   -11.08102   -11.08100   -11.08100
  E(xc)    -718.15137  -718.15137  -718.15136     0.00354     0.00354     0.00354
  Local    -533.65798  -533.65798  -533.65706    22.28687    22.28658    22.28658
  n-local   291.11767   289.65758   290.31297    -0.37920    -0.65698     0.84631
  augment   471.37287   471.37287   471.37222    -0.01184    -0.01195    -0.01195
  Kinetic  2571.10338  2583.10218  2577.03452     0.13522    -3.01128     3.53155
  Fock        0.00000     0.00000     0.00000     0.00000     0.00000     0.00000
  Total      -0.17641    -0.17641    -0.17641    -0.01074    -0.01074    -0.01074
  in kB      -1.22996    -1.22996    -1.22996    -0.07485    -0.07485    -0.07485

 VOLUME and BASIS-vectors are now :
  energy-cutoff  :      520.00
  volume of cell :      229.79
      direct lattice vectors                 reciprocal lattice vectors
    -3.857283076  0.000000000  3.857283076    -0.194415725  0.064834110  0.064834110
     0.000000000 -3.857283076  3.857283076     0.064834110 -0.194415725  0.064834110
     3.862442485  3.862442485  7.719725552     0.064747505  0.064747505  0.064747505

  length of vectors
     5.455022040  5.455022040  9.456801071     0.214952082  0.214952082  0.112145969

 FORCES acting on ions
    electron-ion (+dipol)            ewald-force                    non-local-force                 convergence-correction
   0.344E+02 0.344E+02 0.344E+02   -.342E+02 -.342E+02 -.342E+02   -.200E+00 -.200E+00 -.200E+00   0.632E-02 0.632E-02 0.632E-02
   0.333E+02 0.333E+02 0.333E+02   -.330E+02 -.330E+02 -.330E+02   -.206E+00 -.206E+00 -.206E+00   0.563E-02 0.563E-02 0.563E-02
   -.333E+02 -.333E+02 -.333E+02   0.330E+02 0.330E+02 0.330E+02   0.206E+00 0.206E+00 0.206E+00   -.563E-02 -.563E-02 -.563E-02
   -.344E+02 -.344E+02 -.344E+02   0.342E+02 0.342E+02 0.342E+02   0.200E+00 0.200E+00 0.200E+00   -.632E-02 -.632E-02 -.632E-02
   -.153E-11 0.178E-11 0.209E-11   0.000E+00 -.568E-13 -.746E-13   0.678E-20 -.847E-21 -.102E-19   -.187E-13 0.227E-13 0.272E-13
   0.291E+02 0.291E+02 0.291E+02   -.293E+02 -.293E+02 -.293E+02   0.189E+00 0.189E+00 0.189E+00   0.281E-02 0.281E-02 0.281E-02
   0.167E-11 0.229E-11 0.387E-11   0.320E-13 0.160E-12 -.711E-14   0.127E-19 -.102E-19 0.000E+00   -.154E-12 -.924E-13 -.185E-13
   -.291E+02 -.291E+02 -.291E+02   0.293E+02 0.293E+02 0.293E+02   -.189E+00 -.189E+00 -.189E+00   -.281E-02 -.281E-02 -.281E-02
   -.106E+02 -.106E+02 -.463E+02   0.107E+02 0.107E+02 0.419E+02   -.120E+00 -.120E+00 0.446E+01   -.222E-02 -.222E-02 -.333E-01
   -.108E+02 -.108E+02 -.373E+02   0.108E+02 0.108E+02 0.395E+02   -.626E-01 -.626E-01 -.229E+01   -.717E-03 -.717E-03 -.900E-03
   0.108E+02 0.108E+02 0.373E+02   -.108E+02 -.108E+02 -.395E+02   0.626E-01 0.626E-01 0.229E+01   0.717E-03 0.717E-03 0.900E-03
   0.106E+02 0.106E+02 0.463E+02   -.107E+02 -.107E+02 -.419E+02   0.120E+00 0.120E+00 -.446E+01   0.222E-02 0.222E-02 0.333E-01
   -.106E+02 -.463E+02 -.106E+02   0.107E+02 0.419E+02 0.107E+02   -.120E+00 0.446E+01 -.120E+00   -.222E-02 -.333E-01 -.222E-02
   -.108E+02 -.373E+02 -.108E+02   0.108E+02 0.395E+02 0.108E+02   -.626E-01 -.229E+01 -.626E-01   -.717E-03 -.900E-03 -.717E-03
   0.108E+02 0.373E+02 0.108E+02   -.108E+02 -.395E+02 -.108E+02   0.626E-01 0.229E+01 0.626E-01   0.717E-03 0.900E-03 0.717E-03
   0.106E+02 0.463E+02 0.106E+02   -.107E+02 -.419E+02 -.107E+02   0.120E+00 -.446E+01 0.120E+00   0.222E-02 0.333E-01 0.222E-02
   -.463E+02 -.106E+02 -.106E+02   0.419E+02 0.107E+02 0.107E+02   0.446E+01 -.120E+00 -.120E+00   -.333E-01 -.222E-02 -.222E-02
   -.373E+02 -.108E+02 -.108E+02   0.395E+02 0.108E+02 0.108E+02   -.229E+01 -.626E-01 -.626E-01   -.900E-03 -.717E-03 -.717E-03
   0.373E+02 0.108E+02 0.108E+02   -.395E+02 -.108E+02 -.108E+02   0.229E+01 0.626E-01 0.626E-01   0.900E-03 0.717E-03 0.717E-03
   0.463E+02 0.106E+02 0.106E+02   -.419E+02 -.107E+02 -.107E+02   -.446E+01 0.120E+00 0.120E+00   0.333E-01 0.222E-02 0.222E-02
   0.995E-11 0.308E-11 0.290E-10   0.568E-13 -.107E-13 0.426E-13   0.000E+00 -.416E-16 -.791E-15   0.153E-13 0.112E-12 0.305E-12

 POSITION                                       TOTAL-FORCE (eV/Angst)
      0.02383      0.02383      3.88112         0.047711      0.047711      0.047711
      0.02470      0.02470      7.73927         0.043434      0.043434      0.043434
     -0.01825     -0.01825     11.55360        -0.043434     -0.043434     -0.043434
      3.83990      3.83990      7.69718        -0.047711     -0.047711     -0.047711
     -1.92800     -1.92800      5.78657         0.000000      0.000000      0.000000
     -1.92765     -1.92765      9.64420        -0.003144     -0.003144     -0.003144
      1.93187      1.93187      5.78915         0.000000      0.000000      0.000000
      1.93410      1.93410      9.64866         0.003144      0.003144      0.003144
     -1.92636     -1.92636      3.88647        -0.022645     -0.022645      0.006867
      1.93348      1.93348      7.68739        -0.012436     -0.012436     -0.032774
      1.93025      1.93025      3.89090         0.012436      0.012436      0.032774
     -1.92963     -1.92963      7.68667         0.022645      0.022645     -0.006867
     -1.92636     -3.82810      5.78820        -0.022645      0.006867     -0.022645
      1.93348     -0.02717      9.64805        -0.012436     -0.032774     -0.012436
      1.93025      0.03362      5.78753         0.012436      0.032774      0.012436
     -1.92963     -0.02790      5.78494         0.022645     -0.006867      0.022645
     -3.82810     -1.92636      5.78820         0.006867     -0.022645     -0.022645
     -0.02717      1.93348      9.64805        -0.032774     -0.012436     -0.012436
      0.03362      1.93025      5.78753         0.032774      0.012436      0.012436
     -0.02790     -1.92963      5.78494        -0.006867      0.022645      0.022645
    total drift:                                0.000000      0.000000      0.000000

  FREE ENERGIE OF THE ION-ELECTRON SYSTEM (eV)
  free  energy   TOTEN  =      -140.36965244 eV

  energy  without entropy=     -140.36965244  energy(sigma->0) =     -140.36965244

 total charge

[...]

 magnetization (x)

# of ion       s       p       d       f       tot
    1        0.000   0.001   0.007   0.003   0.011
    2        0.000   0.000   0.004   0.002   0.007
    3        0.000   0.000   0.004   0.002   0.007
    4        0.001   0.001   0.007   0.003   0.011
    5        0.025   0.036   3.173   0.000   3.234
    6        0.009  -0.002   1.590   0.000   1.598
    7        0.017   0.017   1.047   0.000   1.081
    8        0.009  -0.002   1.590   0.000   1.598
    9        0.004  -0.021   0.000   0.000  -0.017
   10        0.005  -0.070   0.000   0.000  -0.065
   11        0.005  -0.070   0.000   0.000  -0.065
   12        0.004  -0.021   0.000   0.000  -0.017
   13        0.004  -0.029   0.000   0.000  -0.025
   14        0.005  -0.087   0.000   0.000  -0.082
   15        0.005  -0.087   0.000   0.000  -0.082
   16        0.004  -0.029   0.000   0.000  -0.025
   17        0.005  -0.015   0.000   0.000  -0.010
   18        0.006  -0.079   0.000   0.000  -0.073
   19        0.006  -0.079   0.000   0.000  -0.073
   20        0.005  -0.015   0.000   0.000  -0.010
tot          0.120  -0.549   7.423   0.009   7.004

 BZINTS: Fermi energy:  7.473830;153.000000 electrons
         Band energy:-177.994111;  BLOECHL correction: -0.000006