 vasp.5.4.4.18Apr17-6-g9f103f2a35 (build Oct 03 2018 13:58:34) complex

 executed on             LinuxIFC date 2019.06.04  02:00:38

 INCAR:
 POTCAR:    PAW_PBE La 06Sep2000
 POTCAR:    PAW_PBE Mn 06Sep2000
 POTCAR:    PAW_PBE Ni 02Aug2007
 POTCAR:    PAW_PBE O 08Apr2002

 POTCAR:    PAW_PBE La 06Sep2000
   VRHFIN =La : [core=Kr4d]

   TITEL  = PAW_PBE La 06Sep2000
   POMASS =  138.900; ZVAL   =   11.000    mass and valenz
   ENMAX  =  219.292; ENMIN  =  164.469 eV

 POTCAR:    PAW_PBE Mn 06Sep2000
   VRHFIN =Mn: d6 s1

   TITEL  = PAW_PBE Mn 06Sep2000
   POMASS =   54.938; ZVAL   =    7.000    mass and valenz
   ENMAX  =  269.864; ENMIN  =  202.398 eV

 POTCAR:    PAW_PBE Ni 02Aug2007
   VRHFIN =Ni:

   TITEL  = PAW_PBE Ni 02Aug2007
   POMASS =   58.690; ZVAL   =   10.000    mass and valenz
   ENMAX  =  269.532; ENMIN  =  202.149 eV

 POTCAR:    PAW_PBE O 08Apr2002
   VRHFIN =O: s2p4

   TITEL  = PAW_PBE O 08Apr2002
   POMASS =   16.000; ZVAL   =    6.000    mass and valenz
   ENMAX  =  400.000; ENMIN  =  300.000 eV

 Optimization of the real space projectors (new method)

 maximal supplied QI-value         = 13.42
 optimisation between [QCUT,QGAM] = [ 11.67, 23.35] = [ 38.16,152.62] Ry
 Optimized for a Real-space Cutoff    1.63 Angstroem

   l    n(q)    QCUT    max X(q) W(low)/X(q) W(high)/X(q)  e(spline)
   0     11    11.673    13.882    0.27E-04    0.79E-05    0.11E-06
   0     11    11.673    12.184    0.39E-04    0.13E-04    0.19E-06
   1     11    11.673     4.523    0.73E-05    0.76E-05    0.12E-06
   1     11    11.673     4.424    0.87E-05    0.13E-04    0.19E-06
   2     10    11.673    52.481    0.65E-04    0.36E-04    0.18E-06
   2     10    11.673    38.501    0.61E-04    0.33E-04    0.17E-06
   3     10    11.673    65.631    0.17E-03    0.14E-03    0.37E-06
   3     10    11.673    56.854    0.17E-03    0.14E-03    0.37E-06
 Optimization of the real space projectors (new method)

[...]

   l    n(q)    QCUT    max X(q) W(low)/X(q) W(high)/X(q)  e(spline)
   2      9    11.539    60.317    0.19E-03    0.47E-04    0.16E-06
   2      9    11.539    55.921    0.19E-03    0.48E-04    0.16E-06
   0     10    11.539    51.690    0.80E-04    0.50E-04    0.24E-06
   0     10    11.539    30.015    0.73E-04    0.45E-04    0.22E-06
   1     10    11.539    18.849    0.87E-04    0.16E-03    0.71E-07
   1     10    11.539    14.624    0.73E-04    0.13E-03    0.64E-07
 Optimization of the real space projectors (new method)

 maximal supplied QI-value         = 24.76
 optimisation between [QCUT,QGAM] = [ 11.64, 23.27] = [ 37.91,151.63] Ry
 Optimized for a Real-space Cutoff    1.14 Angstroem

   l    n(q)    QCUT    max X(q) W(low)/X(q) W(high)/X(q)  e(spline)
   0      8    11.635    20.381    0.10E-03    0.33E-03    0.24E-06
   0      8    11.635    15.268    0.11E-03    0.35E-03    0.26E-06
   1      7    11.635     5.964    0.24E-03    0.31E-03    0.30E-06
   1      7    11.635     5.382    0.22E-03    0.25E-03    0.26E-06
  PAW_PBE La 06Sep2000                  :
  PAW_PBE Mn 06Sep2000                  :
  PAW_PBE Ni 02Aug2007                  :
  PAW_PBE O 08Apr2002                   :

 POSCAR: SCEL4_4_1_1_0_3_3/0
  positions in direct lattice
  velocities in cartesian coordinates
 exchange correlation table for  LEXCH =        8
   RHO(1)=    0.500       N(1)  =     2000
   RHO(2)=  100.500       N(2)  =     4000

 ion  position               nearest neighbor table
   1  0.248  0.248  0.257-  15 2.71  19 2.71  11 2.71  16 2.76  20 2.76  12 2.76  12 2.76  20 2.76
                            16 2.76  13 2.81  17 2.81   9 2.81   5 3.32   8 3.36   8 3.36   8 3.36
   2  0.502  0.502  0.493-  16 2.71  20 2.71  12 2.71  19 2.76  15 2.76  11 2.76  11 2.76  19 2.76
                            15 2.76  14 2.81  18 2.81  10 2.81   7 3.32   8 3.36   8 3.36   8 3.36
   3  0.753  0.753  0.742-  15 2.70  19 2.70  11 2.70  18 2.76  14 2.76  10 2.76  10 2.76  18 2.76
                            14 2.76  13 2.82  17 2.82   9 2.82   8 3.32   5 3.36   5 3.36   5 3.36
   4  0.997  0.997  0.008-  16 2.70  20 2.70  12 2.70  17 2.76  13 2.76   9 2.76   9 2.76  17 2.76
                            13 2.76  18 2.82  14 2.82  10 2.82   8 3.32   7 3.36   7 3.36   7 3.36
   5  0.125  0.125  0.625-  10 1.92  14 1.92  18 1.92  11 1.93  15 1.93  19 1.93   1 3.32   3 3.36
                             3 3.36   3 3.36   2 3.40   2 3.40   2 3.40
   6  0.375  0.375  0.875-  10 1.99   9 1.99  13 1.99  14 1.99  17 1.99  18 1.99   4 3.41   4 3.41
                             3 3.41   3 3.41   3 3.41   4 3.41
   7  0.625  0.625  0.125-   9 1.92  13 1.92  17 1.92  12 1.93  16 1.93  20 1.93   2 3.32   4 3.36
                             4 3.36   4 3.36   1 3.40   1 3.40   1 3.40
   8  0.875  0.875  0.375-  11 1.98  12 1.98  15 1.98  16 1.98  19 1.98  20 1.98   3 3.32   4 3.32
                             2 3.36   2 3.36   1 3.36   1 3.36   1 3.36   2 3.36
   9  0.502  0.502  0.002-   7 1.92   6 1.99   4 2.76   4 2.76   1 2.81   3 2.82
  10  0.248  0.248  0.748-   5 1.92   6 1.99   3 2.76   3 2.76   2 2.81   4 2.82
  11  0.001  0.001  0.502-   5 1.93   8 1.98   3 2.70   1 2.71   2 2.76   2 2.76
  12  0.749  0.749  0.248-   7 1.93   8 1.98   4 2.70   2 2.71   1 2.76   1 2.76
  13  0.502  0.993  0.002-   7 1.92   6 1.99   4 2.76   4 2.76   1 2.81   3 2.82
  14  0.248  0.757  0.748-   5 1.92   6 1.99   3 2.76   3 2.76   2 2.81   4 2.82
  15  0.001  0.495  0.502-   5 1.93   8 1.98   3 2.70   1 2.71   2 2.76   2 2.76
  16  0.749  0.255  0.248-   7 1.93   8 1.98   4 2.70   2 2.71   1 2.76   1 2.76
  17  0.993  0.502  0.002-   7 1.92   6 1.99   4 2.76   4 2.76   1 2.81   3 2.82
  18  0.757  0.248  0.748-   5 1.92   6 1.99   3 2.76   3 2.76   2 2.81   4 2.82
  19  0.495  0.001  0.502-   5 1.93   8 1.98   3 2.70   1 2.71   2 2.76   2 2.76
  20  0.255  0.749  0.248-   7 1.93   8 1.98   4 2.70   2 2.71   1 2.76   1 2.76

  LATTYP: Found a trigonal (rhomboedric) cell.
 ALAT       =     9.5712948264
 COS(alpha) =     0.8334473697

  Lattice vectors:

 A1 = (  -3.9081332142,  -7.8142609561,  -3.9081332044)
 A2 = (  -7.8142609561,  -3.9081332142,  -3.9081332044)
 A3 = (  -3.9081332142,  -3.9081332142,  -7.8142609463)

Analysis of symmetry for initial positions (statically):
 Subroutine PRICEL returns:
 Original cell was already a primitive cell.

 Routine SETGRP: Setting up the symmetry group for a
 trigonal (rhombohedral) supercell.

 Subroutine GETGRP returns: Found 12 space group operations
 (whereof  6 operations were pure point group operations)
 out of a pool of 12 trial point group operations.

The static configuration has the point symmetry C_3v.
 The point group associated with its full space group is D_3d.

Analysis of symmetry for dynamics (positions and initial velocities):
 Subroutine PRICEL returns:
 Original cell was already a primitive cell.

[...]

The dynamic configuration has the point symmetry C_3v.
 The point group associated with its full space group is D_3d.

Analysis of structural, dynamic, and magnetic symmetry:
 Subroutine PRICEL returns:
 Original cell was already a primitive cell.

 Routine SETGRP: Setting up the symmetry group for a
 trigonal (rhombohedral) supercell.

 Subroutine GETGRP returns: Found 12 space group operations
 (whereof  6 operations were pure point group operations)
 out of a pool of 12 trial point group operations.

The magnetic configuration has the point symmetry C_3v.
 The point group associated with its full space group is D_3d.

 Subroutine INISYM returns: Found 12 space group operations
 (whereof  6 operations are pure point group operations),
 and found     1 'primitive' translations

 KPOINTS: Automatic mesh

Automatic generation of k-mesh.
 generate k-points for:    4    4    2
Space group operators:
 irot       det(A)        alpha          n_x          n_y          n_z        tau_x        tau_y        tau_z
    1     1.000000     0.000000     1.000000     0.000000     0.000000     0.000000     0.000000     0.000000
    2    -1.000000   180.000000    -0.707107     0.000000     0.707107     0.000000     0.000000     0.000000
    3     1.000000   120.000000     0.577350     0.577350     0.577350     0.000000     0.000000     0.000000
    4    -1.000000   180.000000     0.707107    -0.707107     0.000000     0.000000     0.000000     0.000000
    5     1.000000   120.000000    -0.577350    -0.577350    -0.577350     0.000000     0.000000     0.000000
    6    -1.000000   180.000000    -0.000000     0.707107    -0.707107     0.000000     0.000000     0.000000
    7    -1.000000     0.000000     1.000000     0.000000     0.000000     0.750000     0.750000    -2.250000
    8     1.000000   180.000000    -0.707107     0.000000     0.707107     0.750000     0.750000    -2.250000
    9    -1.000000   120.000000     0.577350     0.577350     0.577350     0.750000     0.750000    -2.250000
   10     1.000000   180.000000     0.707107    -0.707107     0.000000     0.750000     0.750000    -2.250000
   11    -1.000000   120.000000    -0.577350    -0.577350    -0.577350     0.750000     0.750000    -2.250000
   12     1.000000   180.000000    -0.000000     0.707107    -0.707107     0.750000     0.750000    -2.250000

 Subroutine IBZKPT returns following result:

 Found     11 irreducible k-points:

 Following reciprocal coordinates:
            Coordinates               Weight
  0.000000  0.000000  0.000000      1.000000
  0.250000  0.000000 -0.000000      4.000000
  0.500000  0.000000 -0.000000      3.000000
  0.250000  0.250000 -0.000000      2.000000
  0.500000  0.250000 -0.000000      8.000000
 -0.250000  0.250000  0.000000      2.000000
  0.500000  0.500000 -0.000000      3.000000
  0.000000  0.000000  0.500000      1.000000
  0.250000  0.000000  0.500000      4.000000
  0.250000  0.250000  0.500000      2.000000
 -0.250000  0.250000  0.500000      2.000000

 Following cartesian coordinates:
            Coordinates               Weight
  0.000000  0.000000  0.000000      1.000000
 -0.047999  0.016003  0.016003      4.000000
 -0.095999  0.032005  0.032005      3.000000
 -0.031997 -0.031997  0.032005      2.000000
 -0.079996 -0.015994  0.048008      8.000000
  0.064002 -0.064002  0.000000      2.000000
 -0.063994 -0.063994  0.064010      3.000000
  0.031989  0.031989  0.031989      1.000000
 -0.016011  0.047991  0.047991      4.000000
 -0.000008 -0.000008  0.063994      2.000000
  0.095991 -0.032013  0.031989      2.000000

 TETIRR: Found     48 inequivalent tetrahedra from      192

 SYSTEM =  final
 POSCAR =  SCEL4_4_1_1_0_3_3/0

 Startparameter for this run:
   NWRITE =      2    write-flag & timer
   PREC   = accura    normal or accurate (medium, high low for compatibility)
   ISTART =      0    job   : 0-new  1-cont  2-samecut
   ICHARG =      1    charge: 1-file 2-atom 10-const
   ISPIN  =      2    spin polarized calculation?
   LNONCOLLINEAR =      F non collinear calculations
   LSORBIT =      F    spin-orbit coupling
   INIWAV =      1    electr: 0-lowe 1-rand  2-diag
   LASPH  =      F    aspherical Exc in radial PAW
   METAGGA=      F    non-selfconsistent MetaGGA calc.

 Electronic Relaxation 1
   ENCUT  =  520.0 eV  38.22 Ry    6.18 a.u.  10.27 10.27 17.80*2*pi/ulx,y,z
[...]
  0.4929  0.5703

[...]

--------------------------------------- Iteration      1(  18)  ---------------------------------------

atom =   1  type =  1  l = 0

[...]

  o =  0.7848  v =  0.0000  1.0000      0.0000  0.0000
  o =  0.7901  v =  1.0000  0.0000      0.0000  0.0000
atom =  20  type =  4  l = 0

 onsite density matrix

[...]

  0.7848

 occupancies and eigenvectors

  o =  0.7848  v =  0.0000  1.0000      0.0000  0.0000
  o =  0.7901  v =  1.0000  0.0000      0.0000  0.0000
 BZINTS: Fermi energy:  7.952838;147.000000 electrons
         Band energy:-259.269659;  BLOECHL correction:  0.000000

 eigenvalue-minimisations  :  4444
 total energy-change (2. order) :-0.6292479E-03  (-0.9417520E-03)
 number of electron     146.9999987 magnetization      13.0000638
 augmentation part       16.4867773 magnetization       9.2974545

 Free energy of the ion-electron system (eV)
  alpha Z        PSCENC =       647.86288543
  Ewald energy   TEWEN  =     -9882.16524305
  -Hartree energ DENC   =     -2098.74581880
  -exchange      EXHF   =         0.00000000
  -V(xc)+E(xc)   XCENC  =       472.14430647
  PAW double counting   =     11843.90230866   -11856.94779723
  entropy T*S    EENTRO =         0.00000000
  eigenvalues    EBANDS =      -259.26965889
  atomic energy  EATOM  =     10980.12334246
  Solvation  Ediel_sol  =         0.00000000
  free energy    TOTEN  =      -153.09567496 eV

  energy without entropy =     -153.09567496  energy(sigma->0) =     -153.09567496

 average (electrostatic) potential at core
  the test charge radii are     1.1480  1.0210  0.9791  0.7215
  (the norm of the test charge is              1.0000)
       1 -95.8539       2 -95.8539       3 -95.8977       4 -95.8977       5 -43.0292
       6 -41.7059       7 -43.0292       8 -83.7808       9 -67.1814      10 -67.1814
      11 -67.0322      12 -67.0322      13 -67.1814      14 -67.1814      15 -67.0322
      16 -67.0322      17 -67.1814      18 -67.1814      19 -67.0322      20 -67.0322

 E-fermi :   7.9528     XC(G=0): -11.6198     alpha+bet :-16.1729

[...]

 k-point     1 :       0.0000    0.0000    0.0000
  band No.  band energies     occupation
      1     -24.3653      1.00000
      2     -24.2924      1.00000
      3     -24.2791      1.00000
      4     -24.2001      1.00000
      5     -11.0704      1.00000
      6     -11.0521      1.00000
      7     -10.9121      1.00000
      8     -10.0656      1.00000
      9     -10.0656      1.00000
     10     -10.0515      1.00000
     11     -10.0515      1.00000
     12      -9.9254      1.00000
     13      -9.9184      1.00000
     14      -9.9184      1.00000
     15      -9.8328      1.00000
     16      -9.8328      1.00000
     17      -8.3452      1.00000
     18      -8.3452      1.00000
     19      -8.3437      1.00000
     20      -7.8920      1.00000
     21      -7.8920      1.00000
     22      -7.8715      1.00000
     23      -7.7780      1.00000
     24      -7.7780      1.00000
     25      -7.7774      1.00000
     26      -7.7774      1.00000
     27      -7.2688      1.00000
     28      -7.2617      1.00000
     29       0.4110      1.00000
     30       0.4110      1.00000
     31       0.7078      1.00000
     32       1.2910      1.00000
     33       1.5100      1.00000
     34       1.7150      1.00000
     35       1.7150      1.00000
     36       1.7240      1.00000
     37       1.7240      1.00000
     38       1.7244      1.00000
     39       1.8836      1.00000
     40       1.8837      1.00000
     41       2.0231      1.00000
     42       2.0231      1.00000
     43       2.2192      1.00000
     44       2.2192      1.00000
     45       2.4134      1.00000
     46       2.4711      1.00000
     47       3.1202      1.00000
     48       3.1202      1.00000
     49       3.1253      1.00000
     50       3.1597      1.00000
     51       3.1597      1.00000
     52       3.1712      1.00000
     53       4.5233      1.00000
     54       4.5233      1.00000
     55       5.0514      1.00000
     56       5.0514      1.00000
     57       5.0893      1.00000
     58       5.1482      1.00000
     59       5.1498      1.00000
     60       5.1499      1.00000
[...]
     82       8.9355      0.00000
     83       9.8154      0.00000
     84       9.8136      0.00000
     85      10.4194      0.00000
     86      10.4333      0.00000
     87      10.4450      0.00000
     88      10.4697      0.00000
     89      10.5325      0.00000
     90      10.5497      0.00000
     91      10.5613      0.00000
     92      10.6105      0.00000
     93      10.6475      0.00000
     94      10.7031      0.00000
     95      10.7730      0.00000
     96      10.8016      0.00000

[...]

 spin component 2

[...]

 k-point    11 :      -0.2500    0.2500    0.5000
  band No.  band energies     occupation
      1     -24.3046      1.00000
      2     -24.2901      1.00000
      3     -24.2605      1.00000
      4     -24.2354      1.00000
      5     -11.2356      1.00000
      6     -11.2279      1.00000
      7     -10.8184      1.00000
      8     -10.8051      1.00000
      9     -10.3583      1.00000
     10     -10.3544      1.00000
     11     -10.0799      1.00000
     12     -10.0360      1.00000
     13      -9.9076      1.00000
     14      -9.8544      1.00000
     15      -9.6926      1.00000
     16      -9.6214      1.00000
     17      -7.8531      1.00000
     18      -7.8248      1.00000
     19      -7.8085      1.00000
     20      -7.7858      1.00000
     21      -7.5845      1.00000
     22      -7.5809      1.00000
     23      -7.5562      1.00000
     24      -7.4794      1.00000
     25      -7.3567      1.00000
     26      -7.3503      1.00000
     27      -7.2079      1.00000
     28      -7.1503      1.00000
     29       1.7112      1.00000
     30       1.8239      1.00000
     31       2.2239      1.00000
     32       2.2496      1.00000
     33       2.3182      1.00000
     34       2.3618      1.00000
     35       2.7154      1.00000
     36       3.0523      1.00000
     37       3.0653      1.00000
     38       3.1178      1.00000
     39       3.1402      1.00000
     40       3.2096      1.00000
     41       3.3152      1.00000
     42       3.4371      1.00000
     43       3.4707      1.00000
     44       3.5352      1.00000
     45       3.5639      1.00000
     46       3.6926      1.00000
     47       3.7414      1.00000
     48       3.7808      1.00000
     49       4.0025      1.00000
     50       4.1977      1.00000
     51       4.6394      1.00000
     52       4.6804      1.00000
     53       4.8759      1.00000
     54       4.9438      1.00000
     55       5.0928      1.00000
     56       5.2556      1.00000
     57       5.2859      1.00000
     58       5.3126      1.00000
     59       5.3760      1.00000
     60       5.3957      1.00000
[...]
     82      10.5895      0.00000
     83      10.6041      0.00000
     84      10.6312      0.00000
     85      10.6388      0.00000
     86      10.6451      0.00000
     87      10.6519      0.00000
     88      10.6562      0.00000
     89      10.6692      0.00000
     90      10.7062      0.00000
     91      10.7273      0.00000
     92      10.7524      0.00000
     93      10.7677      0.00000
     94      10.8060      0.00000
     95      10.8227      0.00000
     96      10.8676      0.00000

 soft charge-density along one line, spin component           1
         0         1         2         3         4         5         6         7         8         9
 total charge-density along one line

 soft charge-density along one line, spin component           2
         0         1         2         3         4         5         6         7         8         9
 total charge-density along one line

------------------------ aborting loop because EDIFF is reached ----------------------------------------

 total charge

# of ion       s       p       d       f       tot
    1        1.998   5.696   0.482   0.187   8.363
    2        1.998   5.696   0.482   0.187   8.363
    3        1.999   5.697   0.479   0.186   8.361
    4        1.999   5.697   0.479   0.186   8.361
    5        0.346   0.548   4.865   0.000   5.759
    6        0.285   0.411   4.946   0.000   5.642
    7        0.346   0.548   4.865   0.000   5.759
    8        0.387   0.553   8.324   0.000   9.264
    9        1.564   3.456   0.000   0.000   5.020
   10        1.564   3.456   0.000   0.000   5.020
   11        1.560   3.461   0.000   0.000   5.021
   12        1.560   3.461   0.000   0.000   5.021
   13        1.563   3.437   0.000   0.000   5.000
   14        1.563   3.437   0.000   0.000   5.000
   15        1.560   3.431   0.000   0.000   4.990
   16        1.560   3.431   0.000   0.000   4.990
   17        1.564   3.478   0.000   0.000   5.042
   18        1.564   3.478   0.000   0.000   5.042
   19        1.560   3.483   0.000   0.000   5.043
   20        1.560   3.483   0.000   0.000   5.043
tot         28.099  66.337  24.922   0.747 120.105

 magnetization (x)

[...]

  FORCE on cell =-STRESS in cart. coord.  units (eV):
  Direction    XX          YY          ZZ          XY          YZ          ZX
  Alpha Z   647.86289   647.86289   647.86289
  Ewald   -3294.06418 -3294.06418 -3294.06418   -16.36455   -16.36454   -16.36454
  Hartree   699.29648   699.29648   699.29650   -16.19453   -16.19453   -16.19453
  E(xc)    -677.28585  -677.28585  -677.28583     0.00271     0.00270     0.00270
  Local    -373.49542  -373.49542  -373.49474    32.62914    32.62892    32.62892
  n-local   264.70523   262.96171   264.14282    -0.21049    -0.45773     0.55864
  augment   180.80278   180.80278   180.80295    -0.00394    -0.00343    -0.00343
  Kinetic  2546.94421  2560.70846  2551.49113    -0.70970    -3.92409     4.57382
  Fock        0.00000     0.00000     0.00000     0.00000     0.00000     0.00000
  Total       0.10152     0.10152     0.10152     0.01253     0.01253     0.01253
  in kB       0.68202     0.68202     0.68202     0.08417     0.08417     0.08417

 VOLUME and BASIS-vectors are now :
  energy-cutoff  :      520.00
  volume of cell :      238.49
      direct lattice vectors                 reciprocal lattice vectors
    -3.906127742  0.000000000  3.906127742    -0.191997798  0.064010215  0.064010215
     0.000000000 -3.906127742  3.906127742     0.064010215 -0.191997798  0.064010215
     3.908133214  3.908133214  7.814260946     0.063977368  0.063977368  0.063977368

  length of vectors
     5.524098829  5.524098829  9.571294822     0.212268155  0.212268155  0.110812052

 FORCES acting on ions
    electron-ion (+dipol)            ewald-force                    non-local-force                 convergence-correction
   0.394E+02 0.394E+02 0.394E+02   -.391E+02 -.391E+02 -.391E+02   -.280E+00 -.280E+00 -.280E+00   0.749E-02 0.749E-02 0.748E-02
   -.394E+02 -.394E+02 -.394E+02   0.391E+02 0.391E+02 0.391E+02   0.280E+00 0.280E+00 0.280E+00   -.749E-02 -.749E-02 -.748E-02
   -.450E+02 -.450E+02 -.450E+02   0.446E+02 0.446E+02 0.446E+02   0.333E+00 0.333E+00 0.333E+00   -.928E-02 -.928E-02 -.927E-02
   0.450E+02 0.450E+02 0.450E+02   -.446E+02 -.446E+02 -.446E+02   -.333E+00 -.333E+00 -.333E+00   0.928E-02 0.928E-02 0.927E-02
   -.239E+02 -.239E+02 -.239E+02   0.238E+02 0.238E+02 0.238E+02   0.714E-01 0.714E-01 0.714E-01   -.610E-02 -.610E-02 -.610E-02
   -.487E-12 -.234E-12 0.230E-12   -.107E-12 -.249E-13 -.533E-13   0.288E-19 -.102E-19 0.339E-19   0.289E-12 0.333E-12 0.284E-12
   0.239E+02 0.239E+02 0.239E+02   -.238E+02 -.238E+02 -.238E+02   -.714E-01 -.714E-01 -.714E-01   0.610E-02 0.610E-02 0.610E-02
   -.116E-11 0.259E-11 0.231E-11   0.853E-13 0.320E-13 -.462E-13   0.169E-19 0.169E-19 -.373E-19   -.331E-12 -.326E-12 -.303E-12
   0.144E+02 0.144E+02 0.379E+02   -.145E+02 -.145E+02 -.408E+02   0.140E+00 0.140E+00 0.285E+01   0.300E-02 0.300E-02 0.362E-01
   -.144E+02 -.144E+02 -.379E+02   0.145E+02 0.145E+02 0.408E+02   -.140E+00 -.140E+00 -.285E+01   -.300E-02 -.300E-02 -.362E-01
   -.130E+02 -.130E+02 -.500E+02   0.130E+02 0.130E+02 0.460E+02   -.780E-01 -.780E-01 0.394E+01   -.190E-02 -.190E-02 0.178E-01
   0.130E+02 0.130E+02 0.500E+02   -.130E+02 -.130E+02 -.460E+02   0.780E-01 0.780E-01 -.394E+01   0.190E-02 0.190E-02 -.178E-01
   0.144E+02 0.379E+02 0.144E+02   -.145E+02 -.408E+02 -.145E+02   0.140E+00 0.285E+01 0.140E+00   0.299E-02 0.362E-01 0.300E-02
   -.144E+02 -.379E+02 -.144E+02   0.145E+02 0.408E+02 0.145E+02   -.140E+00 -.285E+01 -.140E+00   -.299E-02 -.362E-01 -.300E-02
   -.130E+02 -.500E+02 -.130E+02   0.130E+02 0.460E+02 0.130E+02   -.780E-01 0.394E+01 -.780E-01   -.190E-02 0.178E-01 -.190E-02
   0.130E+02 0.500E+02 0.130E+02   -.130E+02 -.460E+02 -.130E+02   0.780E-01 -.394E+01 0.780E-01   0.190E-02 -.178E-01 0.190E-02
   0.379E+02 0.144E+02 0.144E+02   -.408E+02 -.145E+02 -.145E+02   0.285E+01 0.140E+00 0.140E+00   0.362E-01 0.299E-02 0.300E-02
   -.379E+02 -.144E+02 -.144E+02   0.408E+02 0.145E+02 0.145E+02   -.285E+01 -.140E+00 -.140E+00   -.362E-01 -.299E-02 -.300E-02
   -.500E+02 -.130E+02 -.130E+02   0.460E+02 0.130E+02 0.130E+02   0.394E+01 -.780E-01 -.780E-01   0.178E-01 -.190E-02 -.190E-02
   0.500E+02 0.130E+02 0.130E+02   -.460E+02 -.130E+02 -.130E+02   -.394E+01 0.780E-01 0.780E-01   -.178E-01 0.190E-02 0.190E-02
   0.367E-10 0.319E-10 -.528E-10   -.213E-13 -.107E-13 -.213E-13   0.178E-14 0.944E-15 -.389E-15   -.934E-13 -.171E-12 -.103E-12

 POSITION                                       TOTAL-FORCE (eV/Angst)
      0.03599      0.03599      3.94212         0.015626      0.015626      0.015626
     -0.03449     -0.03449      7.77777        -0.015626     -0.015626     -0.015626
     -0.03838     -0.03838     11.68001        -0.033715     -0.033715     -0.033715
     -3.86625     -3.86625      7.85214         0.033715      0.033715      0.033715
      1.95221      1.95221      5.85834         0.018562      0.018562      0.018562
      1.95482      1.95482      9.76707        -0.000000     -0.000000      0.000000
     -1.95071     -1.95071      5.86155        -0.018562     -0.018562     -0.018562
     -1.95231     -1.95231      9.76607        -0.000000     -0.000000      0.000000
     -1.95284     -1.95284      3.94470         0.020296      0.020296     -0.024727
      1.95434      1.95434      7.77519        -0.020296     -0.020296      0.024727
      1.95569      1.95569      3.93253        -0.015222     -0.015222     -0.037399
     -1.95418     -1.95418      7.78736         0.015222      0.015222      0.037399
     -1.95284     -3.86756      5.85942         0.020296     -0.024727      0.020296
      1.95434     -0.03707      9.76660        -0.020296      0.024727     -0.020296
      1.95569      0.02640      5.86181        -0.015222     -0.037399     -0.015222
     -1.95418     -0.02490      5.85807         0.015222      0.037399      0.015222
     -3.86756     -1.95284      5.85942        -0.024727      0.020296      0.020296
     -0.03707      1.95434      9.76660         0.024727     -0.020296     -0.020296
      0.02640      1.95569      5.86181        -0.037399     -0.015222     -0.015222
     -0.02490     -1.95418      5.85807         0.037399      0.015222      0.015222
    total drift:                                0.000000      0.000000     -0.000000

  FREE ENERGIE OF THE ION-ELECTRON SYSTEM (eV)
  free  energy   TOTEN  =      -153.09567496 eV

  energy  without entropy=     -153.09567496  energy(sigma->0) =     -153.09567496

 total charge

[...]

 magnetization (x)

# of ion       s       p       d       f       tot
    1        0.000   0.001   0.008   0.004   0.014
    2        0.000   0.001   0.008   0.004   0.014
    3        0.001   0.001   0.011   0.006   0.019
    4        0.001   0.001   0.011   0.006   0.019
    5        0.025   0.036   3.432   0.000   3.493
    6        0.021   0.019   4.072   0.000   4.113
    7        0.025   0.036   3.432   0.000   3.493
    8        0.008  -0.003   1.703   0.000   1.708
    9        0.005  -0.039   0.000   0.000  -0.034
   10        0.005  -0.039   0.000   0.000  -0.034
   11        0.005  -0.002   0.000   0.000   0.004
   12        0.005  -0.002   0.000   0.000   0.004
   13        0.004  -0.036   0.000   0.000  -0.032
   14        0.004  -0.036   0.000   0.000  -0.032
   15        0.005  -0.006   0.000   0.000  -0.002
   16        0.005  -0.006   0.000   0.000  -0.002
   17        0.006  -0.031   0.000   0.000  -0.025
   18        0.006  -0.031   0.000   0.000  -0.025
   19        0.006   0.003   0.000   0.000   0.008
   20        0.006   0.003   0.000   0.000   0.008
tot          0.144  -0.133  12.679   0.021  12.711

 BZINTS: Fermi energy:  7.952838;147.000000 electrons
         Band energy:-259.269659;  BLOECHL correction:  0.000000