 vasp.5.4.4.18Apr17-6-g9f103f2a35 (build Oct 03 2018 13:58:34) complex

 executed on             LinuxIFC date 2019.06.04  01:54:21

 INCAR:
 POTCAR:    PAW_PBE La 06Sep2000
 POTCAR:    PAW_PBE Mn 06Sep2000
 POTCAR:    PAW_PBE Ni 02Aug2007
 POTCAR:    PAW_PBE O 08Apr2002

 POTCAR:    PAW_PBE La 06Sep2000
   VRHFIN =La : [core=Kr4d]

   TITEL  = PAW_PBE La 06Sep2000
   POMASS =  138.900; ZVAL   =   11.000    mass and valenz
   ENMAX  =  219.292; ENMIN  =  164.469 eV

 POTCAR:    PAW_PBE Mn 06Sep2000
   VRHFIN =Mn: d6 s1

   TITEL  = PAW_PBE Mn 06Sep2000
   POMASS =   54.938; ZVAL   =    7.000    mass and valenz
   ENMAX  =  269.864; ENMIN  =  202.398 eV

 POTCAR:    PAW_PBE Ni 02Aug2007
   VRHFIN =Ni:

   TITEL  = PAW_PBE Ni 02Aug2007
   POMASS =   58.690; ZVAL   =   10.000    mass and valenz
   ENMAX  =  269.532; ENMIN  =  202.149 eV

 POTCAR:    PAW_PBE O 08Apr2002
   VRHFIN =O: s2p4

   TITEL  = PAW_PBE O 08Apr2002
   POMASS =   16.000; ZVAL   =    6.000    mass and valenz
   ENMAX  =  400.000; ENMIN  =  300.000 eV

 Optimization of the real space projectors (new method)

 maximal supplied QI-value         = 13.42
 optimisation between [QCUT,QGAM] = [ 11.67, 23.35] = [ 38.16,152.62] Ry
 Optimized for a Real-space Cutoff    1.63 Angstroem

   l    n(q)    QCUT    max X(q) W(low)/X(q) W(high)/X(q)  e(spline)
   0     11    11.673    13.882    0.27E-04    0.79E-05    0.11E-06
   0     11    11.673    12.184    0.39E-04    0.13E-04    0.19E-06
   1     11    11.673     4.523    0.73E-05    0.76E-05    0.12E-06
   1     11    11.673     4.424    0.87E-05    0.13E-04    0.19E-06
   2     10    11.673    52.481    0.65E-04    0.36E-04    0.18E-06
   2     10    11.673    38.501    0.61E-04    0.33E-04    0.17E-06
   3     10    11.673    65.631    0.17E-03    0.14E-03    0.37E-06
   3     10    11.673    56.854    0.17E-03    0.14E-03    0.37E-06
 Optimization of the real space projectors (new method)

[...]

   l    n(q)    QCUT    max X(q) W(low)/X(q) W(high)/X(q)  e(spline)
   2      9    11.539    60.317    0.19E-03    0.47E-04    0.16E-06
   2      9    11.539    55.921    0.19E-03    0.48E-04    0.16E-06
   0     10    11.539    51.690    0.80E-04    0.50E-04    0.24E-06
   0     10    11.539    30.015    0.73E-04    0.45E-04    0.22E-06
   1     10    11.539    18.849    0.87E-04    0.16E-03    0.71E-07
   1     10    11.539    14.624    0.73E-04    0.13E-03    0.64E-07
 Optimization of the real space projectors (new method)

 maximal supplied QI-value         = 24.76
 optimisation between [QCUT,QGAM] = [ 11.64, 23.27] = [ 37.91,151.63] Ry
 Optimized for a Real-space Cutoff    1.14 Angstroem

   l    n(q)    QCUT    max X(q) W(low)/X(q) W(high)/X(q)  e(spline)
   0      8    11.635    20.381    0.10E-03    0.33E-03    0.24E-06
   0      8    11.635    15.268    0.11E-03    0.35E-03    0.26E-06
   1      7    11.635     5.964    0.24E-03    0.31E-03    0.30E-06
   1      7    11.635     5.382    0.22E-03    0.25E-03    0.26E-06
  PAW_PBE La 06Sep2000                  :
  PAW_PBE Mn 06Sep2000                  :
  PAW_PBE Ni 02Aug2007                  :
  PAW_PBE O 08Apr2002                   :

 POSCAR: SCEL4_2_1_2_0_0_1/1
  positions in direct lattice
  velocities in cartesian coordinates
 exchange correlation table for  LEXCH =        8
   RHO(1)=    0.500       N(1)  =     2000
   RHO(2)=  100.500       N(2)  =     4000

 ion  position               nearest neighbor table
   1  0.500  0.500  0.997-  15 2.71  16 2.71  19 2.71  20 2.71  12 2.73  12 2.73  11 2.73  11 2.73
                            13 2.75  14 2.75  17 2.75  18 2.75   6 3.33   6 3.33   7 3.33   7 3.33
   2  0.000  0.000  0.503-  15 2.71  16 2.71  19 2.71  20 2.71  10 2.73  10 2.73   9 2.73   9 2.73
                            13 2.75  14 2.75  17 2.75  18 2.75   7 3.33   6 3.33   6 3.33   7 3.33
   3  0.500  0.500  0.503-  15 2.71  16 2.71  19 2.71  20 2.71  10 2.73  10 2.73   9 2.73   9 2.73
                            13 2.75  14 2.75  17 2.75  18 2.75   6 3.33   6 3.33   7 3.33   7 3.33
   4  0.000  0.000  0.997-  15 2.71  16 2.71  19 2.71  20 2.71  12 2.73  12 2.73  11 2.73  11 2.73
                            13 2.75  14 2.75  17 2.75  18 2.75   7 3.33   6 3.33   6 3.33   7 3.33
   5  0.000  0.500  0.250-  13 1.90  14 1.90  17 1.90  18 1.90   9 1.90  11 1.90   3 3.35   4 3.35
                             1 3.35   2 3.35   2 3.35   4 3.35   1 3.35   3 3.35
   6  0.500  0.000  0.750-  10 1.91  12 1.91  15 1.92  16 1.92  19 1.92  20 1.92   3 3.33   4 3.33
                             1 3.33   2 3.33   1 3.33   3 3.33   2 3.33   4 3.33
   7  0.000  0.500  0.750-  15 1.94  16 1.94  19 1.94  20 1.94   9 1.96  11 1.96   3 3.33   4 3.33
                             1 3.33   2 3.33   2 3.33   4 3.33   1 3.33   3 3.33
   8  0.500  0.000  0.250-  10 1.96  12 1.96  13 1.96  14 1.96  17 1.96  18 1.96   3 3.35   4 3.35
                             1 3.35   2 3.35   1 3.35   3 3.35   2 3.35   4 3.35
   9  0.000  0.500  0.496-   5 1.90   7 1.96   2 2.73   3 2.73   2 2.73   3 2.73
  10  0.500  0.000  0.503-   6 1.91   8 1.96   2 2.73   3 2.73   3 2.73   2 2.73
  11  0.000  0.500  0.004-   5 1.90   7 1.96   1 2.73   4 2.73   4 2.73   1 2.73
  12  0.500  0.000  0.997-   6 1.91   8 1.96   1 2.73   4 2.73   1 2.73   4 2.73
  13  0.754  0.746  0.250-   5 1.90   8 1.96   3 2.75   4 2.75   1 2.75   2 2.75
  14  0.246  0.254  0.250-   5 1.90   8 1.96   3 2.75   4 2.75   1 2.75   2 2.75
  15  0.749  0.751  0.750-   6 1.92   7 1.94   3 2.71   4 2.71   1 2.71   2 2.71
  16  0.251  0.249  0.750-   6 1.92   7 1.94   3 2.71   4 2.71   1 2.71   2 2.71
  17  0.754  0.254  0.250-   5 1.90   8 1.96   3 2.75   4 2.75   1 2.75   2 2.75
  18  0.246  0.746  0.250-   5 1.90   8 1.96   3 2.75   4 2.75   1 2.75   2 2.75
  19  0.749  0.249  0.750-   6 1.92   7 1.94   3 2.71   4 2.71   1 2.71   2 2.71
  20  0.251  0.751  0.750-   6 1.92   7 1.94   3 2.71   4 2.71   1 2.71   2 2.71

  LATTYP: Found a simple tetragonal cell.
 ALAT       =     5.4545077971
 C/A-ratio  =     1.4162321903

  Lattice vectors:

 A1 = (   3.8569194514,   3.8569194514,   0.0000000000)
 A2 = (   3.8569194514,  -3.8569194514,   0.0000000000)
 A3 = (   0.0000000000,   0.0000000000,  -7.7248495247)

Analysis of symmetry for initial positions (statically):
 Subroutine PRICEL returns:
 Original cell was already a primitive cell.

 Routine SETGRP: Setting up the symmetry group for a
 simple tetragonal supercell.

 Subroutine GETGRP returns: Found 16 space group operations
 (whereof  4 operations were pure point group operations)
 out of a pool of 16 trial point group operations.

The static configuration has the point symmetry C_2v.
 The point group associated with its full space group is D_4h.

Analysis of symmetry for dynamics (positions and initial velocities):
 Subroutine PRICEL returns:
 Original cell was already a primitive cell.

[...]

The dynamic configuration has the point symmetry C_2v.
 The point group associated with its full space group is D_4h.

Analysis of structural, dynamic, and magnetic symmetry:
 Subroutine PRICEL returns:
 Original cell was already a primitive cell.

 Routine SETGRP: Setting up the symmetry group for a
 simple tetragonal supercell.

 Subroutine GETGRP returns: Found 16 space group operations
 (whereof  4 operations were pure point group operations)
 out of a pool of 16 trial point group operations.

The magnetic configuration has the point symmetry C_2v.
 The point group associated with its full space group is D_4h.

 Subroutine INISYM returns: Found 16 space group operations
 (whereof  4 operations are pure point group operations),
 and found     1 'primitive' translations

 KPOINTS: Automatic mesh

Automatic generation of k-mesh.
 generate k-points for:    4    4    3
Space group operators:
 irot       det(A)        alpha          n_x          n_y          n_z        tau_x        tau_y        tau_z
    1     1.000000     0.000001     1.000000     0.000000     0.000000     0.000000     0.000000     0.000000
    2     1.000000   180.000000     0.000000     0.000000     1.000000     0.000000     0.000000     0.000000
    3    -1.000000   179.999999     0.707107    -0.707107     0.000000     0.000000     0.000000     0.000000
    4    -1.000000   179.999999     0.707107     0.707107     0.000000     0.000000     0.000000     0.000000
    5    -1.000000     0.000001     1.000000     0.000000     0.000000     0.000000     0.000000     0.500000
    6     1.000000    90.000000     0.000000     0.000000     1.000000     0.500000     0.500000     0.000000
    7    -1.000000    90.000000     0.000000     0.000000     1.000000     0.500000     0.500000     0.500000
    8    -1.000000   180.000000     0.000000     0.000000     1.000000     0.000000     0.000000     0.500000
    9     1.000000    90.000000     0.000000     0.000000    -1.000000     0.500000     0.500000     0.000000
   10    -1.000000    90.000000     0.000000     0.000000    -1.000000     0.500000     0.500000     0.500000
   11     1.000000   179.999999     0.707107    -0.707107     0.000000     0.000000     0.000000     0.500000
   12     1.000000   179.999999     1.000000     0.000000     0.000000     0.500000     0.500000     0.500000
   13    -1.000000   179.999999     1.000000     0.000000     0.000000     0.500000     0.500000     0.000000
   14     1.000000   179.999999     0.707107     0.707107     0.000000     0.000000     0.000000     0.500000
   15     1.000000   179.999999     0.000000     1.000000     0.000000     0.500000     0.500000     0.500000
   16    -1.000000   179.999999     0.000000     1.000000     0.000000     0.500000     0.500000     0.000000

 Subroutine IBZKPT returns following result:

 Found     12 irreducible k-points:

 Following reciprocal coordinates:
            Coordinates               Weight
  0.000000  0.000000  0.000000      1.000000
  0.250000  0.000000  0.000000      4.000000
  0.500000  0.000000  0.000000      2.000000
  0.250000  0.250000  0.000000      4.000000
  0.500000  0.250000  0.000000      4.000000
  0.500000  0.500000  0.000000      1.000000
  0.000000  0.000000  0.333333      2.000000
  0.250000  0.000000  0.333333      8.000000
  0.500000  0.000000  0.333333      4.000000
  0.250000  0.250000  0.333333      8.000000
  0.500000  0.250000  0.333333      8.000000
  0.500000  0.500000  0.333333      2.000000

 Following cartesian coordinates:
            Coordinates               Weight
  0.000000  0.000000  0.000000      1.000000
  0.032409  0.032409  0.000000      4.000000
  0.064819  0.064819  0.000000      2.000000
  0.064819  0.000000  0.000000      4.000000
  0.097228  0.032409  0.000000      4.000000
  0.129637  0.000000  0.000000      1.000000
  0.000000  0.000000 -0.043151      2.000000
  0.032409  0.032409 -0.043151      8.000000
  0.064819  0.064819 -0.043151      4.000000
  0.064819  0.000000 -0.043151      8.000000
  0.097228  0.032409 -0.043151      8.000000
  0.129637  0.000000 -0.043151      2.000000

 TETIRR: Found     74 inequivalent tetrahedra from      288

 SYSTEM =  final
 POSCAR =  SCEL4_2_1_2_0_0_1/1

 Startparameter for this run:
   NWRITE =      2    write-flag & timer
[...]
  0.5631  0.4288  0.4863

[...]

--------------------------------------- Iteration      1(  19)  ---------------------------------------

atom =   1  type =  1  l = 0

[...]

  o =  0.7859  v =  0.0000  1.0000      0.0000  0.0000
  o =  0.7914  v =  1.0000  0.0000      0.0000  0.0000
atom =  20  type =  4  l = 0

 onsite density matrix

[...]

  0.7859

 occupancies and eigenvectors

  o =  0.7859  v =  0.0000  1.0000      0.0000  0.0000
  o =  0.7914  v =  1.0000  0.0000      0.0000  0.0000
 BZINTS: Fermi energy:  7.456128;153.000000 electrons
         Band energy:-178.275507;  BLOECHL correction: -0.024334

 eigenvalue-minimisations  :  4535
 total energy-change (2. order) :-0.5714030E-03  (-0.6276521E-03)
 number of electron     153.0000079 magnetization       7.0002563
 augmentation part       22.2565340 magnetization       5.7421138

 Free energy of the ion-electron system (eV)
  alpha Z        PSCENC =       662.61239197
  Ewald energy   TEWEN  =    -10798.62936216
  -Hartree energ DENC   =     -2534.25334417
  -exchange      EXHF   =         0.00000000
  -V(xc)+E(xc)   XCENC  =       551.62554192
  PAW double counting   =     13024.49224389   -13169.88274333
  entropy T*S    EENTRO =         0.00000000
  eigenvalues    EBANDS =      -178.27550673
  atomic energy  EATOM  =     12301.96174248
  Solvation  Ediel_sol  =         0.00000000
  free energy    TOTEN  =      -140.34903613 eV

  energy without entropy =     -140.34903613  energy(sigma->0) =     -140.34903613

 average (electrostatic) potential at core
  the test charge radii are     1.1480  1.0210  0.9791  0.7215
  (the norm of the test charge is              1.0000)
       1 -95.0462       2 -95.0462       3 -95.0462       4 -95.0462       5 -43.0405
       6 -84.1410       7 -83.7768       8 -83.5799       9 -66.7631      10 -66.5872
      11 -66.7631      12 -66.5872      13 -66.6412      14 -66.6412      15 -66.7048
      16 -66.7048      17 -66.6412      18 -66.6412      19 -66.7048      20 -66.7048

 E-fermi :   7.4561     XC(G=0): -11.8279     alpha+bet :-16.8696

[...]

 k-point     1 :       0.0000    0.0000    0.0000
  band No.  band energies     occupation
      1     -23.5778      1.00000
      2     -23.5076      1.00000
      3     -23.4477      1.00000
      4     -23.3958      1.00000
      5     -11.0985      1.00000
      6     -10.6440      1.00000
      7     -10.0695      1.00000
      8     -10.0695      1.00000
      9      -9.8900      1.00000
     10      -9.5700      1.00000
     11      -9.4540      1.00000
     12      -9.4540      1.00000
     13      -9.3745      1.00000
     14      -9.3295      1.00000
     15      -9.3030      1.00000
     16      -9.2832      1.00000
     17      -7.6288      1.00000
     18      -7.6288      1.00000
     19      -7.6248      1.00000
     20      -7.0888      1.00000
     21      -7.0868      1.00000
     22      -7.0868      1.00000
     23      -6.9677      1.00000
     24      -6.9676      1.00000
     25      -6.8403      1.00000
     26      -6.5934      1.00000
     27      -6.5934      1.00000
     28      -6.2122      1.00000
     29       0.2893      1.00000
     30       0.3165      1.00000
     31       0.4479      1.00000
     32       0.5492      1.00000
     33       0.8738      1.00000
     34       0.9843      1.00000
     35       1.0872      1.00000
     36       1.8026      1.00000
     37       1.8026      1.00000
     38       1.8504      1.00000
     39       1.9335      1.00000
     40       1.9335      1.00000
     41       2.2488      1.00000
     42       2.2488      1.00000
     43       2.5298      1.00000
     44       2.7519      1.00000
     45       2.7519      1.00000
     46       2.9358      1.00000
     47       3.1816      1.00000
     48       3.2103      1.00000
     49       3.2103      1.00000
     50       3.5146      1.00000
     51       3.5256      1.00000
     52       3.5256      1.00000
     53       3.7013      1.00000
     54       4.3920      1.00000
     55       4.4549      1.00000
     56       4.5715      1.00000
     57       4.6675      1.00000
     58       5.1498      1.00000
     59       5.2694      1.00000
     60       5.5857      1.00000
[...]
     84      10.5227      0.00000
     85      10.5422      0.00000
     86      11.1206      0.00000
     87      11.1611      0.00000
     88      11.1889      0.00000
     89      11.2683      0.00000
     90      11.3091      0.00000
     91      11.3506      0.00000
     92      11.4273      0.00000
     93      11.4415      0.00000
     94      11.4888      0.00000
     95      11.5391      0.00000
     96      11.5448      0.00000
     97      11.5620      0.00000
     98      11.6144      0.00000

[...]

 spin component 2

[...]

 k-point    12 :       0.5000    0.5000    0.3333
  band No.  band energies     occupation
      1     -23.4884      1.00000
      2     -23.4884      1.00000
      3     -23.4582      1.00000
      4     -23.4582      1.00000
      5     -10.9997      1.00000
      6     -10.8914      1.00000
      7     -10.5963      1.00000
      8     -10.4721      1.00000
      9      -9.9853      1.00000
     10      -9.9853      1.00000
     11      -9.6546      1.00000
     12      -9.6546      1.00000
     13      -9.4881      1.00000
     14      -9.3936      1.00000
     15      -9.2376      1.00000
     16      -9.1016      1.00000
     17      -6.9472      1.00000
     18      -6.9090      1.00000
     19      -6.8831      1.00000
     20      -6.8607      1.00000
     21      -6.8606      1.00000
     22      -6.8445      1.00000
     23      -6.6854      1.00000
     24      -6.6854      1.00000
     25      -6.5564      1.00000
     26      -6.4891      1.00000
     27      -6.3341      1.00000
     28      -6.2901      1.00000
     29       1.8542      1.00000
     30       1.8543      1.00000
     31       1.9275      1.00000
     32       2.1003      1.00000
     33       2.4293      1.00000
     34       2.4397      1.00000
     35       2.7019      1.00000
     36       2.7140      1.00000
     37       2.7141      1.00000
     38       2.7312      1.00000
     39       2.7312      1.00000
     40       2.7582      1.00000
     41       3.1183      1.00000
     42       3.2506      1.00000
     43       3.2506      1.00000
     44       3.3907      1.00000
     45       3.5279      1.00000
     46       3.7286      1.00000
     47       3.7658      1.00000
     48       4.1132      1.00000
     49       4.1132      1.00000
     50       4.3442      1.00000
     51       4.4749      1.00000
     52       4.4750      1.00000
     53       4.8847      1.00000
     54       4.8847      1.00000
     55       5.1662      1.00000
     56       5.1662      1.00000
     57       5.4491      1.00000
     58       5.4491      1.00000
     59       5.6220      1.00000
     60       5.6367      1.00000
[...]
     84      11.2466      0.00000
     85      11.2921      0.00000
     86      11.3805      0.00000
     87      11.3990      0.00000
     88      11.4100      0.00000
     89      11.4273      0.00000
     90      11.4428      0.00000
     91      11.4588      0.00000
     92      11.4788      0.00000
     93      11.4913      0.00000
     94      11.4967      0.00000
     95      11.5102      0.00000
     96      11.5257      0.00000
     97      11.5372      0.00000
     98      11.5625      0.00000

 soft charge-density along one line, spin component           1
         0         1         2         3         4         5         6         7         8         9
 total charge-density along one line

 soft charge-density along one line, spin component           2
         0         1         2         3         4         5         6         7         8         9
 total charge-density along one line

------------------------ aborting loop because EDIFF is reached ----------------------------------------

 total charge

# of ion       s       p       d       f       tot
    1        2.000   5.702   0.495   0.194   8.390
    2        2.000   5.701   0.498   0.192   8.391
    3        2.000   5.702   0.495   0.194   8.390
    4        2.000   5.701   0.498   0.192   8.391
    5        0.363   0.586   4.865   0.000   5.815
    6        0.442   0.686   8.305   0.000   9.433
    7        0.411   0.607   8.328   0.000   9.345
    8        0.393   0.577   8.320   0.000   9.290
    9        1.562   3.461   0.000   0.000   5.023
   10        1.561   3.435   0.000   0.000   4.996
   11        1.562   3.461   0.000   0.000   5.023
   12        1.561   3.435   0.000   0.000   4.996
   13        1.562   3.469   0.000   0.000   5.030
   14        1.562   3.469   0.000   0.000   5.030
   15        1.563   3.441   0.000   0.000   5.003
   16        1.563   3.441   0.000   0.000   5.003
   17        1.561   3.455   0.000   0.000   5.016
   18        1.561   3.455   0.000   0.000   5.016
   19        1.562   3.430   0.000   0.000   4.992
   20        1.562   3.430   0.000   0.000   4.992
tot         28.350  66.641  31.802   0.772 127.565

 magnetization (x)

[...]

  FORCE on cell =-STRESS in cart. coord.  units (eV):
  Direction    XX          YY          ZZ          XY          YZ          ZX
  Alpha Z   662.61239   662.61239   662.61239
  Ewald   -3588.57528 -3588.57528 -3621.50797    -0.00000    -0.00000    -0.00000
  Hartree   853.90505   853.90505   826.11602    -0.00000    -0.00000     0.00000
  E(xc)    -718.13593  -718.13593  -718.11019     0.00000     0.00000    -0.00000
  Local    -548.64388  -548.64388  -488.04177     0.00000     0.00000    -0.00000
  n-local   290.39270   290.22658   290.47021    -1.80780    -0.05409     0.11867
  augment   471.44985   471.44985   471.36886    -0.00000    -0.00000    -0.00000
  Kinetic  2575.50119  2578.60190  2576.80095    -6.60188     0.65612    -0.00895
  Fock        0.00000     0.00000     0.00000     0.00000     0.00000     0.00000
  Total      -0.02661    -0.02661    -0.29148    -0.00000     0.00000    -0.00000
  in kB      -0.18552    -0.18552    -2.03198    -0.00000     0.00000    -0.00000

 VOLUME and BASIS-vectors are now :
  energy-cutoff  :      520.00
  volume of cell :      229.83
      direct lattice vectors                 reciprocal lattice vectors
     3.856919451  3.856919451  0.000000000     0.129637138  0.129637138  0.000000000
     3.856919451 -3.856919451  0.000000000     0.129637138 -0.129637138  0.000000000
     0.000000000  0.000000000 -7.724849525     0.000000000  0.000000000 -0.129452360

  length of vectors
     5.454507797  5.454507797  7.724849525     0.183334599  0.183334599  0.129452360

 FORCES acting on ions
    electron-ion (+dipol)            ewald-force                    non-local-force                 convergence-correction
   0.129E-11 -.131E-11 0.540E+02   0.799E-14 -.497E-13 -.537E+02   -.325E-18 0.108E-18 -.199E+00   0.336E-13 0.693E-14 0.545E-02
   -.116E-12 0.751E-13 -.540E+02   0.000E+00 0.284E-13 0.537E+02   -.325E-18 0.217E-18 0.199E+00   0.169E-13 -.621E-14 -.545E-02
   0.772E-12 -.808E-12 -.540E+02   -.313E-13 -.355E-13 0.537E+02   0.000E+00 -.217E-18 0.199E+00   0.271E-13 0.370E-15 -.545E-02
   0.482E-13 -.981E-13 0.540E+02   0.885E-14 0.142E-13 -.537E+02   -.108E-18 -.108E-18 -.199E+00   0.812E-14 -.127E-13 0.545E-02
   0.132E-12 -.123E-12 -.473E-13   0.835E-13 0.867E-13 0.512E-13   0.000E+00 -.169E-20 0.339E-20   -.231E-13 -.103E-13 0.194E-13
   0.734E-12 0.700E-12 0.473E-11   0.114E-12 0.292E-13 0.196E-13   0.000E+00 -.424E-21 0.000E+00   -.239E-13 0.152E-13 -.145E-12
   0.777E-12 -.749E-12 -.959E-12   -.853E-13 -.222E-15 0.147E-13   0.000E+00 0.000E+00 0.424E-21   -.570E-13 -.278E-13 -.120E-12
   0.742E-12 0.703E-12 0.241E-11   0.119E-12 0.455E-14 -.211E-13   0.529E-22 -.265E-21 0.339E-20   -.408E-13 0.925E-14 0.189E-13
   0.311E-12 -.292E-12 -.559E+02   0.000E+00 0.572E-14 0.516E+02   -.434E-18 0.000E+00 0.431E+01   -.103E-13 -.143E-13 -.193E-01
   0.183E-12 0.173E-12 -.380E+02   -.426E-13 -.678E-14 0.401E+02   -.217E-18 -.217E-18 -.230E+01   -.139E-13 0.427E-15 0.566E-02
   -.245E-13 0.399E-13 0.559E+02   0.284E-13 0.122E-13 -.516E+02   0.217E-18 0.217E-18 -.431E+01   -.314E-13 -.215E-13 0.193E-01
   0.179E-12 0.176E-12 0.380E+02   0.000E+00 -.698E-14 -.401E+02   0.651E-18 0.651E-18 0.230E+01   -.355E-14 0.850E-14 -.566E-02
   0.120E-11 -.355E+02 -.742E-11   0.736E-14 0.308E+02 0.588E-14   0.000E+00 0.477E+01 0.000E+00   -.805E-15 -.180E-01 0.396E-13
   0.107E-13 0.355E+02 -.330E-12   -.114E-13 -.308E+02 0.414E-13   0.000E+00 -.477E+01 0.000E+00   -.344E-13 0.180E-01 0.240E-13
   0.212E-11 -.121E+02 -.595E-11   0.677E-14 0.131E+02 0.154E-13   -.347E-17 -.121E+01 -.217E-18   -.321E-13 0.760E-02 -.718E-13
   0.240E-12 0.121E+02 0.551E-12   -.270E-13 -.131E+02 0.830E-14   0.347E-17 0.121E+01 0.217E-18   -.717E-14 -.760E-02 -.747E-13
   -.355E+02 0.210E-11 -.217E-05   0.308E+02 0.152E-13 0.352E-13   0.477E+01 0.000E+00 0.000E+00   -.180E-01 -.149E-14 0.268E-13
   0.355E+02 -.441E-12 0.217E-05   -.308E+02 0.117E-13 0.192E-13   -.477E+01 0.000E+00 0.000E+00   0.180E-01 -.156E-13 0.220E-13
   -.121E+02 -.257E-12 0.152E-05   0.131E+02 0.394E-13 0.240E-14   -.121E+01 -.694E-17 0.000E+00   0.760E-02 -.162E-13 -.811E-13
   0.121E+02 -.510E-12 -.152E-05   -.131E+02 -.188E-13 0.717E-14   0.121E+01 0.000E+00 0.000E+00   -.760E-02 0.759E-14 -.841E-13
   0.103E-10 0.305E-12 -.118E-10   -.533E-14 0.191E-13 -.639E-13   0.888E-15 -.694E-17 0.000E+00   -.937E-13 -.114E-12 -.317E-12

 POSITION                                       TOTAL-FORCE (eV/Angst)
      3.85692      0.00000     -7.70255         0.000000     -0.000000      0.053602
      0.00000      0.00000     -3.88473        -0.000000     -0.000000     -0.053602
      3.85692      0.00000     -3.88473         0.000000     -0.000000     -0.053602
      0.00000      0.00000     -7.70255        -0.000000     -0.000000      0.053602
      1.92846     -1.92846     -1.93121        -0.000000     -0.000000      0.000000
      1.92846      1.92846     -5.79364        -0.000000     -0.000000     -0.000000
      1.92846     -1.92846     -5.79364        -0.000000     -0.000000      0.000000
      1.92846      1.92846     -1.93121         0.000000     -0.000000      0.000000
      1.92846     -1.92846     -3.83408         0.000000     -0.000000     -0.001191
      1.92846      1.92846     -3.88745         0.000000     -0.000000     -0.172513
      1.92846     -1.92846     -0.02834        -0.000000     -0.000000      0.001191
      1.92846      1.92846     -7.69982         0.000000     -0.000000      0.172513
      5.78538      0.03311     -1.93121         0.000000     -0.003063      0.000000
      1.92846     -0.03311     -1.93121         0.000000      0.003063     -0.000000
      5.78538     -0.00863     -5.79364         0.000000     -0.228679     -0.000000
      1.92846      0.00863     -5.79364         0.000000      0.228679      0.000000
      3.89003      1.92846     -1.93121        -0.003063     -0.000000     -0.000000
      3.82381     -1.92846     -1.93121         0.003063     -0.000000      0.000000
      3.84829      1.92846     -5.79364        -0.228679     -0.000000      0.000000
      3.86555     -1.92846     -5.79364         0.228679     -0.000000      0.000000
    total drift:                                0.000000      0.000000     -0.000000

  FREE ENERGIE OF THE ION-ELECTRON SYSTEM (eV)
  free  energy   TOTEN  =      -140.34903613 eV

  energy  without entropy=     -140.34903613  energy(sigma->0) =     -140.34903613

 total charge

[...]

 magnetization (x)

# of ion       s       p       d       f       tot
    1        0.001   0.000   0.006   0.003   0.009
    2        0.000   0.001   0.006   0.002   0.009
    3        0.001   0.000   0.006   0.003   0.009
    4        0.000   0.001   0.006   0.002   0.009
    5        0.025   0.035   3.166   0.000   3.226
    6        0.017   0.018   1.149   0.000   1.184
    7        0.011   0.001   1.515   0.000   1.527
    8        0.005  -0.002   1.602   0.000   1.605
    9        0.004  -0.034   0.000   0.000  -0.029
   10        0.006  -0.074   0.000   0.000  -0.068
   11        0.004  -0.034   0.000   0.000  -0.029
   12        0.006  -0.074   0.000   0.000  -0.068
   13        0.005  -0.017   0.000   0.000  -0.012
   14        0.005  -0.017   0.000   0.000  -0.012
   15        0.006  -0.087   0.000   0.000  -0.081
   16        0.006  -0.087   0.000   0.000  -0.081
   17        0.003  -0.020   0.000   0.000  -0.017
   18        0.003  -0.020   0.000   0.000  -0.017
   19        0.004  -0.082   0.000   0.000  -0.078
   20        0.004  -0.082   0.000   0.000  -0.078
tot          0.117  -0.576   7.457   0.010   7.008

 BZINTS: Fermi energy:  7.456128;153.000000 electrons
         Band energy:-178.275507;  BLOECHL correction: -0.024334