 vasp.5.4.4.18Apr17-6-g9f103f2a35 (build Oct 03 2018 13:58:34) complex

 executed on             LinuxIFC date 2019.06.04  01:52:02

 INCAR:
 POTCAR:    PAW_PBE La 06Sep2000
 POTCAR:    PAW_PBE Mn 06Sep2000
 POTCAR:    PAW_PBE Ni 02Aug2007
 POTCAR:    PAW_PBE O 08Apr2002

 POTCAR:    PAW_PBE La 06Sep2000
   VRHFIN =La : [core=Kr4d]

   TITEL  = PAW_PBE La 06Sep2000
   POMASS =  138.900; ZVAL   =   11.000    mass and valenz
   ENMAX  =  219.292; ENMIN  =  164.469 eV

 POTCAR:    PAW_PBE Mn 06Sep2000
   VRHFIN =Mn: d6 s1

   TITEL  = PAW_PBE Mn 06Sep2000
   POMASS =   54.938; ZVAL   =    7.000    mass and valenz
   ENMAX  =  269.864; ENMIN  =  202.398 eV

 POTCAR:    PAW_PBE Ni 02Aug2007
   VRHFIN =Ni:

   TITEL  = PAW_PBE Ni 02Aug2007
   POMASS =   58.690; ZVAL   =   10.000    mass and valenz
   ENMAX  =  269.532; ENMIN  =  202.149 eV

 POTCAR:    PAW_PBE O 08Apr2002
   VRHFIN =O: s2p4

   TITEL  = PAW_PBE O 08Apr2002
   POMASS =   16.000; ZVAL   =    6.000    mass and valenz
   ENMAX  =  400.000; ENMIN  =  300.000 eV

 Optimization of the real space projectors (new method)

 maximal supplied QI-value         = 13.42
 optimisation between [QCUT,QGAM] = [ 11.67, 23.35] = [ 38.16,152.62] Ry
 Optimized for a Real-space Cutoff    1.63 Angstroem

   l    n(q)    QCUT    max X(q) W(low)/X(q) W(high)/X(q)  e(spline)
   0     11    11.673    13.882    0.27E-04    0.79E-05    0.11E-06
   0     11    11.673    12.184    0.39E-04    0.13E-04    0.19E-06
   1     11    11.673     4.523    0.73E-05    0.76E-05    0.12E-06
   1     11    11.673     4.424    0.87E-05    0.13E-04    0.19E-06
   2     10    11.673    52.481    0.65E-04    0.36E-04    0.18E-06
   2     10    11.673    38.501    0.61E-04    0.33E-04    0.17E-06
   3     10    11.673    65.631    0.17E-03    0.14E-03    0.37E-06
   3     10    11.673    56.854    0.17E-03    0.14E-03    0.37E-06
 Optimization of the real space projectors (new method)

[...]

   l    n(q)    QCUT    max X(q) W(low)/X(q) W(high)/X(q)  e(spline)
   2      9    11.539    60.317    0.19E-03    0.47E-04    0.16E-06
   2      9    11.539    55.921    0.19E-03    0.48E-04    0.16E-06
   0     10    11.539    51.690    0.80E-04    0.50E-04    0.24E-06
   0     10    11.539    30.015    0.73E-04    0.45E-04    0.22E-06
   1     10    11.539    18.849    0.87E-04    0.16E-03    0.71E-07
   1     10    11.539    14.624    0.73E-04    0.13E-03    0.64E-07
 Optimization of the real space projectors (new method)

 maximal supplied QI-value         = 24.76
 optimisation between [QCUT,QGAM] = [ 11.64, 23.27] = [ 37.91,151.63] Ry
 Optimized for a Real-space Cutoff    1.14 Angstroem

   l    n(q)    QCUT    max X(q) W(low)/X(q) W(high)/X(q)  e(spline)
   0      8    11.635    20.381    0.10E-03    0.33E-03    0.24E-06
   0      8    11.635    15.268    0.11E-03    0.35E-03    0.26E-06
   1      7    11.635     5.964    0.24E-03    0.31E-03    0.30E-06
   1      7    11.635     5.382    0.22E-03    0.25E-03    0.26E-06
  PAW_PBE La 06Sep2000                  :
  PAW_PBE Mn 06Sep2000                  :
  PAW_PBE Ni 02Aug2007                  :
  PAW_PBE O 08Apr2002                   :

 POSCAR: SCEL6_1_1_6_0_0_0/4
  positions in direct lattice
  velocities in cartesian coordinates
 exchange correlation table for  LEXCH =        8
   RHO(1)=    0.500       N(1)  =     2000
   RHO(2)=  100.500       N(2)  =     4000

 ion  position               nearest neighbor table
   1  0.000  0.000  0.168-  17 2.74  17 2.74  17 2.74  17 2.74  29 2.74  29 2.74  23 2.74  23 2.74
                            24 2.81  30 2.81  24 2.81  30 2.81  11 3.35  11 3.35  11 3.35  11 3.35
   2  0.000  0.000  0.327-  23 2.63  29 2.63  29 2.63  23 2.63  16 2.75  16 2.75  16 2.75  16 2.75
                            11 3.28  11 3.28  11 3.28  11 3.28
   3  0.000  0.000  0.502-  21 2.74  27 2.74  27 2.74  21 2.74  15 2.75  15 2.75  15 2.75  15 2.75
                            22 2.77  28 2.77  22 2.77  28 2.77  10 3.33  10 3.33  10 3.33  10 3.33
   4  0.000  0.000  0.658-  21 2.60  27 2.60  27 2.60  21 2.60  14 2.76  14 2.76  14 2.76  14 2.76
                            10 3.26  10 3.26  10 3.26  10 3.26   3 3.66
   5  0.000  0.000  0.834-  19 2.69  25 2.69  25 2.69  19 2.69  20 2.72  26 2.72  26 2.72  20 2.72
                            13 2.74  13 2.74  13 2.74  13 2.74   8 3.37   8 3.37   8 3.37   8 3.37
   6  0.000  0.000  0.010-  24 2.55  30 2.55  30 2.55  24 2.55  18 2.76  18 2.76  18 2.76  18 2.76
                            12 3.24  12 3.24  12 3.24  12 3.24
   7  0.500  0.500  0.749-  14 1.87  20 1.94  26 1.94  20 1.94  26 1.94  13 1.96   5 3.38   5 3.38
                             5 3.38   5 3.38
   8  0.500  0.500  0.918-  18 1.87  19 1.94  25 1.94  19 1.94  25 1.94  13 1.97   5 3.37   5 3.37
                             5 3.37   5 3.37
   9  0.500  0.500  0.416-  16 1.90  15 1.91  22 1.94  28 1.94  22 1.94  28 1.94   3 3.40   3 3.40
                             3 3.40   3 3.40
  10  0.500  0.500  0.583-  21 1.94  27 1.94  21 1.94  27 1.94  15 1.99  14 2.03   4 3.26   4 3.26
                             4 3.26   4 3.26   3 3.33   3 3.33   3 3.33   3 3.33
  11  0.500  0.500  0.250-  23 1.94  29 1.94  23 1.94  29 1.94  17 1.94  16 1.99   2 3.28   2 3.28
                             2 3.28   2 3.28   1 3.35   1 3.35   1 3.35   1 3.35
  12  0.500  0.500  0.084-  24 1.94  30 1.94  24 1.94  30 1.94  17 1.95  18 2.02   6 3.24   6 3.24
                             6 3.24   6 3.24   1 3.38   1 3.38   1 3.38   1 3.38
  13  0.500  0.500  0.833-   7 1.96   8 1.97   5 2.74   5 2.74   5 2.74   5 2.74
  14  0.500  0.500  0.669-   7 1.87  10 2.03   4 2.76   4 2.76   4 2.76   4 2.76
  15  0.500  0.500  0.498-   9 1.91  10 1.99   3 2.75   3 2.75   3 2.75   3 2.75
  16  0.500  0.500  0.335-   9 1.90  11 1.99   2 2.75   2 2.75   2 2.75   2 2.75
  17  0.500  0.500  0.167-  11 1.94  12 1.95   1 2.74   1 2.74   1 2.74   1 2.74
  18  0.500  0.500  0.998-   8 1.87  12 2.02   6 2.76   6 2.76   6 2.76   6 2.76
  19  0.500  0.000  0.914-   8 1.94   8 1.94   5 2.69   5 2.69
  20  0.500  0.000  0.752-   7 1.94   7 1.94   5 2.72   5 2.72
  21  0.500  0.000  0.584-  10 1.94  10 1.94   4 2.60   4 2.60   3 2.74   3 2.74
  22  0.500  0.000  0.418-   9 1.94   9 1.94   3 2.77   3 2.77
  23  0.500  0.000  0.251-  11 1.94  11 1.94   2 2.63   2 2.63   1 2.74   1 2.74
  24  0.500  0.000  0.081-  12 1.94  12 1.94   6 2.55   6 2.55   1 2.81   1 2.81
  25  0.000  0.500  0.914-   8 1.94   8 1.94   5 2.69   5 2.69
  26  0.000  0.500  0.752-   7 1.94   7 1.94   5 2.72   5 2.72
  27  0.000  0.500  0.584-  10 1.94  10 1.94   4 2.60   4 2.60   3 2.74   3 2.74
  28  0.000  0.500  0.418-   9 1.94   9 1.94   3 2.77   3 2.77
  29  0.000  0.500  0.251-  11 1.94  11 1.94   2 2.63   2 2.63   1 2.74   1 2.74
  30  0.000  0.500  0.081-  12 1.94  12 1.94   6 2.55   6 2.55   1 2.81   1 2.81

  LATTYP: Found a simple tetragonal cell.
 ALAT       =     3.8801104789
 C/A-ratio  =     6.0345921643

  Lattice vectors:

 A1 = (   3.8801104789,   0.0000000000,   0.0000000000)
 A2 = (   0.0000000000,   3.8801104789,   0.0000000000)
 A3 = (   0.0000000000,   0.0000000000,  23.4148842925)

Analysis of symmetry for initial positions (statically):
 Subroutine PRICEL returns:
 Original cell was already a primitive cell.

 Routine SETGRP: Setting up the symmetry group for a
 simple tetragonal supercell.

 Subroutine GETGRP returns: Found  8 space group operations
 (whereof  8 operations were pure point group operations)
 out of a pool of 16 trial point group operations.

The static configuration has the point symmetry C_4v.

Analysis of symmetry for dynamics (positions and initial velocities):
 Subroutine PRICEL returns:
 Original cell was already a primitive cell.

[...]

The dynamic configuration has the point symmetry C_4v.

Analysis of structural, dynamic, and magnetic symmetry:
 Subroutine PRICEL returns:
 Original cell was already a primitive cell.

 Routine SETGRP: Setting up the symmetry group for a
 simple tetragonal supercell.

 Subroutine GETGRP returns: Found  8 space group operations
 (whereof  8 operations were pure point group operations)
 out of a pool of 16 trial point group operations.

The magnetic configuration has the point symmetry C_4v.

 Subroutine INISYM returns: Found  8 space group operations
 (whereof  8 operations are pure point group operations),
 and found     1 'primitive' translations

 KPOINTS: Automatic mesh

Automatic generation of k-mesh.
 generate k-points for:    5    5    1
Space group operators:
 irot       det(A)        alpha          n_x          n_y          n_z        tau_x        tau_y        tau_z
    1     1.000000     0.000000     1.000000     0.000000     0.000000     0.000000     0.000000     0.000000
    2     1.000000    90.000000     0.000000     0.000000    -1.000000     0.000000     0.000000     0.000000
    3     1.000000   180.000000     0.000000     0.000000     1.000000     0.000000     0.000000     0.000000
    4     1.000000    90.000000     0.000000     0.000000     1.000000     0.000000     0.000000     0.000000
    5    -1.000000   179.999999     0.000000     1.000000     0.000000     0.000000     0.000000     0.000000
    6    -1.000000   180.000000     0.707107     0.707107     0.000000     0.000000     0.000000     0.000000
    7    -1.000000   180.000000     1.000000     0.000000     0.000000     0.000000     0.000000     0.000000
    8    -1.000000   180.000000     0.707107    -0.707107     0.000000     0.000000     0.000000     0.000000

 Subroutine IBZKPT returns following result:

 Found      6 irreducible k-points:

 Following reciprocal coordinates:
            Coordinates               Weight
  0.000000  0.000000  0.000000      1.000000
  0.200000  0.000000  0.000000      4.000000
  0.400000  0.000000  0.000000      4.000000
  0.200000  0.200000  0.000000      4.000000
  0.400000  0.200000  0.000000      8.000000
  0.400000  0.400000  0.000000      4.000000

 Following cartesian coordinates:
            Coordinates               Weight
  0.000000  0.000000  0.000000      1.000000
  0.051545  0.000000  0.000000      4.000000
  0.103090  0.000000  0.000000      4.000000
  0.051545  0.051545  0.000000      4.000000
  0.103090  0.051545  0.000000      8.000000
  0.103090  0.103090  0.000000      4.000000

 TETIRR: Found     31 inequivalent tetrahedra from      150

 SYSTEM =  final
 POSCAR =  SCEL6_1_1_6_0_0_0/4

 Startparameter for this run:
   NWRITE =      2    write-flag & timer
   PREC   = accura    normal or accurate (medium, high low for compatibility)
   ISTART =      0    job   : 0-new  1-cont  2-samecut
   ICHARG =      1    charge: 1-file 2-atom 10-const
   ISPIN  =      2    spin polarized calculation?
   LNONCOLLINEAR =      F non collinear calculations
   LSORBIT =      F    spin-orbit coupling
   INIWAV =      1    electr: 0-lowe 1-rand  2-diag
   LASPH  =      F    aspherical Exc in radial PAW
   METAGGA=      F    non-selfconsistent MetaGGA calc.

 Electronic Relaxation 1
   ENCUT  =  520.0 eV  38.22 Ry    6.18 a.u.   7.21  7.21 43.54*2*pi/ulx,y,z
   ENINI  =  520.0     initial cutoff
   ENAUG  =  605.4 eV  augmentation charge cutoff
[...]
     30      -7.4977      1.00000
     31      -7.4678      1.00000
     32      -7.3927      1.00000
     33      -7.3927      1.00000
     34      -7.3463      1.00000
     35      -7.3463      1.00000
     36      -7.2497      1.00000
     37      -7.2232      1.00000
     38      -7.2232      1.00000
     39      -7.1033      1.00000
     40      -6.8096      1.00000
     41      -6.7509      1.00000
     42      -6.5581      1.00000
     43       0.5285      1.00000
     44       0.7308      1.00000
     45       1.2506      1.00000
     46       1.9614      1.00000
     47       2.1015      1.00000
     48       2.1015      1.00000
     49       2.2630      1.00000
     50       2.2630      1.00000
     51       2.3257      1.00000
     52       2.3257      1.00000
     53       2.4551      1.00000
     54       2.5197      1.00000
     55       2.5197      1.00000
     56       2.5268      1.00000
     57       2.5268      1.00000
     58       2.6075      1.00000
     59       2.6518      1.00000
     60       2.6589      1.00000
[...]
    132      10.5725      0.00000
    133      10.7560      0.00000
    134      10.7941      0.00000
    135      10.8838      0.00000
    136      10.9296      0.00000
    137      10.9661      0.00000
    138      10.9854      0.00000
    139      11.0363      0.00000
    140      11.0681      0.00000
    141      11.1061      0.00000
    142      11.1190      0.00000
    143      11.1475      0.00000
    144      11.1823      0.00000
    145      11.2052      0.00000
    146      11.2174      0.00000

[...]

 spin component 2

[...]

 k-point     6 :       0.4000    0.4000    0.0000
  band No.  band energies     occupation
      1     -23.9751      1.00000
      2     -23.9270      1.00000
      3     -23.8824      1.00000
      4     -23.7549      1.00000
      5     -23.7316      1.00000
      6     -23.6888      1.00000
      7     -10.8011      1.00000
      8     -10.6312      1.00000
      9     -10.5299      1.00000
     10     -10.4239      1.00000
     11     -10.3834      1.00000
     12     -10.2828      1.00000
     13     -10.2563      1.00000
     14     -10.1937      1.00000
     15     -10.1105      1.00000
     16     -10.0311      1.00000
     17     -10.0048      1.00000
     18      -9.9777      1.00000
     19      -9.9422      1.00000
     20      -9.8668      1.00000
     21      -9.8140      1.00000
     22      -9.7856      1.00000
     23      -9.7001      1.00000
     24      -9.3300      1.00000
     25      -7.9759      1.00000
     26      -7.9110      1.00000
     27      -7.8402      1.00000
     28      -7.7614      1.00000
     29      -7.6990      1.00000
     30      -7.6184      1.00000
     31      -7.5386      1.00000
     32      -7.5232      1.00000
     33      -7.5127      1.00000
     34      -7.4401      1.00000
     35      -7.3215      1.00000
     36      -7.1932      1.00000
     37      -7.1696      1.00000
     38      -7.1408      1.00000
     39      -7.0530      1.00000
     40      -6.9925      1.00000
     41      -6.8729      1.00000
     42      -6.7641      1.00000
     43       0.9970      1.00000
     44       1.2107      1.00000
     45       1.2813      1.00000
     46       1.5974      1.00000
     47       1.6292      1.00000
     48       1.7873      1.00000
     49       1.9739      1.00000
     50       2.0585      1.00000
     51       2.3081      1.00000
     52       2.5554      1.00000
     53       2.5845      1.00000
     54       2.6581      1.00000
     55       2.6949      1.00000
     56       2.7048      1.00000
     57       2.7491      1.00000
     58       2.7661      1.00000
     59       2.9084      1.00000
     60       2.9539      1.00000
[...]
    132      11.0759      0.00000
    133      11.0887      0.00000
    134      11.0988      0.00000
    135      11.1280      0.00000
    136      11.1375      0.00000
    137      11.1552      0.00000
    138      11.1839      0.00000
    139      11.1925      0.00000
    140      11.2124      0.00000
    141      11.2210      0.00000
    142      11.2324      0.00000
    143      11.2555      0.00000
    144      11.2942      0.00000
    145      11.3073      0.00000
    146      11.3319      0.00000

 soft charge-density along one line, spin component           1
         0         1         2         3         4         5         6         7         8         9
 total charge-density along one line

 soft charge-density along one line, spin component           2
         0         1         2         3         4         5         6         7         8         9
 total charge-density along one line

------------------------ aborting loop because EDIFF is reached ----------------------------------------

 total charge

# of ion       s       p       d       f       tot
    1        2.000   5.695   0.475   0.183   8.352
    2        2.002   5.697   0.501   0.192   8.393
    3        2.000   5.698   0.485   0.188   8.371
    4        2.003   5.696   0.508   0.194   8.401
    5        2.002   5.703   0.504   0.196   8.405
    6        2.005   5.696   0.525   0.199   8.426
    7        0.334   0.509   4.864   0.000   5.707
    8        0.333   0.505   4.866   0.000   5.703
    9        0.337   0.520   4.864   0.000   5.721
   10        0.407   0.596   8.334   0.000   9.337
   11        0.416   0.619   8.325   0.000   9.359
   12        0.414   0.610   8.323   0.000   9.347
   13        1.562   3.465   0.000   0.000   5.027
   14        1.564   3.448   0.000   0.000   5.012
   15        1.561   3.455   0.000   0.000   5.016
   16        1.562   3.453   0.000   0.000   5.015
   17        1.559   3.435   0.000   0.000   4.994
   18        1.565   3.446   0.000   0.000   5.010
   19        1.559   3.521   0.000   0.000   5.080
   20        1.559   3.520   0.000   0.000   5.079
   21        1.556   3.507   0.000   0.000   5.063
   22        1.559   3.516   0.000   0.000   5.075
   23        1.557   3.515   0.000   0.000   5.073
   24        1.558   3.514   0.000   0.000   5.072
   25        1.571   3.383   0.000   0.000   4.955
   26        1.571   3.384   0.000   0.000   4.955
   27        1.560   3.420   0.000   0.000   4.980
   28        1.571   3.383   0.000   0.000   4.954
   29        1.563   3.382   0.000   0.000   4.945
   30        1.562   3.397   0.000   0.000   4.959
tot         42.372  99.688  42.574   1.152 185.786

 magnetization (x)

[...]

  FORCE on cell =-STRESS in cart. coord.  units (eV):
  Direction    XX          YY          ZZ          XY          YZ          ZX
  Alpha Z   979.61518   979.61518   979.61518
  Ewald   -4907.23669 -4907.23669 -5491.73674    -0.00000     0.00000    -0.00000
  Hartree  1396.26424  1396.26424   872.65792    -0.00000    -0.00000    -0.00000
  E(xc)   -1046.19178 -1046.19178 -1046.53200    -0.00000     0.00000    -0.00000
  Local   -1175.52032 -1175.52032   -65.24992     0.00000     0.00000    -0.00000
  n-local   420.49687   412.03862   416.82643    -2.67899     0.00222    -0.00029
  augment   488.40761   488.40761   488.20388     0.00000    -0.00000     0.00000
  Kinetic  3798.40759  3899.83719  3847.38311   -10.45512    -0.00038     0.00017
  Fock        0.00000     0.00000     0.00000     0.00000     0.00000     0.00000
  Total       0.72838     0.72838     1.16786     0.00000     0.00000     0.00000
  in kB       3.31046     3.31046     5.30788     0.00000     0.00000     0.00000

 VOLUME and BASIS-vectors are now :
  energy-cutoff  :      520.00
  volume of cell :      352.52
      direct lattice vectors                 reciprocal lattice vectors
     3.880110479  0.000000000  0.000000000     0.257724620  0.000000000  0.000000000
     0.000000000  3.880110479  0.000000000     0.000000000  0.257724620  0.000000000
     0.000000000  0.000000000 23.414884293     0.000000000  0.000000000  0.042707877

  length of vectors
     3.880110479  3.880110479 23.414884293     0.257724620  0.257724620  0.042707877

 FORCES acting on ions
    electron-ion (+dipol)            ewald-force                    non-local-force                 convergence-correction
   -.258E-14 -.194E-13 0.600E+02   0.321E-13 0.776E-14 -.594E+02   -.271E-19 0.000E+00 -.385E+00   -.375E-14 0.130E-13 -.407E-01
   -.613E-14 -.991E-13 -.235E+03   0.773E-14 -.736E-14 0.233E+03   -.542E-19 0.108E-18 0.158E+01   0.109E-15 -.119E-14 -.154E+00
   0.361E-14 0.546E-14 0.325E+02   0.307E-13 0.274E-14 -.327E+02   0.000E+00 -.203E-19 -.243E+00   -.505E-14 -.622E-14 0.292E+00
   -.152E-13 -.747E-14 -.260E+03   0.181E-13 0.759E-14 0.258E+03   0.000E+00 -.542E-19 0.203E+01   -.673E-15 -.401E-14 -.826E-01
   -.529E-14 -.196E-13 0.423E+02   -.289E-13 0.844E-14 -.420E+02   0.000E+00 0.000E+00 -.208E+00   -.188E-14 0.878E-14 -.124E+00
   0.231E-14 -.113E-12 0.352E+03   0.114E-13 0.205E-14 -.350E+03   0.000E+00 0.000E+00 -.252E+01   -.199E-13 -.229E-14 0.987E-01
   0.502E-13 0.758E-12 -.421E+02   0.817E-14 0.152E-13 0.415E+02   -.847E-21 0.000E+00 0.760E+00   0.333E-13 -.656E-14 -.848E-01
   0.433E-13 0.137E-11 0.843E+02   0.600E-14 0.186E-13 -.836E+02   0.000E+00 0.000E+00 -.802E+00   0.370E-13 0.203E-13 -.524E-02
   0.691E-13 0.131E-11 -.420E+02   -.284E-14 0.488E-14 0.418E+02   0.000E+00 0.000E+00 0.310E-01   0.254E-13 0.128E-13 0.715E-01
   0.275E-12 0.129E-11 -.691E+02   -.172E-13 -.124E-13 0.681E+02   0.424E-21 0.000E+00 0.808E+00   0.699E-13 0.129E-13 0.122E+00
   0.287E-12 0.279E-11 -.661E+02   -.236E-13 0.121E-13 0.646E+02   -.847E-21 0.000E+00 0.158E+01   0.846E-13 -.227E-13 -.102E+00
   0.310E-12 0.393E-12 0.138E+03   -.281E-13 -.169E-13 -.135E+03   0.000E+00 0.000E+00 -.233E+01   0.948E-13 0.325E-13 0.192E-01
   0.111E-12 0.592E-12 0.210E+02   0.225E-13 0.487E-16 -.206E+02   0.000E+00 0.102E-19 -.396E+00   0.341E-13 -.159E-13 -.813E-01
   0.113E-12 0.127E-11 -.127E+03   0.352E-15 0.600E-14 0.121E+03   0.678E-20 0.000E+00 0.642E+01   0.273E-13 -.130E-13 -.880E-01
   0.108E-12 0.138E-11 0.294E+02   -.490E-14 -.148E-14 -.250E+02   0.000E+00 0.000E+00 -.451E+01   0.438E-13 -.392E-14 0.243E+00
   0.110E-12 0.155E-11 -.132E+03   0.746E-14 0.143E-13 0.127E+03   0.000E+00 0.000E+00 0.493E+01   0.282E-13 -.145E-13 -.149E+00
   0.116E-12 0.631E-12 0.314E+02   -.225E-14 0.554E-15 -.314E+02   0.000E+00 -.635E-21 -.530E-01   0.302E-13 -.213E-13 -.208E-01
   0.109E-12 0.103E-11 0.176E+03   0.228E-13 0.278E-14 -.170E+03   0.000E+00 0.000E+00 -.629E+01   0.513E-13 -.293E-14 0.908E-01
   0.113E-12 -.329E-13 0.576E+02   -.832E-14 -.895E-14 -.569E+02   0.847E-21 0.000E+00 -.791E+00   0.373E-13 0.483E-15 -.178E-01
   0.111E-12 -.513E-13 -.226E+02   0.167E-14 -.148E-13 0.221E+02   0.424E-21 0.000E+00 0.544E+00   0.495E-13 0.296E-13 -.721E-01
   0.116E-12 -.275E-13 -.410E+02   -.874E-14 0.119E-13 0.401E+02   -.169E-20 -.169E-20 0.808E+00   0.385E-13 0.376E-13 0.718E-01
   0.111E-12 -.641E-13 -.344E+02   0.176E-14 -.379E-14 0.340E+02   0.000E+00 0.000E+00 0.406E+00   0.383E-13 0.154E-13 0.746E-01
   0.108E-12 0.106E-12 -.341E+02   -.967E-14 -.564E-14 0.329E+02   0.000E+00 0.339E-20 0.129E+01   0.531E-13 0.483E-13 -.614E-01
   0.112E-12 -.806E-13 0.772E+02   0.386E-14 0.140E-13 -.752E+02   0.000E+00 -.678E-20 -.201E+01   0.360E-13 0.227E-13 0.112E-01
   0.117E-14 0.436E-12 0.576E+02   -.636E-14 -.330E-14 -.569E+02   0.000E+00 0.000E+00 -.791E+00   -.150E-13 -.113E-13 -.178E-01
   0.289E-15 0.183E-12 -.226E+02   -.438E-14 0.181E-14 0.221E+02   -.847E-21 0.000E+00 0.544E+00   -.728E-14 -.263E-13 -.721E-01
   -.103E-13 0.136E-12 -.410E+02   0.171E-13 -.141E-13 0.401E+02   0.847E-21 0.000E+00 0.808E+00   0.260E-14 0.322E-14 0.718E-01
   -.373E-14 -.297E-12 -.344E+02   -.894E-14 0.541E-14 0.340E+02   -.339E-20 0.000E+00 0.406E+00   0.107E-14 0.360E-14 0.746E-01
   0.121E-14 0.980E-13 -.341E+02   -.402E-14 -.916E-15 0.329E+02   0.000E+00 0.000E+00 0.129E+01   -.133E-13 -.278E-13 -.614E-01
   -.406E-14 0.148E-12 0.772E+02   0.410E-14 0.861E-14 -.752E+02   0.000E+00 -.678E-20 -.201E+01   -.191E-13 -.939E-14 0.112E-01
   0.233E-11 0.147E-10 -.884E+00   0.376E-13 0.550E-13 0.171E-12   -.796E-19 0.316E-19 0.906E+00   0.731E-12 0.719E-13 0.174E-01

 POSITION                                       TOTAL-FORCE (eV/Angst)
      0.00000      0.00000      3.93886        -0.000000      0.000000      0.132321
      0.00000      0.00000      7.65200        -0.000000      0.000000     -0.091182
      0.00000      0.00000     11.75616        -0.000000      0.000000     -0.166536
      0.00000      0.00000     15.41118        -0.000000      0.000000      0.172170
      0.00000      0.00000     19.52536         0.000000      0.000000      0.008193
      0.00000      0.00000      0.23843        -0.000000      0.000000     -0.138345
      1.94006      1.94006     17.54875        -0.000000     -0.000000      0.117534
      1.94006      1.94006     21.48447        -0.000000      0.000000     -0.038889
      1.94006      1.94006      9.74520        -0.000000     -0.000000     -0.100333
      1.94006      1.94006     13.64583        -0.000000     -0.000000      0.003083
      1.94006      1.94006      5.85473        -0.000000     -0.000000     -0.061020
      1.94006      1.94006      1.96502        -0.000000     -0.000000      0.067823
      1.94006      1.94006     19.51289        -0.000000     -0.000000     -0.092762
      1.94006      1.94006     15.67508        -0.000000     -0.000000     -0.082519
      1.94006      1.94006     11.65173        -0.000000     -0.000000      0.138811
      1.94006      1.94006      7.84552        -0.000000      0.000000      0.113425
      1.94006      1.94006      3.91150        -0.000000     -0.000000     -0.095933
      1.94006      1.94006     23.35676        -0.000000     -0.000000      0.010938
      1.94006      0.00000     21.39201         0.000000      0.000000     -0.051301
      1.94006      0.00000     17.61718        -0.000000      0.000000      0.011476
      1.94006      0.00000     13.68553        -0.000000      0.000000     -0.026541
      1.94006      0.00000      9.77721        -0.000000      0.000000      0.060129
      1.94006      0.00000      5.87996        -0.000000      0.000000      0.059635
      1.94006      0.00000      1.90000        -0.000000     -0.000000     -0.001788
      0.00000      1.94006     21.39201        -0.000000      0.000000     -0.051301
      0.00000      1.94006     17.61718        -0.000000     -0.000000      0.011476
      0.00000      1.94006     13.68553        -0.000000      0.000000     -0.026541
      0.00000      1.94006      9.77721        -0.000000      0.000000      0.060129
      0.00000      1.94006      5.87996        -0.000000      0.000000      0.059635
      0.00000      1.94006      1.90000        -0.000000      0.000000     -0.001788
    total drift:                                0.000000      0.000000      0.039255

  FREE ENERGIE OF THE ION-ELECTRON SYSTEM (eV)
  free  energy   TOTEN  =      -220.14173993 eV

  energy  without entropy=     -220.14173993  energy(sigma->0) =     -220.14173993

 total charge

[...]

 magnetization (x)

# of ion       s       p       d       f       tot
    1        0.001  -0.001   0.004   0.002   0.005
    2        0.001  -0.000   0.010   0.004   0.015
    3        0.001   0.000   0.010   0.004   0.015
    4        0.000   0.000   0.007   0.004   0.012
    5        0.001   0.001   0.015   0.006   0.024
    6        0.001  -0.000   0.009   0.005   0.015
    7        0.023   0.019   3.492   0.000   3.534
    8        0.023   0.018   3.500   0.000   3.542
    9        0.024   0.023   3.456   0.000   3.503
   10        0.016   0.011   1.622   0.000   1.649
   11        0.017   0.015   1.516   0.000   1.547
   12        0.018   0.015   1.544   0.000   1.576
   13        0.002  -0.035   0.000   0.000  -0.033
   14        0.005  -0.036   0.000   0.000  -0.031
   15        0.005  -0.018   0.000   0.000  -0.013
   16        0.005  -0.027   0.000   0.000  -0.022
   17        0.007  -0.039   0.000   0.000  -0.032
   18        0.005  -0.048   0.000   0.000  -0.042
   19        0.008  -0.073   0.000   0.000  -0.064
   20        0.009  -0.070   0.000   0.000  -0.062
   21        0.011  -0.010   0.000   0.000   0.001
   22        0.008  -0.080   0.000   0.000  -0.072
   23        0.011  -0.025   0.000   0.000  -0.015
   24        0.011  -0.025   0.000   0.000  -0.014
   25       -0.000  -0.044   0.000   0.000  -0.045
   26       -0.000  -0.040   0.000   0.000  -0.040
   27        0.002  -0.008   0.000   0.000  -0.006
   28       -0.001  -0.046   0.000   0.000  -0.047
   29        0.002  -0.069   0.000   0.000  -0.067
   30        0.002  -0.049   0.000   0.000  -0.047
tot          0.217  -0.642  15.185   0.026  14.786

 BZINTS: Fermi energy:  7.619753;225.000000 electrons
         Band energy:-339.531279;  BLOECHL correction: -0.235617