 vasp.5.4.4.18Apr17-6-g9f103f2a35 (build Oct 03 2018 13:58:34) complex

 executed on             LinuxIFC date 2019.06.04  01:27:34

 INCAR:
 POTCAR:    PAW_PBE La 06Sep2000
 POTCAR:    PAW_PBE Mn 06Sep2000
 POTCAR:    PAW_PBE Ni 02Aug2007
 POTCAR:    PAW_PBE O 08Apr2002

 POTCAR:    PAW_PBE La 06Sep2000
   VRHFIN =La : [core=Kr4d]

   TITEL  = PAW_PBE La 06Sep2000
   POMASS =  138.900; ZVAL   =   11.000    mass and valenz
   ENMAX  =  219.292; ENMIN  =  164.469 eV

 POTCAR:    PAW_PBE Mn 06Sep2000
   VRHFIN =Mn: d6 s1

   TITEL  = PAW_PBE Mn 06Sep2000
   POMASS =   54.938; ZVAL   =    7.000    mass and valenz
   ENMAX  =  269.864; ENMIN  =  202.398 eV

 POTCAR:    PAW_PBE Ni 02Aug2007
   VRHFIN =Ni:

   TITEL  = PAW_PBE Ni 02Aug2007
   POMASS =   58.690; ZVAL   =   10.000    mass and valenz
   ENMAX  =  269.532; ENMIN  =  202.149 eV

 POTCAR:    PAW_PBE O 08Apr2002
   VRHFIN =O: s2p4

   TITEL  = PAW_PBE O 08Apr2002
   POMASS =   16.000; ZVAL   =    6.000    mass and valenz
   ENMAX  =  400.000; ENMIN  =  300.000 eV

 Optimization of the real space projectors (new method)

 maximal supplied QI-value         = 13.42
 optimisation between [QCUT,QGAM] = [ 11.67, 23.35] = [ 38.16,152.62] Ry
 Optimized for a Real-space Cutoff    1.63 Angstroem

   l    n(q)    QCUT    max X(q) W(low)/X(q) W(high)/X(q)  e(spline)
   0     11    11.673    13.882    0.27E-04    0.79E-05    0.11E-06
   0     11    11.673    12.184    0.39E-04    0.13E-04    0.19E-06
   1     11    11.673     4.523    0.73E-05    0.76E-05    0.12E-06
   1     11    11.673     4.424    0.87E-05    0.13E-04    0.19E-06
   2     10    11.673    52.481    0.65E-04    0.36E-04    0.18E-06
   2     10    11.673    38.501    0.61E-04    0.33E-04    0.17E-06
   3     10    11.673    65.631    0.17E-03    0.14E-03    0.37E-06
   3     10    11.673    56.854    0.17E-03    0.14E-03    0.37E-06
 Optimization of the real space projectors (new method)

[...]

   l    n(q)    QCUT    max X(q) W(low)/X(q) W(high)/X(q)  e(spline)
   2      9    11.539    60.317    0.19E-03    0.47E-04    0.16E-06
   2      9    11.539    55.921    0.19E-03    0.48E-04    0.16E-06
   0     10    11.539    51.690    0.80E-04    0.50E-04    0.24E-06
   0     10    11.539    30.015    0.73E-04    0.45E-04    0.22E-06
   1     10    11.539    18.849    0.87E-04    0.16E-03    0.71E-07
   1     10    11.539    14.624    0.73E-04    0.13E-03    0.64E-07
 Optimization of the real space projectors (new method)

 maximal supplied QI-value         = 24.76
 optimisation between [QCUT,QGAM] = [ 11.64, 23.27] = [ 37.91,151.63] Ry
 Optimized for a Real-space Cutoff    1.14 Angstroem

   l    n(q)    QCUT    max X(q) W(low)/X(q) W(high)/X(q)  e(spline)
   0      8    11.635    20.381    0.10E-03    0.33E-03    0.24E-06
   0      8    11.635    15.268    0.11E-03    0.35E-03    0.26E-06
   1      7    11.635     5.964    0.24E-03    0.31E-03    0.30E-06
   1      7    11.635     5.382    0.22E-03    0.25E-03    0.26E-06
  PAW_PBE La 06Sep2000                  :
  PAW_PBE Mn 06Sep2000                  :
  PAW_PBE Ni 02Aug2007                  :
  PAW_PBE O 08Apr2002                   :

 POSCAR: SCEL6_1_6_1_1_0_0/7
  positions in direct lattice
  velocities in cartesian coordinates
 exchange correlation table for  LEXCH =        8
   RHO(1)=    0.500       N(1)  =     2000
   RHO(2)=  100.500       N(2)  =     4000

 ion  position               nearest neighbor table
   1  0.000  0.500  0.168-  28 2.71  23 2.72  16 2.72  16 2.72  23 2.72  29 2.73  29 2.73  17 2.74
                            17 2.74  24 2.74  24 2.74  30 2.75  10 3.33  10 3.33  11 3.34  11 3.34
   2  0.000  0.000  0.333-  28 2.73  28 2.73  16 2.73  23 2.73  16 2.73  23 2.73  15 2.73  22 2.73
                            22 2.73  15 2.73  29 2.74  27 2.74  11 3.33  11 3.33   9 3.33   9 3.33
   3  0.000  0.500  0.499-  28 2.71  22 2.72  15 2.72  15 2.72  22 2.72  27 2.73  27 2.73  14 2.74
                            14 2.74  21 2.74  21 2.74  26 2.75  10 3.33  10 3.33   9 3.34   9 3.34
   4  0.000  0.000  0.661-  27 2.62  21 2.68  21 2.68  14 2.68  14 2.68  26 2.73  26 2.73  20 2.79
                            20 2.79  13 2.79  13 2.79  25 2.82   9 3.27   9 3.27   8 3.34   8 3.34
   5  0.000  0.500  0.833-  13 2.72  20 2.72  13 2.72  20 2.72  19 2.72  18 2.72  19 2.72  18 2.72
                            26 2.72  30 2.72  25 2.73  25 2.73   8 3.34   8 3.34  12 3.34  12 3.34
   6  0.000  0.000  0.006-  29 2.62  24 2.68  17 2.68  17 2.68  24 2.68  30 2.73  30 2.73  19 2.79
                            19 2.79  18 2.79  18 2.79  25 2.82  11 3.27  11 3.27  12 3.34  12 3.34
   7  0.500  0.000  0.833-  13 1.90  20 1.90  19 1.90  18 1.90  25 1.93  25 1.93   5 3.34   5 3.34
                             5 3.34   5 3.34   4 3.41   4 3.41   6 3.41   6 3.41
   8  0.500  0.500  0.667-  26 1.93  26 1.93  14 1.95  21 1.95  20 1.96  13 1.96   5 3.34   5 3.34
                             4 3.34   4 3.34   4 3.34   4 3.34   3 3.35   3 3.35
   9  0.500  0.000  0.499-  15 1.91  22 1.91  21 1.91  14 1.91  27 1.93  27 1.93   4 3.27   4 3.27
                             2 3.33   2 3.33   3 3.34   3 3.34   3 3.34   3 3.34
  10  0.500  0.500  0.333-  28 1.93  28 1.93  16 1.93  23 1.93  22 1.93  15 1.93   1 3.33   1 3.33
                             3 3.33   3 3.33   2 3.34   2 3.34   2 3.34   2 3.34
  11  0.500  0.000  0.167-  16 1.91  23 1.91  17 1.91  24 1.91  29 1.93  29 1.93   6 3.27   6 3.27
                             2 3.33   2 3.33   1 3.34   1 3.34   1 3.34   1 3.34
  12  0.500  0.500  1.000-  30 1.93  30 1.93  17 1.95  24 1.95  19 1.96  18 1.96   5 3.34   5 3.34
                             6 3.34   6 3.34   6 3.34   6 3.34   1 3.35   1 3.35
  13  0.500  0.752  0.752-   7 1.90   8 1.96   5 2.72   5 2.72   4 2.79   4 2.79
  14  0.500  0.246  0.583-   9 1.91   8 1.95   4 2.68   4 2.68   3 2.74   3 2.74
  15  0.500  0.751  0.417-   9 1.91  10 1.93   3 2.72   3 2.72   2 2.73   2 2.73
  16  0.500  0.249  0.250-  11 1.91  10 1.93   1 2.72   1 2.72   2 2.73   2 2.73
  17  0.500  0.754  0.084-  11 1.91  12 1.95   6 2.68   6 2.68   1 2.74   1 2.74
  18  0.500  0.248  0.915-   7 1.90  12 1.96   5 2.72   5 2.72   6 2.79   6 2.79
  19  0.500  0.752  0.915-   7 1.90  12 1.96   5 2.72   5 2.72   6 2.79   6 2.79
  20  0.500  0.248  0.752-   7 1.90   8 1.96   5 2.72   5 2.72   4 2.79   4 2.79
  21  0.500  0.754  0.583-   9 1.91   8 1.95   4 2.68   4 2.68   3 2.74   3 2.74
  22  0.500  0.249  0.417-   9 1.91  10 1.93   3 2.72   3 2.72   2 2.73   2 2.73
  23  0.500  0.751  0.250-  11 1.91  10 1.93   1 2.72   1 2.72   2 2.73   2 2.73
  24  0.500  0.246  0.084-  11 1.91  12 1.95   6 2.68   6 2.68   1 2.74   1 2.74
  25  0.000  0.000  0.833-   7 1.93   7 1.93   5 2.73   5 2.73   4 2.82   6 2.82
  26  0.000  0.500  0.667-   8 1.93   8 1.93   5 2.72   4 2.73   4 2.73   3 2.75
  27  0.000  0.000  0.501-   9 1.93   9 1.93   4 2.62   3 2.73   3 2.73   2 2.74
  28  0.000  0.500  0.333-  10 1.93  10 1.93   1 2.71   3 2.71   2 2.73   2 2.73
  29  0.000  0.000  0.166-  11 1.93  11 1.93   6 2.62   1 2.73   1 2.73   2 2.74
  30  0.000  0.500  1.000-  12 1.93  12 1.93   5 2.72   6 2.73   6 2.73   1 2.75

  LATTYP: Found a simple orthorhombic cell.
 ALAT       =     3.8587878937
 B/A-ratio  =     1.4133952461
 C/A-ratio  =     4.2371797482

  Lattice vectors:

 A1 = (   3.8587878937,   0.0000000000,   0.0000000000)
 A2 = (   0.0000000000,   3.8565550565,   3.8565550565)
 A3 = (   0.0000000000, -11.5614630993,  11.5614630993)

Analysis of symmetry for initial positions (statically):
 Subroutine PRICEL returns:
 Original cell was already a primitive cell.

 Routine SETGRP: Setting up the symmetry group for a
 simple orthorhombic supercell.

 Subroutine GETGRP returns: Found  8 space group operations
 (whereof  4 operations were pure point group operations)
 out of a pool of  8 trial point group operations.

The static configuration has the point symmetry C_2v.
 The point group associated with its full space group is D_2h.

Analysis of symmetry for dynamics (positions and initial velocities):
 Subroutine PRICEL returns:
 Original cell was already a primitive cell.

[...]

The dynamic configuration has the point symmetry C_2v.
 The point group associated with its full space group is D_2h.

Analysis of structural, dynamic, and magnetic symmetry:
 Subroutine PRICEL returns:
 Original cell was already a primitive cell.

 Routine SETGRP: Setting up the symmetry group for a
 simple orthorhombic supercell.

 Subroutine GETGRP returns: Found  8 space group operations
 (whereof  4 operations were pure point group operations)
 out of a pool of  8 trial point group operations.

The magnetic configuration has the point symmetry C_2v.
 The point group associated with its full space group is D_2h.

 Subroutine INISYM returns: Found  8 space group operations
 (whereof  4 operations are pure point group operations),
 and found     1 'primitive' translations

 KPOINTS: Automatic mesh

Automatic generation of k-mesh.
 generate k-points for:    5    4    1
Space group operators:
 irot       det(A)        alpha          n_x          n_y          n_z        tau_x        tau_y        tau_z
    1     1.000000     0.000000     1.000000     0.000000     0.000000     0.000000     0.000000     0.000000
    2     1.000000   180.000000     0.000000    -0.707107     0.707107     0.000000     0.000000     0.000000
    3    -1.000000   180.000000     0.000000     0.707107     0.707107     0.000000     0.000000     0.000000
    4    -1.000000   180.000000     1.000000     0.000000     0.000000     0.000000     0.000000     0.000000
    5    -1.000000     0.000000     1.000000     0.000000     0.000000     0.000000     0.000000     0.666667
    6    -1.000000   180.000000     0.000000    -0.707107     0.707107     0.000000     0.000000     0.666667
    7     1.000000   180.000000     0.000000     0.707107     0.707107     0.000000     0.000000     0.666667
    8     1.000000   180.000000     1.000000     0.000000     0.000000     0.000000     0.000000     0.666667

 Subroutine IBZKPT returns following result:

 Found      9 irreducible k-points:

 Following reciprocal coordinates:
            Coordinates               Weight
  0.000000  0.000000  0.000000      1.000000
  0.200000  0.000000  0.000000      2.000000
  0.400000  0.000000  0.000000      2.000000
  0.000000  0.250000  0.000000      2.000000
  0.200000  0.250000  0.000000      4.000000
  0.400000  0.250000  0.000000      4.000000
  0.000000  0.500000  0.000000      1.000000
  0.200000  0.500000  0.000000      2.000000
  0.400000  0.500000  0.000000      2.000000

 Following cartesian coordinates:
            Coordinates               Weight
  0.000000  0.000000  0.000000      1.000000
  0.051830  0.000000  0.000000      2.000000
  0.103659  0.000000  0.000000      2.000000
  0.000000  0.032412  0.032412      2.000000
  0.051830  0.032412  0.032412      4.000000
  0.103659  0.032412  0.032412      4.000000
  0.000000  0.064825  0.064825      1.000000
  0.051830  0.064825  0.064825      2.000000
  0.103659  0.064825  0.064825      2.000000

 TETIRR: Found     54 inequivalent tetrahedra from      120

 SYSTEM =  final
[...]
     30      -6.8596      1.00000
     31      -6.8566      1.00000
     32      -6.8479      1.00000
     33      -6.8114      1.00000
     34      -6.7432      1.00000
     35      -6.6639      1.00000
     36      -6.6411      1.00000
     37      -6.6389      1.00000
     38      -6.5939      1.00000
     39      -6.5251      1.00000
     40      -6.5045      1.00000
     41      -6.4784      1.00000
     42      -6.4442      1.00000
     43       0.3832      1.00000
     44       0.5572      1.00000
     45       0.6713      1.00000
     46       0.9115      1.00000
     47       0.9874      1.00000
     48       1.1089      1.00000
     49       1.1666      1.00000
     50       1.5358      1.00000
     51       1.5862      1.00000
     52       1.7849      1.00000
     53       1.9149      1.00000
     54       1.9170      1.00000
     55       2.0741      1.00000
     56       2.1055      1.00000
     57       2.1079      1.00000
     58       2.1088      1.00000
     59       2.1591      1.00000
     60       2.2384      1.00000
[...]
    134      11.2608      0.00000
    135      11.2771      0.00000
    136      11.3048      0.00000
    137      11.3316      0.00000
    138      11.3860      0.00000
    139      11.4483      0.00000
    140      11.4983      0.00000
    141      11.5105      0.00000
    142      11.5323      0.00000
    143      11.5653      0.00000
    144      11.5743      0.00000
    145      11.6137      0.00000
    146      11.6469      0.00000
    147      11.6802      0.00000
    148      11.7122      0.00000

[...]

 spin component 2

[...]

 k-point     9 :       0.4000    0.5000    0.0000
  band No.  band energies     occupation
      1     -23.4417      1.00000
      2     -23.3858      1.00000
      3     -23.3850      1.00000
      4     -23.3483      1.00000
      5     -23.3471      1.00000
      6     -23.3362      1.00000
      7     -10.5463      1.00000
      8     -10.4672      1.00000
      9     -10.4476      1.00000
     10     -10.4254      1.00000
     11     -10.3286      1.00000
     12     -10.2829      1.00000
     13     -10.1028      1.00000
     14     -10.0380      1.00000
     15      -9.9938      1.00000
     16      -9.9433      1.00000
     17      -9.8773      1.00000
     18      -9.6426      1.00000
     19      -9.6091      1.00000
     20      -9.5061      1.00000
     21      -9.4816      1.00000
     22      -9.4373      1.00000
     23      -9.3473      1.00000
     24      -9.3400      1.00000
     25      -7.1861      1.00000
     26      -7.1656      1.00000
     27      -6.9217      1.00000
     28      -6.8772      1.00000
     29      -6.8440      1.00000
     30      -6.8164      1.00000
     31      -6.8089      1.00000
     32      -6.7922      1.00000
     33      -6.6884      1.00000
     34      -6.6201      1.00000
     35      -6.6154      1.00000
     36      -6.5954      1.00000
     37      -6.5590      1.00000
     38      -6.5378      1.00000
     39      -6.5117      1.00000
     40      -6.4984      1.00000
     41      -6.4979      1.00000
     42      -6.4815      1.00000
     43       1.6864      1.00000
     44       1.7253      1.00000
     45       1.7408      1.00000
     46       1.7697      1.00000
     47       1.8493      1.00000
     48       1.8705      1.00000
     49       1.9373      1.00000
     50       1.9969      1.00000
     51       2.0042      1.00000
     52       2.0149      1.00000
     53       2.3493      1.00000
     54       2.4078      1.00000
     55       2.4653      1.00000
     56       2.5552      1.00000
     57       2.5632      1.00000
     58       2.5758      1.00000
     59       2.5881      1.00000
     60       2.6458      1.00000
[...]
    134      11.5059      0.00000
    135      11.5185      0.00000
    136      11.5305      0.00000
    137      11.5408      0.00000
    138      11.5488      0.00000
    139      11.5551      0.00000
    140      11.5617      0.00000
    141      11.5695      0.00000
    142      11.5739      0.00000
    143      11.5829      0.00000
    144      11.5998      0.00000
    145      11.6065      0.00000
    146      11.6263      0.00000
    147      11.6352      0.00000
    148      11.6870      0.00000

 soft charge-density along one line, spin component           1
         0         1         2         3         4         5         6         7         8         9
 total charge-density along one line

 soft charge-density along one line, spin component           2
         0         1         2         3         4         5         6         7         8         9
 total charge-density along one line

------------------------ aborting loop because EDIFF is reached ----------------------------------------

 total charge

# of ion       s       p       d       f       tot
    1        2.001   5.701   0.494   0.192   8.388
    2        2.001   5.701   0.494   0.192   8.388
    3        2.001   5.701   0.494   0.192   8.388
    4        2.002   5.701   0.503   0.195   8.400
    5        2.001   5.703   0.501   0.197   8.402
    6        2.002   5.701   0.503   0.195   8.400
    7        0.351   0.559   4.867   0.000   5.777
    8        0.413   0.612   8.313   0.000   9.337
    9        0.439   0.669   8.322   0.000   9.431
   10        0.427   0.638   8.310   0.000   9.374
   11        0.439   0.669   8.322   0.000   9.431
   12        0.413   0.612   8.313   0.000   9.337
   13        1.562   3.457   0.000   0.000   5.019
   14        1.563   3.433   0.000   0.000   4.996
   15        1.563   3.432   0.000   0.000   4.995
   16        1.563   3.432   0.000   0.000   4.995
   17        1.563   3.433   0.000   0.000   4.996
   18        1.562   3.457   0.000   0.000   5.019
   19        1.562   3.457   0.000   0.000   5.019
   20        1.562   3.457   0.000   0.000   5.019
   21        1.563   3.433   0.000   0.000   4.996
   22        1.563   3.432   0.000   0.000   4.995
   23        1.563   3.432   0.000   0.000   4.995
   24        1.563   3.433   0.000   0.000   4.996
   25        1.564   3.464   0.000   0.000   5.028
   26        1.560   3.437   0.000   0.000   4.997
   27        1.564   3.436   0.000   0.000   4.999
   28        1.562   3.432   0.000   0.000   4.994
   29        1.564   3.436   0.000   0.000   4.999
   30        1.560   3.437   0.000   0.000   4.997
tot         42.615  99.900  49.436   1.161 193.112

 magnetization (x)

[...]

  FORCE on cell =-STRESS in cart. coord.  units (eV):
  Direction    XX          YY          ZZ          XY          YZ          ZX
  Alpha Z   992.90341   992.90341   992.90341
  Ewald   -5404.03067 -5478.46771 -5478.46771    -0.00000    45.89857    -0.00000
  Hartree  1370.41563  1295.97434  1295.97434     0.00000    48.61249    -0.00000
  E(xc)   -1087.21894 -1087.33413 -1087.33413    -0.00000    -0.01922    -0.00000
  Local    -964.39077  -815.88644  -815.88644     0.00000   -94.67116    -0.00000
  n-local   443.29144   442.75315   442.75332    -1.02432     0.13907    -1.02340
  augment   778.90816   778.92955   778.92955     0.00000     0.03671    -0.00000
  Kinetic  3869.60528  3870.72304  3870.72262     2.64817    -0.17028     2.64851
  Fock        0.00000     0.00000     0.00000     0.00000     0.00000     0.00000
  Total      -0.51646    -0.40492    -0.40492     0.00000    -0.17381     0.00000
  in kB      -2.40465    -1.88532    -1.88532     0.00000    -0.80927     0.00000

 VOLUME and BASIS-vectors are now :
  energy-cutoff  :      520.00
  volume of cell :      344.11
      direct lattice vectors                 reciprocal lattice vectors
     3.858787894  0.000000000  0.000000000     0.259148735  0.000000000  0.000000000
     0.000000000  3.856555056  3.856555056     0.000000000  0.129649387  0.129649387
     0.000000000-11.561463099 11.561463099     0.000000000 -0.043247122  0.043247122

  length of vectors
     3.858787894  5.453992465 16.350377916     0.259148735  0.183351922  0.061160666

 FORCES acting on ions
    electron-ion (+dipol)            ewald-force                    non-local-force                 convergence-correction
   -.657E-14 -.458E+02 0.458E+02   0.327E-13 0.457E+02 -.457E+02   0.000E+00 0.116E+00 -.116E+00   0.219E-13 -.481E-01 0.481E-01
   -.205E-14 0.866E-04 -.866E-04   -.185E-13 -.351E-03 0.351E-03   0.000E+00 0.542E-19 0.136E-18   0.227E-13 0.310E-05 -.310E-05
   -.586E-14 0.458E+02 -.458E+02   -.167E-13 -.457E+02 0.457E+02   0.000E+00 -.116E+00 0.116E+00   0.285E-13 0.481E-01 -.481E-01
   -.312E-14 0.111E+03 -.111E+03   0.330E-14 -.110E+03 0.110E+03   0.000E+00 -.687E+00 0.687E+00   0.229E-13 -.219E-01 0.219E-01
   -.677E-15 0.849E-04 -.849E-04   -.118E-13 -.349E-03 0.349E-03   0.000E+00 0.542E-19 -.813E-19   0.218E-13 0.450E-05 -.450E-05
   -.704E-14 -.111E+03 0.111E+03   0.446E-14 0.110E+03 -.110E+03   0.000E+00 0.687E+00 -.687E+00   0.278E-13 0.219E-01 -.219E-01
   0.509E-13 0.317E-04 -.317E-04   0.323E-14 -.282E-03 0.282E-03   0.000E+00 0.508E-20 0.508E-20   -.117E-13 0.309E-05 -.309E-05
   0.291E-12 0.671E+02 -.671E+02   0.141E-14 -.669E+02 0.669E+02   0.000E+00 -.156E+00 0.156E+00   0.204E-13 -.194E-01 0.194E-01
   0.293E-12 0.306E+02 -.306E+02   -.116E-13 -.305E+02 0.305E+02   0.000E+00 -.730E-01 0.730E-01   0.149E-13 0.276E-01 -.276E-01
   0.292E-12 0.453E-04 -.453E-04   -.298E-13 -.403E-03 0.403E-03   0.000E+00 0.678E-20 -.678E-20   0.235E-13 0.320E-05 -.320E-05
   0.274E-12 -.306E+02 0.306E+02   0.345E-15 0.305E+02 -.305E+02   0.000E+00 0.730E-01 -.730E-01   0.212E-13 -.276E-01 0.276E-01
   0.300E-12 -.671E+02 0.671E+02   -.159E-13 0.669E+02 -.669E+02   0.000E+00 0.156E+00 -.156E+00   0.795E-14 0.193E-01 -.193E-01
   0.114E-12 0.169E+02 -.697E+02   -.262E-13 -.166E+02 0.653E+02   -.434E-18 -.300E+00 0.445E+01   0.136E-13 -.213E-02 0.159E-01
   0.127E-12 0.307E+02 -.516E+02   -.753E-14 -.302E+02 0.529E+02   0.542E-19 -.432E+00 -.135E+01   -.268E-14 0.489E-02 0.224E-02
   0.117E-12 0.112E+02 -.419E+01   0.650E-14 -.112E+02 0.360E+01   -.542E-19 0.392E-02 0.666E+00   0.697E-14 0.763E-02 -.713E-01
   0.121E-12 -.112E+02 0.419E+01   0.212E-13 0.112E+02 -.360E+01   0.542E-19 -.392E-02 -.666E+00   0.128E-13 -.763E-02 0.713E-01
   0.120E-12 -.307E+02 0.516E+02   0.642E-14 0.302E+02 -.529E+02   -.542E-19 0.432E+00 0.135E+01   0.263E-14 -.490E-02 -.224E-02
   0.123E-12 -.169E+02 0.697E+02   -.732E-15 0.166E+02 -.653E+02   0.867E-18 0.300E+00 -.445E+01   -.126E-13 0.213E-02 -.159E-01
   0.111E-12 -.697E+02 0.169E+02   0.379E-14 0.653E+02 -.166E+02   -.867E-18 0.445E+01 -.300E+00   0.134E-14 0.159E-01 -.213E-02
   0.108E-12 0.697E+02 -.169E+02   0.114E-13 -.653E+02 0.166E+02   0.434E-18 -.445E+01 0.300E+00   0.113E-13 -.159E-01 0.213E-02
   0.115E-12 0.516E+02 -.307E+02   0.284E-13 -.529E+02 0.302E+02   0.000E+00 0.135E+01 0.432E+00   -.276E-14 -.224E-02 -.489E-02
   0.112E-12 0.419E+01 -.112E+02   -.509E-14 -.360E+01 0.112E+02   0.542E-19 -.666E+00 -.392E-02   0.128E-14 0.713E-01 -.763E-02
   0.111E-12 -.419E+01 0.112E+02   -.502E-14 0.360E+01 -.112E+02   -.542E-19 0.666E+00 0.392E-02   0.337E-14 -.713E-01 0.763E-02
   0.112E-12 -.516E+02 0.307E+02   -.264E-13 0.529E+02 -.302E+02   -.542E-19 -.135E+01 -.432E+00   -.158E-14 0.224E-02 0.490E-02
   -.146E-14 0.681E-05 -.681E-05   0.141E-13 -.182E-03 0.182E-03   0.000E+00 0.136E-19 -.136E-19   0.380E-13 0.270E-05 -.270E-05
   -.677E-14 0.399E+02 -.399E+02   -.421E-14 -.399E+02 0.399E+02   0.000E+00 0.548E-01 -.548E-01   0.245E-13 -.627E-02 0.627E-02
   -.705E-14 0.180E+02 -.180E+02   0.222E-13 -.178E+02 0.178E+02   0.000E+00 -.276E+00 0.276E+00   0.258E-13 0.156E-01 -.156E-01
   -.851E-14 0.576E-05 -.576E-05   0.216E-13 -.196E-03 0.196E-03   0.000E+00 0.000E+00 0.339E-20   0.216E-13 0.189E-05 -.189E-05
   -.720E-14 -.180E+02 0.180E+02   0.303E-14 0.178E+02 -.178E+02   0.000E+00 0.276E+00 -.276E+00   0.277E-13 -.156E-01 0.156E-01
   -.489E-14 -.399E+02 0.399E+02   -.914E-14 0.399E+02 -.399E+02   0.000E+00 -.548E-01 0.548E-01   0.320E-13 0.627E-02 -.627E-02
   0.283E-11 0.104E-01 -.104E-01   -.440E-14 0.568E-13 -.121E-12   -.542E-19 0.167E-15 0.111E-15   0.425E-12 0.527E-06 -.527E-06

 POSITION                                       TOTAL-FORCE (eV/Angst)
      0.00000     -0.01000      3.86656         0.000000     -0.017344      0.017344
      0.00000     -3.85382      3.85382         0.000000      0.000000      0.000000
      0.00000     -3.84109      7.69764         0.000000      0.017344     -0.017344
      0.00000     -7.64281      7.64281         0.000000      0.048238     -0.048238
      0.00000     -7.70627     11.56283         0.000000      0.000000      0.000000
      0.00000     -0.06483      0.06483         0.000000     -0.048238      0.048238
      1.92939     -9.63455      9.63455         0.000000      0.000000      0.000000
      1.92939     -5.77946      9.63601         0.000000      0.011239     -0.011239
      1.92939     -5.77240      5.77240         0.000000     -0.008273      0.008273
      1.92939     -1.92554      5.78210         0.000000      0.000000      0.000000
      1.92939     -1.93524      1.93524         0.000000      0.008273     -0.008273
      1.92939     -9.63309     13.48965         0.000000     -0.011239      0.011239
      1.92939     -5.79259     11.59340         0.000000      0.011276      0.046418
      1.92939     -5.78907      7.68715         0.000000      0.016931     -0.027983
      1.92939     -1.92473      7.71577         0.000000      0.014566      0.006115
      1.92939     -1.92635      3.84842         0.000000     -0.014566     -0.006115
      1.92939      1.93798      3.87705         0.000000     -0.016931      0.027983
      1.92939     -9.61996     11.53226         0.000000     -0.011276     -0.046418
      1.92939     -7.67570     13.47651         0.000000      0.046418      0.011276
      1.92939     -7.73685      9.64915         0.000000     -0.046418     -0.011276
      1.92939     -3.83060      9.64562         0.000000      0.027983     -0.016931
      1.92939     -3.85922      5.78129         0.000000     -0.006115     -0.014566
      1.92939      0.00813      5.78291         0.000000      0.006115      0.014566
      1.92939     -0.02049      1.91858         0.000000     -0.027983      0.016931
      0.00000     -9.63455      9.63455         0.000000      0.000000      0.000000
      0.00000     -5.78215      9.63871         0.000000      0.055812     -0.055812
      0.00000     -5.78854      5.78854         0.000000      0.012117     -0.012117
      0.00000     -1.92554      5.78210         0.000000      0.000000      0.000000
      0.00000     -1.91910      1.91910         0.000000     -0.012117      0.012117
      0.00000     -9.63040     13.48695         0.000000     -0.055812      0.055812
    total drift:                                0.000000      0.010439     -0.010439

  FREE ENERGIE OF THE ION-ELECTRON SYSTEM (eV)
  free  energy   TOTEN  =      -206.77023169 eV

  energy  without entropy=     -206.77023169  energy(sigma->0) =     -206.77023169

 total charge

[...]

 magnetization (x)

# of ion       s       p       d       f       tot
    1        0.001  -0.001   0.007   0.003   0.009
    2        0.001  -0.001   0.007   0.003   0.010
    3        0.001  -0.001   0.007   0.003   0.009
    4        0.001  -0.000   0.008   0.003   0.012
    5        0.001   0.000   0.011   0.004   0.016
    6        0.001  -0.000   0.008   0.003   0.012
    7        0.022   0.027   3.274   0.000   3.323
    8        0.013   0.005   1.480   0.000   1.498
    9        0.019   0.012   1.285   0.000   1.316
   10        0.018   0.010   1.378   0.000   1.406
   11        0.019   0.012   1.285   0.000   1.316
   12        0.013   0.005   1.480   0.000   1.498
   13        0.004  -0.030   0.000   0.000  -0.026
   14        0.005  -0.102   0.000   0.000  -0.096
   15        0.005  -0.103   0.000   0.000  -0.098
   16        0.005  -0.103   0.000   0.000  -0.098
   17        0.005  -0.102   0.000   0.000  -0.096
   18        0.004  -0.030   0.000   0.000  -0.026
   19        0.004  -0.030   0.000   0.000  -0.026
   20        0.004  -0.030   0.000   0.000  -0.026
   21        0.006  -0.102   0.000   0.000  -0.096
   22        0.005  -0.103   0.000   0.000  -0.098
   23        0.005  -0.103   0.000   0.000  -0.098
   24        0.006  -0.102   0.000   0.000  -0.096
   25        0.002  -0.057   0.000   0.000  -0.055
   26        0.005  -0.080   0.000   0.000  -0.074
   27        0.006  -0.095   0.000   0.000  -0.089
   28        0.005  -0.098   0.000   0.000  -0.092
   29        0.006  -0.095   0.000   0.000  -0.089
   30        0.005  -0.080   0.000   0.000  -0.074
tot          0.201  -1.376  10.229   0.019   9.073

 BZINTS: Fermi energy:  7.519974;231.000000 electrons
         Band energy:-255.688585;  BLOECHL correction: -0.103079