 vasp.5.4.4.18Apr17-6-g9f103f2a35 (build Oct 03 2018 13:58:34) complex

 executed on             LinuxIFC date 2019.06.04  01:08:32

 INCAR:
 POTCAR:    PAW_PBE La 06Sep2000
 POTCAR:    PAW_PBE Mn 06Sep2000
 POTCAR:    PAW_PBE Ni 02Aug2007
 POTCAR:    PAW_PBE O 08Apr2002

 POTCAR:    PAW_PBE La 06Sep2000
   VRHFIN =La : [core=Kr4d]

   TITEL  = PAW_PBE La 06Sep2000
   POMASS =  138.900; ZVAL   =   11.000    mass and valenz
   ENMAX  =  219.292; ENMIN  =  164.469 eV

 POTCAR:    PAW_PBE Mn 06Sep2000
   VRHFIN =Mn: d6 s1

   TITEL  = PAW_PBE Mn 06Sep2000
   POMASS =   54.938; ZVAL   =    7.000    mass and valenz
   ENMAX  =  269.864; ENMIN  =  202.398 eV

 POTCAR:    PAW_PBE Ni 02Aug2007
   VRHFIN =Ni:

   TITEL  = PAW_PBE Ni 02Aug2007
   POMASS =   58.690; ZVAL   =   10.000    mass and valenz
   ENMAX  =  269.532; ENMIN  =  202.149 eV

 POTCAR:    PAW_PBE O 08Apr2002
   VRHFIN =O: s2p4

   TITEL  = PAW_PBE O 08Apr2002
   POMASS =   16.000; ZVAL   =    6.000    mass and valenz
   ENMAX  =  400.000; ENMIN  =  300.000 eV

 Optimization of the real space projectors (new method)

 maximal supplied QI-value         = 13.42
 optimisation between [QCUT,QGAM] = [ 11.67, 23.35] = [ 38.16,152.62] Ry
 Optimized for a Real-space Cutoff    1.63 Angstroem

   l    n(q)    QCUT    max X(q) W(low)/X(q) W(high)/X(q)  e(spline)
   0     11    11.673    13.882    0.27E-04    0.79E-05    0.11E-06
   0     11    11.673    12.184    0.39E-04    0.13E-04    0.19E-06
   1     11    11.673     4.523    0.73E-05    0.76E-05    0.12E-06
   1     11    11.673     4.424    0.87E-05    0.13E-04    0.19E-06
   2     10    11.673    52.481    0.65E-04    0.36E-04    0.18E-06
   2     10    11.673    38.501    0.61E-04    0.33E-04    0.17E-06
   3     10    11.673    65.631    0.17E-03    0.14E-03    0.37E-06
   3     10    11.673    56.854    0.17E-03    0.14E-03    0.37E-06
 Optimization of the real space projectors (new method)

[...]

   l    n(q)    QCUT    max X(q) W(low)/X(q) W(high)/X(q)  e(spline)
   2      9    11.539    60.317    0.19E-03    0.47E-04    0.16E-06
   2      9    11.539    55.921    0.19E-03    0.48E-04    0.16E-06
   0     10    11.539    51.690    0.80E-04    0.50E-04    0.24E-06
   0     10    11.539    30.015    0.73E-04    0.45E-04    0.22E-06
   1     10    11.539    18.849    0.87E-04    0.16E-03    0.71E-07
   1     10    11.539    14.624    0.73E-04    0.13E-03    0.64E-07
 Optimization of the real space projectors (new method)

 maximal supplied QI-value         = 24.76
 optimisation between [QCUT,QGAM] = [ 11.64, 23.27] = [ 37.91,151.63] Ry
 Optimized for a Real-space Cutoff    1.14 Angstroem

   l    n(q)    QCUT    max X(q) W(low)/X(q) W(high)/X(q)  e(spline)
   0      8    11.635    20.381    0.10E-03    0.33E-03    0.24E-06
   0      8    11.635    15.268    0.11E-03    0.35E-03    0.26E-06
   1      7    11.635     5.964    0.24E-03    0.31E-03    0.30E-06
   1      7    11.635     5.382    0.22E-03    0.25E-03    0.26E-06
  PAW_PBE La 06Sep2000                  :
  PAW_PBE Mn 06Sep2000                  :
  PAW_PBE Ni 02Aug2007                  :
  PAW_PBE O 08Apr2002                   :

 POSCAR: SCEL4_1_1_4_0_0_0/1
  positions in direct lattice
  velocities in cartesian coordinates
 exchange correlation table for  LEXCH =        8
   RHO(1)=    0.500       N(1)  =     2000
   RHO(2)=  100.500       N(2)  =     4000

 ion  position               nearest neighbor table
   1  0.000  0.000  0.250-  11 2.74  11 2.74  11 2.74  11 2.74  20 2.79  15 2.79  19 2.79  20 2.79
                            16 2.79  15 2.79  16 2.79  19 2.79   7 3.36   8 3.36   8 3.36   8 3.36
   2  0.000  0.000  0.486-  15 2.57  19 2.57  19 2.57  15 2.57  10 2.76  10 2.76  10 2.76  10 2.76
                             8 3.25   8 3.25   8 3.25   8 3.25
   3  0.000  0.000  0.750-  13 2.71  14 2.71  17 2.71  18 2.71  17 2.71  18 2.71  13 2.71  14 2.71
                             9 2.74   9 2.74   9 2.74   9 2.74   5 3.38   6 3.38   6 3.38   6 3.38
   4  0.000  0.000  0.014-  16 2.57  20 2.57  20 2.57  16 2.57  12 2.76  12 2.76  12 2.76  12 2.76
                             7 3.25   7 3.25   7 3.25   7 3.25
   5  0.500  0.500  0.624-  10 1.88  14 1.94  18 1.94  14 1.94  18 1.94   9 1.98   3 3.38   3 3.38
                             3 3.38   3 3.38
   6  0.500  0.500  0.876-  12 1.88  13 1.94  17 1.94  13 1.94  17 1.94   9 1.98   3 3.38   3 3.38
                             3 3.38   3 3.38
   7  0.500  0.500  0.126-  16 1.94  20 1.94  16 1.94  20 1.94  11 1.95  12 2.02   4 3.25   4 3.25
                             4 3.25   4 3.25   1 3.36   1 3.36   1 3.36   1 3.36
   8  0.500  0.500  0.374-  15 1.94  19 1.94  15 1.94  19 1.94  11 1.95  10 2.02   2 3.25   2 3.25
                             2 3.25   2 3.25   1 3.36   1 3.36   1 3.36   1 3.36
   9  0.500  0.500  0.750-   5 1.98   6 1.98   3 2.74   3 2.74   3 2.74   3 2.74
  10  0.500  0.500  0.504-   5 1.88   8 2.02   2 2.76   2 2.76   2 2.76   2 2.76
  11  0.500  0.500  0.250-   7 1.95   8 1.95   1 2.74   1 2.74   1 2.74   1 2.74
  12  0.500  0.500  0.996-   6 1.88   7 2.02   4 2.76   4 2.76   4 2.76   4 2.76
  13  0.500  0.000  0.871-   6 1.94   6 1.94   3 2.71   3 2.71
  14  0.500  0.000  0.629-   5 1.94   5 1.94   3 2.71   3 2.71
  15  0.500  0.000  0.378-   8 1.94   8 1.94   2 2.57   2 2.57   1 2.79   1 2.79
  16  0.500  0.000  0.122-   7 1.94   7 1.94   4 2.57   4 2.57   1 2.79   1 2.79
  17  0.000  0.500  0.871-   6 1.94   6 1.94   3 2.71   3 2.71
  18  0.000  0.500  0.629-   5 1.94   5 1.94   3 2.71   3 2.71
  19  0.000  0.500  0.378-   8 1.94   8 1.94   2 2.57   2 2.57   1 2.79   1 2.79
  20  0.000  0.500  0.122-   7 1.94   7 1.94   4 2.57   4 2.57   1 2.79   1 2.79

  LATTYP: Found a simple tetragonal cell.
 ALAT       =     3.8798304544
 C/A-ratio  =     4.0298625367

  Lattice vectors:

 A1 = (   3.8798304544,   0.0000000000,   0.0000000000)
 A2 = (   0.0000000000,   3.8798304544,   0.0000000000)
 A3 = (   0.0000000000,   0.0000000000,  15.6351833968)

Analysis of symmetry for initial positions (statically):
 Subroutine PRICEL returns:
 Original cell was already a primitive cell.

 Routine SETGRP: Setting up the symmetry group for a
 simple tetragonal supercell.

 Subroutine GETGRP returns: Found 16 space group operations
 (whereof  8 operations were pure point group operations)
 out of a pool of 16 trial point group operations.

The static configuration has the point symmetry C_4v.
 The point group associated with its full space group is D_4h.

Analysis of symmetry for dynamics (positions and initial velocities):
 Subroutine PRICEL returns:
 Original cell was already a primitive cell.

[...]

The dynamic configuration has the point symmetry C_4v.
 The point group associated with its full space group is D_4h.

Analysis of structural, dynamic, and magnetic symmetry:
 Subroutine PRICEL returns:
 Original cell was already a primitive cell.

 Routine SETGRP: Setting up the symmetry group for a
 simple tetragonal supercell.

 Subroutine GETGRP returns: Found 16 space group operations
 (whereof  8 operations were pure point group operations)
 out of a pool of 16 trial point group operations.

The magnetic configuration has the point symmetry C_4v.
 The point group associated with its full space group is D_4h.

 Subroutine INISYM returns: Found 16 space group operations
 (whereof  8 operations are pure point group operations),
 and found     1 'primitive' translations

 KPOINTS: Automatic mesh

Automatic generation of k-mesh.
 generate k-points for:    5    5    1
Space group operators:
 irot       det(A)        alpha          n_x          n_y          n_z        tau_x        tau_y        tau_z
    1     1.000000     0.000001     1.000000     0.000000     0.000000     0.000000     0.000000     0.000000
    2     1.000000    90.000000     0.000000     0.000000    -1.000000     0.000000     0.000000     0.000000
    3     1.000000   179.999999     0.000000     0.000000     1.000000     0.000000     0.000000     0.000000
    4     1.000000    90.000000     0.000000     0.000000     1.000000     0.000000     0.000000     0.000000
    5    -1.000000   179.999999     0.000000     1.000000     0.000000     0.000000     0.000000     0.000000
    6    -1.000000   179.999999     0.707107     0.707107     0.000000     0.000000     0.000000     0.000000
    7    -1.000000   179.999999     1.000000     0.000000     0.000000     0.000000     0.000000     0.000000
    8    -1.000000   179.999999     0.707107    -0.707107     0.000000     0.000000     0.000000     0.000000
    9    -1.000000     0.000001     1.000000     0.000000     0.000000     0.000000     0.000000     0.500000
   10    -1.000000    90.000000     0.000000     0.000000    -1.000000     0.000000     0.000000     0.500000
   11    -1.000000   179.999999     0.000000     0.000000     1.000000     0.000000     0.000000     0.500000
   12    -1.000000    90.000000     0.000000     0.000000     1.000000     0.000000     0.000000     0.500000
   13     1.000000   179.999999     0.000000     1.000000     0.000000     0.000000     0.000000     0.500000
   14     1.000000   179.999999     0.707107     0.707107     0.000000     0.000000     0.000000     0.500000
   15     1.000000   179.999999     1.000000     0.000000     0.000000     0.000000     0.000000     0.500000
   16     1.000000   179.999999     0.707107    -0.707107     0.000000     0.000000     0.000000     0.500000

 Subroutine IBZKPT returns following result:

 Found      6 irreducible k-points:

 Following reciprocal coordinates:
            Coordinates               Weight
  0.000000  0.000000  0.000000      1.000000
  0.200000  0.000000  0.000000      4.000000
  0.400000  0.000000  0.000000      4.000000
  0.200000  0.200000  0.000000      4.000000
  0.400000  0.200000  0.000000      8.000000
  0.400000  0.400000  0.000000      4.000000

 Following cartesian coordinates:
            Coordinates               Weight
  0.000000  0.000000  0.000000      1.000000
  0.051549  0.000000  0.000000      4.000000
  0.103097  0.000000  0.000000      4.000000
  0.051549  0.051549  0.000000      4.000000
  0.103097  0.051549  0.000000      8.000000
  0.103097  0.103097  0.000000      4.000000

 TETIRR: Found     31 inequivalent tetrahedra from      150

 SYSTEM =  final
 POSCAR =  SCEL4_1_1_4_0_0_0/1

 Startparameter for this run:
   NWRITE =      2    write-flag & timer
   PREC   = accura    normal or accurate (medium, high low for compatibility)
   ISTART =      0    job   : 0-new  1-cont  2-samecut
   ICHARG =      1    charge: 1-file 2-atom 10-const
   ISPIN  =      2    spin polarized calculation?
   LNONCOLLINEAR =      F non collinear calculations
   LSORBIT =      F    spin-orbit coupling
   INIWAV =      1    electr: 0-lowe 1-rand  2-diag
   LASPH  =      F    aspherical Exc in radial PAW
   METAGGA=      F    non-selfconsistent MetaGGA calc.

 Electronic Relaxation 1
   ENCUT  =  520.0 eV  38.22 Ry    6.18 a.u.   7.21  7.21 29.07*2*pi/ulx,y,z
   ENINI  =  520.0     initial cutoff
   ENAUG  =  605.4 eV  augmentation charge cutoff
   NELM   =    100;   NELMIN=  2; NELMDL= -5     # of ELM steps
   EDIFF  = 0.1E-02   stopping-criterion for ELM
[...]
  0.6084  0.6084

[...]

--------------------------------------- Iteration      1(  18)  ---------------------------------------

atom =   1  type =  1  l = 0

[...]

  o =  0.7840  v =  0.0000  1.0000      0.0000  0.0000
  o =  0.7906  v =  1.0000  0.0000      0.0000  0.0000
atom =  20  type =  4  l = 0

 onsite density matrix

[...]

  0.7840

 occupancies and eigenvectors

  o =  0.7840  v =  0.0000  1.0000      0.0000  0.0000
  o =  0.7906  v =  1.0000  0.0000      0.0000  0.0000
 BZINTS: Fermi energy:  7.659979;150.000000 electrons
         Band energy:-227.619693;  BLOECHL correction: -0.151886

 eigenvalue-minimisations  :  2371
 total energy-change (2. order) :-0.1322152E-03  (-0.7217127E-03)
 number of electron     150.0000067 magnetization      10.0225791
 augmentation part       19.3356979 magnetization       7.6073840

 Free energy of the ion-electron system (eV)
  alpha Z        PSCENC =       652.11578102
  Ewald energy   TEWEN  =    -10184.43841939
  -Hartree energ DENC   =     -2460.30802178
  -exchange      EXHF   =         0.00000000
  -V(xc)+E(xc)   XCENC  =       511.84690173
  PAW double counting   =     12472.37381796   -12551.68859903
  entropy T*S    EENTRO =         0.00000000
  eigenvalues    EBANDS =      -227.61969313
  atomic energy  EATOM  =     11641.04254247
  Solvation  Ediel_sol  =         0.00000000
  free energy    TOTEN  =      -146.67569015 eV

  energy without entropy =     -146.67569015  energy(sigma->0) =     -146.67569015

 average (electrostatic) potential at core
  the test charge radii are     1.1480  1.0210  0.9791  0.7215
  (the norm of the test charge is              1.0000)
       1 -95.4967       2 -95.4124       3 -95.5259       4 -95.4124       5 -43.0892
       6 -43.0892       7 -83.7137       8 -83.7137       9 -67.1586      10 -67.1071
      11 -66.4474      12 -67.1071      13 -67.1879      14 -67.1879      15 -66.7419
      16 -66.7419      17 -67.1879      18 -67.1879      19 -66.7419      20 -66.7419

 E-fermi :   7.6600     XC(G=0): -11.6837     alpha+bet :-16.4306

[...]

 k-point     1 :       0.0000    0.0000    0.0000
  band No.  band energies     occupation
      1     -24.0308      1.00000
      2     -23.9734      1.00000
      3     -23.9305      1.00000
      4     -23.8975      1.00000
      5     -11.3934      1.00000
      6     -11.1514      1.00000
      7     -11.0963      1.00000
      8     -10.8804      1.00000
      9      -9.9241      1.00000
     10      -9.9039      1.00000
     11      -9.8275      1.00000
     12      -9.7967      1.00000
     13      -9.7842      1.00000
     14      -9.5175      1.00000
     15      -9.4999      1.00000
     16      -9.3221      1.00000
     17      -7.5540      1.00000
     18      -7.5540      1.00000
     19      -7.4712      1.00000
     20      -7.4712      1.00000
     21      -7.4621      1.00000
     22      -7.4392      1.00000
     23      -7.4392      1.00000
     24      -7.3354      1.00000
     25      -7.3354      1.00000
     26      -7.0380      1.00000
     27      -6.8741      1.00000
     28      -6.6174      1.00000
     29       0.5108      1.00000
     30       1.3557      1.00000
     31       1.7788      1.00000
     32       2.1215      1.00000
     33       2.1215      1.00000
     34       2.3584      1.00000
     35       2.3584      1.00000
     36       2.4122      1.00000
     37       2.4122      1.00000
     38       2.6423      1.00000
     39       2.6423      1.00000
     40       2.6545      1.00000
     41       2.6627      1.00000
     42       2.8252      1.00000
     43       2.8260      1.00000
     44       2.9258      1.00000
     45       2.9382      1.00000
     46       2.9398      1.00000
     47       2.9398      1.00000
     48       3.1561      1.00000
     49       3.1561      1.00000
     50       3.2121      1.00000
     51       3.2625      1.00000
     52       3.2625      1.00000
     53       3.3480      1.00000
     54       3.3480      1.00000
     55       3.6623      1.00000
     56       4.1821      1.00000
     57       4.1961      1.00000
     58       4.5651      1.00000
     59       4.6637      1.00000
     60       4.6910      1.00000
[...]
     84       8.1902      0.00000
     85      10.1365      0.00000
     86      10.2284      0.00000
     87      10.6313      0.00000
     88      10.6618      0.00000
     89      10.6942      0.00000
     90      10.8425      0.00000
     91      10.9283      0.00000
     92      10.9966      0.00000
     93      11.0636      0.00000
     94      11.0721      0.00000
     95      11.0948      0.00000
     96      11.1213      0.00000
     97      11.1532      0.00000
     98      11.2206      0.00000

[...]

 spin component 2

[...]

 k-point     6 :       0.4000    0.4000    0.0000
  band No.  band energies     occupation
      1     -23.9154      1.00000
      2     -23.8627      1.00000
      3     -23.8176      1.00000
      4     -23.7970      1.00000
      5     -10.7689      1.00000
      6     -10.5168      1.00000
      7     -10.4701      1.00000
      8     -10.3902      1.00000
      9     -10.1494      1.00000
     10     -10.1397      1.00000
     11     -10.1164      1.00000
     12      -9.9698      1.00000
     13      -9.9280      1.00000
     14      -9.8709      1.00000
     15      -9.8502      1.00000
     16      -9.3762      1.00000
     17      -7.9347      1.00000
     18      -7.8880      1.00000
     19      -7.7183      1.00000
     20      -7.6516      1.00000
     21      -7.6411      1.00000
     22      -7.4851      1.00000
     23      -7.3141      1.00000
     24      -7.2729      1.00000
     25      -7.2527      1.00000
     26      -7.0863      1.00000
     27      -6.9373      1.00000
     28      -6.8394      1.00000
     29       1.0052      1.00000
     30       1.4303      1.00000
     31       1.4339      1.00000
     32       1.7464      1.00000
     33       1.9563      1.00000
     34       2.3022      1.00000
     35       2.5334      1.00000
     36       2.6656      1.00000
     37       2.7135      1.00000
     38       2.7259      1.00000
     39       2.7307      1.00000
     40       2.9528      1.00000
     41       2.9690      1.00000
     42       3.1074      1.00000
     43       3.2963      1.00000
     44       3.4621      1.00000
     45       3.5457      1.00000
     46       3.5915      1.00000
     47       3.6345      1.00000
     48       3.6659      1.00000
     49       4.0637      1.00000
     50       4.0791      1.00000
     51       4.1899      1.00000
     52       4.3335      1.00000
     53       5.0307      1.00000
     54       5.2442      1.00000
     55       5.6860      1.00000
     56       5.7451      1.00000
     57       5.7887      1.00000
     58       5.9635      1.00000
     59       5.9702      1.00000
     60       6.0973      1.00000
[...]
     84      10.9706      0.00000
     85      11.0185      0.00000
     86      11.0236      0.00000
     87      11.0376      0.00000
     88      11.0422      0.00000
     89      11.0563      0.00000
     90      11.0834      0.00000
     91      11.1028      0.00000
     92      11.1095      0.00000
     93      11.1250      0.00000
     94      11.1651      0.00000
     95      11.1891      0.00000
     96      11.2069      0.00000
     97      11.2505      0.00000
     98      11.2928      0.00000

 soft charge-density along one line, spin component           1
         0         1         2         3         4         5         6         7         8         9
 total charge-density along one line

 soft charge-density along one line, spin component           2
         0         1         2         3         4         5         6         7         8         9
 total charge-density along one line

------------------------ aborting loop because EDIFF is reached ----------------------------------------

 total charge

# of ion       s       p       d       f       tot
    1        1.998   5.695   0.472   0.183   8.348
    2        2.004   5.696   0.518   0.198   8.417
    3        2.001   5.703   0.502   0.197   8.403
    4        2.004   5.696   0.518   0.198   8.417
    5        0.333   0.504   4.866   0.000   5.703
    6        0.333   0.504   4.866   0.000   5.703
    7        0.414   0.611   8.327   0.000   9.353
    8        0.414   0.611   8.327   0.000   9.353
    9        1.561   3.459   0.000   0.000   5.020
   10        1.564   3.444   0.000   0.000   5.008
   11        1.557   3.438   0.000   0.000   4.996
   12        1.564   3.444   0.000   0.000   5.008
   13        1.559   3.515   0.000   0.000   5.075
   14        1.559   3.515   0.000   0.000   5.075
   15        1.557   3.517   0.000   0.000   5.074
   16        1.557   3.517   0.000   0.000   5.074
   17        1.571   3.380   0.000   0.000   4.951
   18        1.571   3.380   0.000   0.000   4.951
   19        1.562   3.396   0.000   0.000   4.957
   20        1.562   3.396   0.000   0.000   4.957
tot         28.246  66.422  28.398   0.776 123.842

 magnetization (x)

[...]

  FORCE on cell =-STRESS in cart. coord.  units (eV):
  Direction    XX          YY          ZZ          XY          YZ          ZX
  Alpha Z   652.11578   652.11578   652.11578
  Ewald   -3252.31833 -3252.31833 -3679.83067     0.00000    -0.00000     0.00000
  Hartree   946.03435   946.03435   566.33621    -0.00000    -0.00000    -0.00000
  E(xc)    -697.54305  -697.54305  -697.71040    -0.00000     0.00000    -0.00000
  Local    -817.98491  -817.98491    -7.74996    -0.00000    -0.00000    -0.00000
  n-local   280.26524   274.83720   278.03280    -1.71988     0.00076     0.00057
  augment   325.82925   325.82925   325.25995     0.00000    -0.00000     0.00000
  Kinetic  2531.84245  2600.23770  2562.91096    -7.19956    -0.00081    -0.00161
  Fock        0.00000     0.00000     0.00000     0.00000     0.00000     0.00000
  Total      -0.27561    -0.27561    -0.63533     0.00000     0.00000     0.00000
  in kB      -1.87619    -1.87619    -4.32497     0.00000     0.00000     0.00000

 VOLUME and BASIS-vectors are now :
  energy-cutoff  :      520.00
  volume of cell :      235.36
      direct lattice vectors                 reciprocal lattice vectors
     3.879830454  0.000000000  0.000000000     0.257743221  0.000000000  0.000000000
     0.000000000  3.879830454  0.000000000     0.000000000  0.257743221  0.000000000
     0.000000000  0.000000000 15.635183397     0.000000000  0.000000000  0.063958316

  length of vectors
     3.879830454  3.879830454 15.635183397     0.257743221  0.257743221  0.063958316

 FORCES acting on ions
    electron-ion (+dipol)            ewald-force                    non-local-force                 convergence-correction
   0.446E-14 -.128E-13 0.455E-13   0.116E-13 -.249E-13 0.114E-12   0.000E+00 -.339E-20 0.108E-18   0.186E-13 0.455E-14 0.615E-12
   0.535E-14 -.656E-13 -.306E+03   -.408E-14 -.142E-13 0.304E+03   -.542E-19 0.000E+00 0.235E+01   0.261E-13 0.258E-15 -.303E-01
   0.125E-14 -.112E-13 -.400E-12   -.151E-14 -.385E-14 0.000E+00   0.000E+00 0.000E+00 -.217E-18   0.165E-13 -.890E-15 -.608E-12
   0.747E-14 0.320E-13 0.306E+03   -.857E-15 -.112E-13 -.304E+03   0.108E-18 0.678E-20 -.235E+01   0.876E-14 0.292E-14 0.303E-01
   0.427E-13 0.104E-11 -.668E+02   0.106E-13 0.552E-14 0.661E+02   0.169E-20 0.169E-20 0.833E+00   -.227E-13 0.173E-13 -.470E-01
   0.460E-13 0.244E-12 0.668E+02   0.243E-13 0.550E-14 -.661E+02   -.339E-20 -.127E-20 -.833E+00   -.214E-15 0.757E-14 0.470E-01
   0.299E-12 0.218E-11 0.101E+03   0.288E-13 0.114E-13 -.991E+02   -.847E-21 -.847E-21 -.233E+01   0.273E-13 -.741E-14 -.109E-01
   0.292E-12 0.644E-12 -.101E+03   0.258E-13 0.105E-13 0.991E+02   0.847E-21 0.106E-20 0.233E+01   -.103E-13 0.634E-14 0.109E-01
   0.112E-12 -.106E-12 -.251E-12   -.843E-14 0.408E-14 -.853E-13   -.678E-20 0.000E+00 0.000E+00   -.406E-14 -.106E-13 -.308E-12
   0.114E-12 0.139E-11 -.154E+03   -.114E-13 0.550E-14 0.148E+03   0.339E-20 0.000E+00 0.631E+01   -.147E-13 -.170E-13 -.112E+00
   0.118E-12 0.167E-11 0.823E-12   -.125E-13 0.611E-14 0.000E+00   0.000E+00 -.169E-20 0.000E+00   -.943E-14 -.189E-13 0.395E-12
   0.113E-12 0.952E-13 0.154E+03   -.110E-13 0.720E-14 -.148E+03   -.169E-20 0.000E+00 -.631E+01   0.454E-14 -.787E-14 0.112E+00
   0.112E-12 -.513E-13 0.430E+02   -.706E-14 -.856E-14 -.424E+02   0.339E-20 -.339E-20 -.684E+00   0.707E-14 0.157E-13 0.451E-01
   0.106E-12 0.769E-13 -.430E+02   -.582E-15 -.353E-14 0.424E+02   -.169E-20 0.339E-20 0.684E+00   -.107E-13 0.124E-13 -.451E-01
   0.114E-12 -.293E-13 -.555E+02   0.261E-14 -.128E-13 0.538E+02   -.169E-20 0.000E+00 0.175E+01   -.491E-14 0.426E-13 -.214E-01
   0.113E-12 0.586E-13 0.555E+02   0.244E-14 -.987E-14 -.538E+02   -.339E-20 0.000E+00 -.175E+01   0.127E-13 0.468E-13 0.214E-01
   -.503E-14 0.458E-13 0.430E+02   -.185E-13 0.152E-14 -.424E+02   0.169E-20 -.508E-20 -.684E+00   0.830E-14 -.305E-13 0.451E-01
   0.729E-15 0.485E-12 -.430E+02   -.798E-14 -.122E-13 0.424E+02   -.339E-20 0.508E-20 0.684E+00   0.209E-13 -.489E-14 -.451E-01
   -.286E-14 0.361E-12 -.555E+02   -.604E-14 0.638E-14 0.538E+02   0.136E-19 0.000E+00 0.175E+01   0.173E-13 -.719E-14 -.214E-01
   -.296E-14 0.205E-12 0.555E+02   -.304E-14 0.752E-14 -.538E+02   -.136E-19 0.000E+00 -.175E+01   0.584E-15 -.329E-13 0.214E-01
   0.159E-11 0.825E-11 -.746E-11   0.132E-13 -.299E-13 -.291E-12   0.424E-19 0.233E-20 -.133E-14   0.917E-13 0.184E-13 0.327E-12

 POSITION                                       TOTAL-FORCE (eV/Angst)
      0.00000      0.00000      3.90880        -0.000000      0.000000     -0.000000
      0.00000      0.00000      7.59908        -0.000000      0.000000      0.117813
      0.00000      0.00000     11.72639        -0.000000      0.000000     -0.000000
      0.00000      0.00000      0.21851        -0.000000     -0.000000     -0.117813
      1.93992      1.93992      9.75006        -0.000000     -0.000000      0.114283
      1.93992      1.93992     13.70272        -0.000000      0.000000     -0.114283
      1.93992      1.93992      1.96315        -0.000000      0.000000      0.016774
      1.93992      1.93992      5.85444        -0.000000     -0.000000     -0.016774
      1.93992      1.93992     11.72639         0.000000      0.000000     -0.000000
      1.93992      1.93992      7.87463        -0.000000      0.000000      0.030033
      1.93992      1.93992      3.90880        -0.000000      0.000000     -0.000000
      1.93992      1.93992     15.57814        -0.000000     -0.000000     -0.030033
      1.93992      0.00000     13.62115        -0.000000      0.000000     -0.046347
      1.93992      0.00000      9.83162         0.000000     -0.000000      0.046347
      1.93992      0.00000      5.91100        -0.000000     -0.000000      0.012364
      1.93992      0.00000      1.90660        -0.000000      0.000000     -0.012364
      0.00000      1.93992     13.62115         0.000000     -0.000000     -0.046347
      0.00000      1.93992      9.83162        -0.000000      0.000000      0.046347
      0.00000      1.93992      5.91100        -0.000000      0.000000      0.012364
      0.00000      1.93992      1.90660        -0.000000     -0.000000     -0.012364
    total drift:                                0.000000      0.000000     -0.000000

  FREE ENERGIE OF THE ION-ELECTRON SYSTEM (eV)
  free  energy   TOTEN  =      -146.67569015 eV

  energy  without entropy=     -146.67569015  energy(sigma->0) =     -146.67569015

 total charge

[...]

 magnetization (x)

# of ion       s       p       d       f       tot
    1        0.000  -0.001   0.002   0.001   0.002
    2        0.000   0.000   0.008   0.005   0.013
    3        0.001   0.002   0.014   0.006   0.022
    4        0.000   0.000   0.008   0.005   0.013
    5        0.024   0.017   3.500   0.000   3.542
    6        0.024   0.017   3.500   0.000   3.542
    7        0.017   0.014   1.557   0.000   1.589
    8        0.017   0.014   1.557   0.000   1.589
    9        0.001  -0.039   0.000   0.000  -0.037
   10        0.005  -0.048   0.000   0.000  -0.043
   11        0.007  -0.019   0.000   0.000  -0.012
   12        0.005  -0.048   0.000   0.000  -0.043
   13        0.009  -0.072   0.000   0.000  -0.063
   14        0.009  -0.072   0.000   0.000  -0.063
   15        0.011  -0.015   0.000   0.000  -0.004
   16        0.011  -0.015   0.000   0.000  -0.004
   17       -0.000  -0.041   0.000   0.000  -0.042
   18       -0.000  -0.041   0.000   0.000  -0.042
   19        0.002  -0.045   0.000   0.000  -0.043
   20        0.002  -0.045   0.000   0.000  -0.043
tot          0.148  -0.437  10.146   0.017   9.873

 BZINTS: Fermi energy:  7.659979;150.000000 electrons
         Band energy:-227.619693;  BLOECHL correction: -0.151886