 vasp.5.4.4.18Apr17-6-g9f103f2a35 (build Oct 03 2018 13:58:34) complex

 executed on             LinuxIFC date 2019.06.04  00:43:43

 INCAR:
 POTCAR:    PAW_PBE La 06Sep2000
 POTCAR:    PAW_PBE Mn 06Sep2000
 POTCAR:    PAW_PBE Ni 02Aug2007
 POTCAR:    PAW_PBE O 08Apr2002

 POTCAR:    PAW_PBE La 06Sep2000
   VRHFIN =La : [core=Kr4d]

   TITEL  = PAW_PBE La 06Sep2000
   POMASS =  138.900; ZVAL   =   11.000    mass and valenz
   ENMAX  =  219.292; ENMIN  =  164.469 eV

 POTCAR:    PAW_PBE Mn 06Sep2000
   VRHFIN =Mn: d6 s1

   TITEL  = PAW_PBE Mn 06Sep2000
   POMASS =   54.938; ZVAL   =    7.000    mass and valenz
   ENMAX  =  269.864; ENMIN  =  202.398 eV

 POTCAR:    PAW_PBE Ni 02Aug2007
   VRHFIN =Ni:

   TITEL  = PAW_PBE Ni 02Aug2007
   POMASS =   58.690; ZVAL   =   10.000    mass and valenz
   ENMAX  =  269.532; ENMIN  =  202.149 eV

 POTCAR:    PAW_PBE O 08Apr2002
   VRHFIN =O: s2p4

   TITEL  = PAW_PBE O 08Apr2002
   POMASS =   16.000; ZVAL   =    6.000    mass and valenz
   ENMAX  =  400.000; ENMIN  =  300.000 eV

 Optimization of the real space projectors (new method)

 maximal supplied QI-value         = 13.42
 optimisation between [QCUT,QGAM] = [ 11.67, 23.35] = [ 38.16,152.62] Ry
 Optimized for a Real-space Cutoff    1.63 Angstroem

   l    n(q)    QCUT    max X(q) W(low)/X(q) W(high)/X(q)  e(spline)
   0     11    11.673    13.882    0.27E-04    0.79E-05    0.11E-06
   0     11    11.673    12.184    0.39E-04    0.13E-04    0.19E-06
   1     11    11.673     4.523    0.73E-05    0.76E-05    0.12E-06
   1     11    11.673     4.424    0.87E-05    0.13E-04    0.19E-06
   2     10    11.673    52.481    0.65E-04    0.36E-04    0.18E-06
   2     10    11.673    38.501    0.61E-04    0.33E-04    0.17E-06
   3     10    11.673    65.631    0.17E-03    0.14E-03    0.37E-06
   3     10    11.673    56.854    0.17E-03    0.14E-03    0.37E-06
 Optimization of the real space projectors (new method)

[...]

   l    n(q)    QCUT    max X(q) W(low)/X(q) W(high)/X(q)  e(spline)
   2      9    11.539    60.317    0.19E-03    0.47E-04    0.16E-06
   2      9    11.539    55.921    0.19E-03    0.48E-04    0.16E-06
   0     10    11.539    51.690    0.80E-04    0.50E-04    0.24E-06
   0     10    11.539    30.015    0.73E-04    0.45E-04    0.22E-06
   1     10    11.539    18.849    0.87E-04    0.16E-03    0.71E-07
   1     10    11.539    14.624    0.73E-04    0.13E-03    0.64E-07
 Optimization of the real space projectors (new method)

 maximal supplied QI-value         = 24.76
 optimisation between [QCUT,QGAM] = [ 11.64, 23.27] = [ 37.91,151.63] Ry
 Optimized for a Real-space Cutoff    1.14 Angstroem

   l    n(q)    QCUT    max X(q) W(low)/X(q) W(high)/X(q)  e(spline)
   0      8    11.635    20.381    0.10E-03    0.33E-03    0.24E-06
   0      8    11.635    15.268    0.11E-03    0.35E-03    0.26E-06
   1      7    11.635     5.964    0.24E-03    0.31E-03    0.30E-06
   1      7    11.635     5.382    0.22E-03    0.25E-03    0.26E-06
  PAW_PBE La 06Sep2000                  :
  PAW_PBE Mn 06Sep2000                  :
  PAW_PBE Ni 02Aug2007                  :
  PAW_PBE O 08Apr2002                   :

 POSCAR: SCEL3_1_3_1_1_0_0/0
  positions in direct lattice
  velocities in cartesian coordinates
 exchange correlation table for  LEXCH =        8
   RHO(1)=    0.500       N(1)  =     2000
   RHO(2)=  100.500       N(2)  =     4000

 ion  position               nearest neighbor table
   1  0.000  0.000  0.000-   7 2.75   7 2.75   9 2.75   8 2.75  15 2.77  13 2.77  13 2.77  15 2.77
                            10 2.77  11 2.77  11 2.77  10 2.77   6 3.38   6 3.38   6 3.38   6 3.38
   2  0.000  0.661  0.321-   7 2.65  11 2.71  11 2.71  13 2.71  13 2.71   8 2.75   8 2.75  14 2.81
                            14 2.81  12 2.81  12 2.81   6 3.30   6 3.30   4 3.38   4 3.38   4 3.38
   3  0.000  0.339  0.679-   7 2.65  10 2.71  10 2.71  15 2.71  15 2.71   9 2.75   9 2.75  14 2.81
                            14 2.81  12 2.81  12 2.81   6 3.30   6 3.30   5 3.38   5 3.38   5 3.38
   4  0.500  0.167  0.334-  13 1.91  11 1.91  12 1.94  14 1.94   8 1.97   8 1.97   2 3.38   2 3.38
                             2 3.38   2 3.38   1 3.39   1 3.39
   5  0.500  0.833  0.666-  15 1.91  10 1.91  12 1.94  14 1.94   9 1.97   9 1.97   3 3.38   3 3.38
                             3 3.38   3 3.38   1 3.39   1 3.39
   6  0.500  0.500  0.000-   7 1.97   7 1.97  11 1.98  10 1.98  15 1.98  13 1.98   3 3.30   3 3.30
                             2 3.30   2 3.30   1 3.38   1 3.38   1 3.38   1 3.38
   7  0.000  0.500  0.000-   6 1.97   6 1.97   2 2.65   3 2.65   1 2.75   1 2.75
   8  0.000  0.167  0.334-   4 1.97   4 1.97   2 2.75   2 2.75   1 2.75
   9  0.000  0.833  0.666-   5 1.97   5 1.97   3 2.75   3 2.75   1 2.75
  10  0.500  0.161  0.829-   5 1.91   6 1.98   3 2.71   3 2.71   1 2.77   1 2.77
  11  0.500  0.839  0.171-   4 1.91   6 1.98   2 2.71   2 2.71   1 2.77   1 2.77
  12  0.500  0.500  0.500-   4 1.94   5 1.94   2 2.81   2 2.81   3 2.81   3 2.81
  13  0.500  0.331  0.171-   4 1.91   6 1.98   2 2.71   2 2.71   1 2.77   1 2.77
  14  0.500  0.000  0.500-   4 1.94   5 1.94   3 2.81   3 2.81   2 2.81   2 2.81
  15  0.500  0.669  0.829-   5 1.91   6 1.98   3 2.71   3 2.71   1 2.77   1 2.77

  LATTYP: Found a base centered orthorhombic cell.
 ALAT       =     5.4933404544
 B/A-ratio  =     2.9997541779
 C/A-ratio  =     0.7162618483

  Lattice vectors:

 A1 = (   0.0000000000,   7.7682791451,  -3.8839008487)
 A2 = (   0.0000000000,  -3.8839008585,   7.7682791354)
 A3 = (   3.9346701871,   0.0000000000,   0.0000000000)

Analysis of symmetry for initial positions (statically):
 Subroutine PRICEL returns:
 Original cell was already a primitive cell.

 Routine SETGRP: Setting up the symmetry group for a
 base centered orthorhombic supercell.

 Subroutine GETGRP returns: Found  8 space group operations
 (whereof  8 operations were pure point group operations)
 out of a pool of  8 trial point group operations.

The static configuration has the point symmetry D_2h.

Analysis of symmetry for dynamics (positions and initial velocities):
 Subroutine PRICEL returns:
 Original cell was already a primitive cell.

[...]

The dynamic configuration has the point symmetry D_2h.

Analysis of structural, dynamic, and magnetic symmetry:
 Subroutine PRICEL returns:
 Original cell was already a primitive cell.

 Routine SETGRP: Setting up the symmetry group for a
 base centered orthorhombic supercell.

 Subroutine GETGRP returns: Found  8 space group operations
 (whereof  8 operations were pure point group operations)
 out of a pool of  8 trial point group operations.

The magnetic configuration has the point symmetry D_2h.

 Subroutine INISYM returns: Found  8 space group operations
 (whereof  8 operations are pure point group operations),
 and found     1 'primitive' translations

 KPOINTS: Automatic mesh

Automatic generation of k-mesh.
 generate k-points for:    5    4    2
Space group operators:
 irot       det(A)        alpha          n_x          n_y          n_z        tau_x        tau_y        tau_z
    1     1.000000     0.000000     1.000000     0.000000     0.000000     0.000000     0.000000     0.000000
    2    -1.000000     0.000000     1.000000     0.000000     0.000000     0.000000     0.000000     0.000000
    3     1.000000   180.000000     1.000000     0.000000     0.000000     0.000000     0.000000     0.000000
    4    -1.000000   180.000000     1.000000     0.000000     0.000000     0.000000     0.000000     0.000000
    5     1.000000   180.000000     0.000000    -0.707107     0.707107     0.000000     0.000000     0.000000
    6    -1.000000   180.000000     0.000000    -0.707107     0.707107     0.000000     0.000000     0.000000
    7     1.000000   179.999999     0.000000     0.707107     0.707107     0.000000     0.000000     0.000000
    8    -1.000000   179.999999     0.000000     0.707107     0.707107     0.000000     0.000000     0.000000

 Subroutine IBZKPT returns following result:

 Found     15 irreducible k-points:

 Following reciprocal coordinates:
            Coordinates               Weight
  0.000000  0.000000  0.000000      1.000000
  0.200000  0.000000  0.000000      2.000000
  0.400000  0.000000  0.000000      2.000000
  0.000000  0.250000 -0.000000      2.000000
  0.200000  0.250000 -0.000000      4.000000
  0.400000  0.250000 -0.000000      4.000000
  0.000000  0.500000 -0.000000      2.000000
  0.200000  0.500000 -0.000000      4.000000
  0.400000  0.500000 -0.000000      4.000000
  0.000000  0.000000  0.500000      1.000000
  0.200000  0.000000  0.500000      2.000000
  0.400000  0.000000  0.500000      2.000000
  0.000000  0.250000  0.500000      2.000000
  0.200000  0.250000  0.500000      4.000000
  0.400000  0.250000  0.500000      4.000000

 Following cartesian coordinates:
            Coordinates               Weight
  0.000000  0.000000  0.000000      1.000000
 -0.050830  0.000000  0.000000      2.000000
 -0.101660  0.000000  0.000000      2.000000
  0.000000  0.042908  0.021453      2.000000
 -0.050830  0.042908  0.021453      4.000000
 -0.101660  0.042908  0.021453      4.000000
  0.000000  0.085816  0.042905      2.000000
 -0.050830  0.085816  0.042905      4.000000
 -0.101660  0.085816  0.042905      4.000000
  0.000000  0.042910 -0.042910      1.000000
 -0.050830  0.042910 -0.042910      2.000000
 -0.101660  0.042910 -0.042910      2.000000
  0.000000  0.085818 -0.021458      2.000000
 -0.050830  0.085818 -0.021458      4.000000
 -0.101660  0.085818 -0.021458      4.000000

 TETIRR: Found    111 inequivalent tetrahedra from      240

 SYSTEM =  final
 POSCAR =  SCEL3_1_3_1_1_0_0/0

 Startparameter for this run:
   NWRITE =      2    write-flag & timer
   PREC   = accura    normal or accurate (medium, high low for compatibility)
   ISTART =      0    job   : 0-new  1-cont  2-samecut
   ICHARG =      1    charge: 1-file 2-atom 10-const
   ISPIN  =      2    spin polarized calculation?
   LNONCOLLINEAR =      F non collinear calculations
   LSORBIT =      F    spin-orbit coupling
   INIWAV =      1    electr: 0-lowe 1-rand  2-diag
   LASPH  =      F    aspherical Exc in radial PAW
   METAGGA=      F    non-selfconsistent MetaGGA calc.

 Electronic Relaxation 1
   ENCUT  =  520.0 eV  38.22 Ry    6.18 a.u.   7.32 10.21 16.15*2*pi/ulx,y,z
   ENINI  =  520.0     initial cutoff
   ENAUG  =  605.4 eV  augmentation charge cutoff
   NELM   =    100;   NELMIN=  2; NELMDL= -5     # of ELM steps
   EDIFF  = 0.1E-02   stopping-criterion for ELM
   LREAL  =      T    real-space projection
   NLSPLINE    = F    spline interpolate recip. space projectors
   LCOMPAT=      F    compatible to vasp.4.4
   GGA_COMPAT  = T    GGA compatible to vasp.4.4-vasp.4.6
   LMAXPAW     = -100 max onsite density
   LMAXMIX     =    6 max onsite mixed and CHGCAR
   VOSKOWN=      0    Vosko Wilk Nusair interpolation
   ROPT   =   -0.00025  -0.00025  -0.00025  -0.00025
 Ionic relaxation
   EDIFFG = 0.1E-01   stopping-criterion for IOM
   NSW    =      0    number of steps for IOM
   NBLOCK =      1;   KBLOCK =      1    inner block; outer block
   IBRION =     -1    ionic relax: 0-MD 1-quasi-New 2-CG
[...]
  -exchange      EXHF   =         0.00000000
  -V(xc)+E(xc)   XCENC  =       355.25450444
  PAW double counting   =      6822.26835318    -6834.95433714
  entropy T*S    EENTRO =         0.00000000
  eigenvalues    EBANDS =      1469.10248999
  atomic energy  EATOM  =      8400.32230685
  Solvation  Ediel_sol  =         0.00000000
  free energy    TOTEN  =      1594.28090991 eV

  energy without entropy =     1594.28090991  energy(sigma->0) =     1594.28090991

[...]

 BZINTS: Fermi energy: 14.917761;111.000000 electrons
         Band energy: 327.161869;  BLOECHL correction: -0.127075

 eigenvalue-minimisations  :  4968
 total energy-change (2. order) :-0.1141941E+04  (-0.1039739E+04)
 number of electron     111.0000000 magnetization      11.0000000
 augmentation part      111.0000000 magnetization      11.0000000

[...]

 BZINTS: Fermi energy: 11.731318;111.000000 electrons
         Band energy: -98.792325;  BLOECHL correction: -0.023575

[...]

 BZINTS: Fermi energy: 11.176915;111.000000 electrons
         Band energy:-235.573748;  BLOECHL correction: -0.030422

[...]

 Broyden mixing:
  rms(total) = 0.47441E+01    rms(broyden)= 0.47437E+01
  rms(prec ) = 0.59661E+01
  weight for this iteration     100.00

[...]

 eigenvalues of (default mixing * dielectric matrix)
  average eigenvalue GAMMA=   0.0015
  0.0015

[...]

 eigenvalue-minimisations  :  6819
 total energy-change (2. order) :-0.3317012E-02  (-0.4523660E-02)
 number of electron     110.9999997 magnetization       9.0008837
 augmentation part       13.0769059 magnetization       6.5532351

 Broyden mixing:
  rms(total) = 0.64438E-01    rms(broyden)= 0.64433E-01
  rms(prec ) = 0.69975E-01
  weight for this iteration     100.00

 eigenvalues of (default mixing * dielectric matrix)
  average eigenvalue GAMMA=   1.1033
  2.6568  1.6407  1.6407  0.8118  0.8118  0.6726  0.6726  0.5114  0.5114

[...]

--------------------------------------- Iteration      1(  15)  ---------------------------------------

atom =   1  type =  1  l = 0

[...]

  o =  0.7869  v =  0.0000  1.0000      0.0000  0.0000
  o =  0.7892  v =  1.0000  0.0000      0.0000  0.0000
atom =  15  type =  4  l = 0

 onsite density matrix

[...]

  0.7856

 occupancies and eigenvectors

  o =  0.7856  v =  0.0000  1.0000      0.0000  0.0000
  o =  0.7908  v =  1.0000  0.0000      0.0000  0.0000
 BZINTS: Fermi energy:  8.105355;111.000000 electrons
         Band energy:-186.925631;  BLOECHL correction: -0.061766

 eigenvalue-minimisations  :  5435
 total energy-change (2. order) : 0.6803297E-03  (-0.2438328E-03)
 number of electron     110.9999997 magnetization       9.0008837
 augmentation part       13.0769059 magnetization       6.5532351

 Free energy of the ion-electron system (eV)
  alpha Z        PSCENC =       486.99455823
  Ewald energy   TEWEN  =     -7519.45284493
  -Hartree energ DENC   =     -1631.58728271
  -exchange      EXHF   =         0.00000000
  -V(xc)+E(xc)   XCENC  =       363.76908132
  PAW double counting   =      9028.82207912    -9055.21557305
  entropy T*S    EENTRO =         0.00000000
  eigenvalues    EBANDS =      -186.92563146
  atomic energy  EATOM  =      8400.32230685
  Solvation  Ediel_sol  =         0.00000000
  free energy    TOTEN  =      -113.27330662 eV

  energy without entropy =     -113.27330662  energy(sigma->0) =     -113.27330662

 average (electrostatic) potential at core
  the test charge radii are     1.1480  1.0210  0.9791  0.7215
  (the norm of the test charge is              1.0000)
       1 -95.7848       2 -95.7446       3 -95.7446       4 -42.8194       5 -42.8194
       6 -83.6593       7 -66.6224       8 -67.1357       9 -67.1357      10 -67.0886
      11 -67.0886      12 -67.1836      13 -67.0886      14 -67.1837      15 -67.0886

 E-fermi :   8.1054     XC(G=0): -11.6465     alpha+bet :-16.2576

[...]

 k-point     1 :       0.0000    0.0000    0.0000
  band No.  band energies     occupation
      1     -24.2593      1.00000
      2     -24.1639      1.00000
      3     -24.1604      1.00000
      4     -11.0648      1.00000
      5     -11.0061      1.00000
      6     -10.8457      1.00000
      7     -10.3511      1.00000
      8     -10.3474      1.00000
      9      -9.8791      1.00000
     10      -9.8737      1.00000
     11      -9.8152      1.00000
     12      -9.6055      1.00000
     13      -7.7836      1.00000
     14      -7.7409      1.00000
     15      -7.7349      1.00000
     16      -7.6262      1.00000
     17      -7.6014      1.00000
     18      -7.3942      1.00000
     19      -7.3904      1.00000
     20      -7.3380      1.00000
     21      -7.1358      1.00000
     22       0.5651      1.00000
     23       0.7755      1.00000
     24       1.1210      1.00000
     25       1.4008      1.00000
     26       1.4215      1.00000
     27       1.7423      1.00000
     28       2.0914      1.00000
     29       2.1074      1.00000
     30       2.1114      1.00000
     31       2.1283      1.00000
     32       2.8165      1.00000
     33       2.9192      1.00000
     34       2.9362      1.00000
     35       3.1455      1.00000
     36       3.1484      1.00000
     37       3.1521      1.00000
     38       3.4331      1.00000
     39       3.7709      1.00000
     40       3.9689      1.00000
     41       4.5385      1.00000
     42       4.6119      1.00000
     43       4.7883      1.00000
     44       4.9294      1.00000
     45       5.1041      1.00000
     46       5.1057      1.00000
     47       5.1088      1.00000
     48       5.1681      1.00000
     49       5.3247      1.00000
     50       5.3839      1.00000
     51       5.4519      1.00000
     52       5.7668      1.00000
     53       5.8112      1.00000
     54       5.9789      1.00000
     55       6.0135      1.00000
     56       6.0155      1.00000
     57       6.0300      1.00000
     58       6.3515      1.00000
     59       6.3648      1.00000
     60       6.3781      1.00000
     61       6.6082      1.10376
     62       8.8309      0.00000
     63       9.8410      0.00000
     64       9.9810      0.00000
     65      10.4632      0.00000
     66      10.5054      0.00000
     67      10.5620      0.00000
     68      10.6554      0.00000
     69      10.7456      0.00000
     70      10.7676      0.00000
     71      10.8184      0.00000
     72      10.8601      0.00000

[...]

 spin component 2

[...]

 k-point    15 :       0.4000    0.2500    0.5000
  band No.  band energies     occupation
      1     -24.1832      1.00000
      2     -24.1422      1.00000
      3     -24.1077      1.00000
      4     -11.1022      1.00000
      5     -10.8885      1.00000
      6     -10.3645      1.00000
      7     -10.3172      1.00000
      8     -10.1215      1.00000
      9     -10.0193      1.00000
     10      -9.8851      1.00000
     11      -9.7836      1.00000
     12      -9.6881      1.00000
     13      -8.0639      1.00000
     14      -7.9117      1.00000
     15      -7.6888      1.00000
     16      -7.6472      1.00000
     17      -7.5734      1.00000
     18      -7.4299      1.00000
     19      -7.2834      1.00000
     20      -7.1913      1.00000
     21      -7.1109      1.00000
     22       1.2770      1.00000
     23       1.9008      1.00000
     24       2.1288      1.00000
     25       2.3291      1.00000
     26       2.4911      1.00000
     27       2.7313      1.00000
     28       3.0457      1.00000
     29       3.0870      1.00000
     30       3.1728      1.00000
     31       3.2062      1.00000
     32       3.2877      1.00000
     33       3.3881      1.00000
     34       3.6062      1.00000
     35       3.6607      1.00000
     36       3.9323      1.00000
     37       4.0597      1.00000
     38       4.2312      1.00000
     39       4.6915      1.00000
     40       4.7584      1.00000
     41       5.0184      1.00000
     42       5.2086      1.00000
     43       5.2984      1.00000
     44       5.6644      1.00000
     45       5.7865      1.00000
     46       5.9154      1.00000
     47       6.0253      1.00000
     48       6.0515      1.00000
     49       6.1671      1.00000
     50       6.2505      1.00000
     51       6.3194      1.00000
     52      10.3955      0.00000
     53      10.4247      0.00000
     54      10.4589      0.00000
     55      10.4914      0.00000
     56      10.5037      0.00000
     57      10.5338      0.00000
     58      10.5556      0.00000
     59      10.5922      0.00000
     60      10.6466      0.00000
     61      10.6711      0.00000
     62      10.7123      0.00000
     63      10.7392      0.00000
     64      10.7552      0.00000
     65      10.7650      0.00000
     66      10.7879      0.00000
     67      10.8245      0.00000
     68      10.8287      0.00000
     69      10.8541      0.00000
     70      10.8614      0.00000
     71      10.8762      0.00000
     72      10.9906      0.00000

 soft charge-density along one line, spin component           1
         0         1         2         3         4         5         6         7         8         9
 total charge-density along one line

 soft charge-density along one line, spin component           2
         0         1         2         3         4         5         6         7         8         9
 total charge-density along one line

------------------------ aborting loop because EDIFF is reached ----------------------------------------

 total charge

# of ion       s       p       d       f       tot
    1        1.998   5.696   0.478   0.185   8.357
    2        1.998   5.698   0.485   0.188   8.368
    3        1.998   5.698   0.485   0.187   8.368
    4        0.331   0.512   4.866   0.000   5.709
    5        0.331   0.512   4.865   0.000   5.708
    6        0.392   0.559   8.318   0.000   9.270
    7        1.555   3.455   0.000   0.000   5.010
    8        1.566   3.457   0.000   0.000   5.023
    9        1.566   3.457   0.000   0.000   5.022
   10        1.562   3.458   0.000   0.000   5.020
   11        1.562   3.458   0.000   0.000   5.020
   12        1.562   3.468   0.000   0.000   5.030
   13        1.561   3.460   0.000   0.000   5.021
   14        1.561   3.471   0.000   0.000   5.032
   15        1.561   3.460   0.000   0.000   5.021
tot         21.104  49.820  19.496   0.560  90.979

 magnetization (x)

[...]

  FORCE on cell =-STRESS in cart. coord.  units (eV):
  Direction    XX          YY          ZZ          XY          YZ          ZX
  Alpha Z   486.99456   486.99456   486.99456
  Ewald   -2507.80707 -2505.82928 -2505.82933     0.00000    10.55548     0.00000
  Hartree   560.23940   536.09746   536.09750     0.00000    11.18322    -0.00000
  E(xc)    -512.88834  -512.83050  -512.83044    -0.00000    -0.01707    -0.00000
  Local    -323.30488  -292.56588  -292.56556     0.00000   -21.31979    -0.00000
  n-local   200.04571   201.35361   201.20162     0.23529     0.28312     0.23186
  augment   174.08778   170.99957   170.99834     0.00000    -0.01465    -0.00000
  Kinetic  1922.95011  1915.03196  1915.70590    -0.44389    -0.71058    -0.44824
  Fock        0.00000     0.00000     0.00000     0.00000     0.00000     0.00000
  Total       0.31726    -0.48796    -0.48796     0.00000    -0.06185     0.00000
  in kB       2.85424    -4.38996    -4.38996     0.00000    -0.55647     0.00000

 VOLUME and BASIS-vectors are now :
  energy-cutoff  :      520.00
  volume of cell :      178.09
      direct lattice vectors                 reciprocal lattice vectors
    -3.934670187  0.000000000  0.000000000    -0.254150908  0.000000000  0.000000000
     0.000000000  3.884378287  3.884378287     0.000000000  0.171631153  0.085810303
     0.000000000  3.883900858 -7.768279135     0.000000000  0.085820851 -0.085820851

  length of vectors
     3.934670187  5.493340454  8.685093356     0.254150908  0.191887104  0.121369011

 FORCES acting on ions
    electron-ion (+dipol)            ewald-force                    non-local-force                 convergence-correction
   0.108E-14 -.222E-12 -.287E-12   -.177E-13 -.287E-11 -.284E-11   0.000E+00 -.108E-18 0.000E+00   0.491E-14 0.455E-13 0.338E-12
   0.378E-14 -.688E+02 0.688E+02   0.613E-13 0.681E+02 -.681E+02   -.847E-21 0.635E+00 -.635E+00   0.525E-14 0.393E-01 -.393E-01
   0.741E-14 0.688E+02 -.688E+02   -.557E-14 -.681E+02 0.681E+02   0.000E+00 -.635E+00 0.635E+00   -.402E-15 -.393E-01 0.393E-01
   -.473E-13 -.296E+02 0.296E+02   -.246E-13 0.293E+02 -.293E+02   0.000E+00 0.370E+00 -.370E+00   -.681E-14 0.173E-01 -.173E-01
   -.407E-13 0.296E+02 -.296E+02   0.249E-14 -.293E+02 0.293E+02   0.000E+00 -.370E+00 0.370E+00   -.145E-13 -.173E-01 0.173E-01
   -.291E-12 -.269E-12 0.573E-11   0.211E-13 0.236E-11 0.236E-11   0.000E+00 -.678E-19 0.000E+00   -.446E-13 -.277E-12 -.226E-12
   0.540E-14 0.349E-12 0.341E-12   -.124E-13 0.209E-11 0.199E-11   0.000E+00 -.271E-19 0.000E+00   0.641E-14 -.194E-12 -.959E-13
   0.895E-14 -.242E+02 0.242E+02   0.187E-13 0.246E+02 -.246E+02   0.000E+00 -.491E+00 0.491E+00   -.124E-14 0.203E-01 -.203E-01
   0.312E-14 0.242E+02 -.242E+02   -.999E-14 -.246E+02 0.246E+02   0.000E+00 0.491E+00 -.491E+00   0.264E-14 -.203E-01 0.203E-01
   -.125E-12 0.571E+02 -.864E+01   -.416E-14 -.522E+02 0.817E+01   0.867E-18 -.487E+01 0.446E+00   -.221E-13 -.840E-01 0.186E-01
   -.119E-12 -.571E+02 0.864E+01   -.116E-13 0.522E+02 -.817E+01   -.867E-18 0.487E+01 -.446E+00   -.293E-13 0.840E-01 -.186E-01
   -.117E-12 0.337E-11 0.856E-12   -.757E-14 0.225E-11 -.382E-11   0.000E+00 0.813E-19 0.000E+00   -.213E-13 0.796E-13 -.177E-13
   -.134E-12 -.864E+01 0.571E+02   -.186E-13 0.817E+01 -.522E+02   0.867E-18 0.446E+00 -.487E+01   -.205E-13 0.186E-01 -.840E-01
   -.122E-12 -.161E-12 -.187E-11   0.131E-14 -.365E-11 0.220E-11   0.000E+00 0.000E+00 0.108E-18   -.128E-13 0.138E-12 -.178E-12
   -.130E-12 0.864E+01 -.571E+02   0.580E-14 -.817E+01 0.522E+02   -.867E-18 -.446E+00 0.487E+01   -.546E-14 -.186E-01 0.840E-01
   -.110E-11 0.341E-10 0.326E-10   -.142E-14 -.213E-13 -.711E-14   -.847E-21 0.000E+00 -.888E-15   -.160E-12 0.117E-13 -.160E-12

 POSITION                                       TOTAL-FORCE (eV/Angst)
      0.00000      0.00000      0.00000         0.000000      0.000000     -0.000000
      0.00000      3.81523      0.06915         0.000000     -0.013798      0.013798
      0.00000      3.95305     -3.95305        -0.000000      0.013798     -0.013798
     -1.96734      1.94833     -1.94832         0.000000      0.031982     -0.031982
     -1.96734      5.81995     -1.93558         0.000000     -0.031982      0.031982
     -1.96734      1.94219      1.94219         0.000000      0.000000     -0.000000
      0.00000      1.94219      1.94219         0.000000     -0.000000     -0.000000
      0.00000      1.94649     -1.94649         0.000000     -0.063569      0.063569
      0.00000      5.82179     -1.93742        -0.000000      0.063569     -0.063569
     -1.96734      3.84366     -5.81672         0.000000     -0.058284     -0.000671
     -1.96734      3.92462      1.93282         0.000000      0.058284      0.000671
     -1.96734      3.88414     -1.94195         0.000000      0.000000     -0.000000
     -1.96734      1.95156     -0.04024         0.000000     -0.000671     -0.058284
     -1.96734      1.94195     -3.88414         0.000000      0.000000     -0.000000
     -1.96734      5.81672     -3.84366         0.000000      0.000671      0.058284
    total drift:                               -0.000000      0.000000      0.000000

  FREE ENERGIE OF THE ION-ELECTRON SYSTEM (eV)
  free  energy   TOTEN  =      -113.27330662 eV

  energy  without entropy=     -113.27330662  energy(sigma->0) =     -113.27330662

 total charge

[...]

 magnetization (x)

# of ion       s       p       d       f       tot
    1       -0.000   0.001   0.007   0.003   0.010
    2       -0.000   0.001   0.008   0.004   0.013
    3       -0.000   0.001   0.009   0.003   0.013
    4        0.024   0.029   3.551   0.000   3.604
    5        0.024   0.029   3.550   0.000   3.603
    6        0.012   0.001   1.687   0.000   1.700
    7        0.006   0.021   0.000   0.000   0.028
    8        0.008  -0.028   0.000   0.000  -0.020
    9        0.008  -0.028   0.000   0.000  -0.021
   10        0.005  -0.025   0.000   0.000  -0.020
   11        0.005  -0.025   0.000   0.000  -0.019
   12        0.002  -0.018   0.000   0.000  -0.016
   13        0.005  -0.021   0.000   0.000  -0.016
   14        0.002  -0.015   0.000   0.000  -0.014
   15        0.005  -0.021   0.000   0.000  -0.016
tot          0.106  -0.099   8.812   0.011   8.830

 BZINTS: Fermi energy:  8.105355;111.000000 electrons
         Band energy:-186.925631;  BLOECHL correction: -0.061766