 vasp.5.4.4.18Apr17-6-g9f103f2a35 (build Oct 03 2018 13:58:34) complex

 executed on             LinuxIFC date 2019.06.03  23:57:30

 INCAR:
 POTCAR:    PAW_PBE La 06Sep2000
 POTCAR:    PAW_PBE Mn 06Sep2000
 POTCAR:    PAW_PBE Ni 02Aug2007
 POTCAR:    PAW_PBE O 08Apr2002

 POTCAR:    PAW_PBE La 06Sep2000
   VRHFIN =La : [core=Kr4d]

   TITEL  = PAW_PBE La 06Sep2000
   POMASS =  138.900; ZVAL   =   11.000    mass and valenz
   ENMAX  =  219.292; ENMIN  =  164.469 eV

 POTCAR:    PAW_PBE Mn 06Sep2000
   VRHFIN =Mn: d6 s1

   TITEL  = PAW_PBE Mn 06Sep2000
   POMASS =   54.938; ZVAL   =    7.000    mass and valenz
   ENMAX  =  269.864; ENMIN  =  202.398 eV

 POTCAR:    PAW_PBE Ni 02Aug2007
   VRHFIN =Ni:

   TITEL  = PAW_PBE Ni 02Aug2007
   POMASS =   58.690; ZVAL   =   10.000    mass and valenz
   ENMAX  =  269.532; ENMIN  =  202.149 eV

 POTCAR:    PAW_PBE O 08Apr2002
   VRHFIN =O: s2p4

   TITEL  = PAW_PBE O 08Apr2002
   POMASS =   16.000; ZVAL   =    6.000    mass and valenz
   ENMAX  =  400.000; ENMIN  =  300.000 eV

 Optimization of the real space projectors (new method)

 maximal supplied QI-value         = 13.42
 optimisation between [QCUT,QGAM] = [ 11.67, 23.35] = [ 38.16,152.62] Ry
 Optimized for a Real-space Cutoff    1.63 Angstroem

   l    n(q)    QCUT    max X(q) W(low)/X(q) W(high)/X(q)  e(spline)
   0     11    11.673    13.882    0.27E-04    0.79E-05    0.11E-06
   0     11    11.673    12.184    0.39E-04    0.13E-04    0.19E-06
   1     11    11.673     4.523    0.73E-05    0.76E-05    0.12E-06
   1     11    11.673     4.424    0.87E-05    0.13E-04    0.19E-06
   2     10    11.673    52.481    0.65E-04    0.36E-04    0.18E-06
   2     10    11.673    38.501    0.61E-04    0.33E-04    0.17E-06
   3     10    11.673    65.631    0.17E-03    0.14E-03    0.37E-06
   3     10    11.673    56.854    0.17E-03    0.14E-03    0.37E-06
 Optimization of the real space projectors (new method)

[...]

   l    n(q)    QCUT    max X(q) W(low)/X(q) W(high)/X(q)  e(spline)
   2      9    11.539    60.317    0.19E-03    0.47E-04    0.16E-06
   2      9    11.539    55.921    0.19E-03    0.48E-04    0.16E-06
   0     10    11.539    51.690    0.80E-04    0.50E-04    0.24E-06
   0     10    11.539    30.015    0.73E-04    0.45E-04    0.22E-06
   1     10    11.539    18.849    0.87E-04    0.16E-03    0.71E-07
   1     10    11.539    14.624    0.73E-04    0.13E-03    0.64E-07
 Optimization of the real space projectors (new method)

 maximal supplied QI-value         = 24.76
 optimisation between [QCUT,QGAM] = [ 11.64, 23.27] = [ 37.91,151.63] Ry
 Optimized for a Real-space Cutoff    1.14 Angstroem

   l    n(q)    QCUT    max X(q) W(low)/X(q) W(high)/X(q)  e(spline)
   0      8    11.635    20.381    0.10E-03    0.33E-03    0.24E-06
   0      8    11.635    15.268    0.11E-03    0.35E-03    0.26E-06
   1      7    11.635     5.964    0.24E-03    0.31E-03    0.30E-06
   1      7    11.635     5.382    0.22E-03    0.25E-03    0.26E-06
  PAW_PBE La 06Sep2000                  :
  PAW_PBE Mn 06Sep2000                  :
  PAW_PBE Ni 02Aug2007                  :
  PAW_PBE O 08Apr2002                   :

 POSCAR: SCEL2_1_1_2_0_0_0/0
  positions in direct lattice
  velocities in cartesian coordinates
 exchange correlation table for  LEXCH =        8
   RHO(1)=    0.500       N(1)  =     2000
   RHO(2)=  100.500       N(2)  =     4000

 ion  position               nearest neighbor table
   1  0.000  0.000  0.012-   5 2.69   7 2.69   5 2.69   7 2.69   9 2.76   9 2.76   9 2.76   9 2.76
                             8 2.82   8 2.82   6 2.82   6 2.82   4 3.32   4 3.32   4 3.32   4 3.32
   2  0.000  0.000  0.488-   5 2.69   7 2.69   5 2.69   7 2.69  10 2.76  10 2.76  10 2.76  10 2.76
                             8 2.82   8 2.82   6 2.82   6 2.82   4 3.32   4 3.32   4 3.32   4 3.32
   3  0.500  0.500  0.750-   9 1.90  10 1.90   6 1.95   8 1.95   8 1.95   6 1.95   1 3.43   2 3.43
                             1 3.43   1 3.43   2 3.43   2 3.43   1 3.43   2 3.43
   4  0.500  0.500  0.250-   5 1.95   7 1.95   7 1.95   5 1.95   9 2.01  10 2.01   1 3.32   2 3.32
                             1 3.32   1 3.32   2 3.32   2 3.32   1 3.32   2 3.32
   5  0.000  0.500  0.250-   4 1.95   4 1.95   1 2.69   1 2.69   2 2.69   2 2.69
   6  0.000  0.500  0.750-   3 1.95   3 1.95   1 2.82   1 2.82   2 2.82   2 2.82
   7  0.500  0.000  0.250-   4 1.95   4 1.95   1 2.69   2 2.69   1 2.69   2 2.69
   8  0.500  0.000  0.750-   3 1.95   3 1.95   1 2.82   2 2.82   1 2.82   2 2.82
   9  0.500  0.500  0.993-   3 1.90   4 2.01   1 2.76   1 2.76   1 2.76   1 2.76
  10  0.500  0.500  0.507-   3 1.90   4 2.01   2 2.76   2 2.76   2 2.76   2 2.76

  LATTYP: Found a simple tetragonal cell.
 ALAT       =     3.8909841879
 C/A-ratio  =     2.0090278651

  Lattice vectors:

 A1 = (   3.8909841879,   0.0000000000,   0.0000000000)
 A2 = (   0.0000000000,   3.8909841879,   0.0000000000)
 A3 = (   0.0000000000,   0.0000000000,   7.8170956559)

Analysis of symmetry for initial positions (statically):
 Subroutine PRICEL returns:
 Original cell was already a primitive cell.

 Routine SETGRP: Setting up the symmetry group for a
 simple tetragonal supercell.

 Subroutine GETGRP returns: Found 16 space group operations
 (whereof  8 operations were pure point group operations)
 out of a pool of 16 trial point group operations.

The static configuration has the point symmetry C_4v.
 The point group associated with its full space group is D_4h.

Analysis of symmetry for dynamics (positions and initial velocities):
 Subroutine PRICEL returns:
 Original cell was already a primitive cell.

[...]

The dynamic configuration has the point symmetry C_4v.
 The point group associated with its full space group is D_4h.

Analysis of structural, dynamic, and magnetic symmetry:
 Subroutine PRICEL returns:
 Original cell was already a primitive cell.

 Routine SETGRP: Setting up the symmetry group for a
 simple tetragonal supercell.

 Subroutine GETGRP returns: Found 16 space group operations
 (whereof  8 operations were pure point group operations)
 out of a pool of 16 trial point group operations.

The magnetic configuration has the point symmetry C_4v.
 The point group associated with its full space group is D_4h.

 Subroutine INISYM returns: Found 16 space group operations
 (whereof  8 operations are pure point group operations),
 and found     1 'primitive' translations

 KPOINTS: Automatic mesh

Automatic generation of k-mesh.
 generate k-points for:    5    5    3
Space group operators:
 irot       det(A)        alpha          n_x          n_y          n_z        tau_x        tau_y        tau_z
    1     1.000000     0.000001     1.000000     0.000000     0.000000     0.000000     0.000000     0.000000
    2     1.000000    90.000000     0.000000     0.000000    -1.000000     0.000000     0.000000     0.000000
    3     1.000000   179.999999     0.000000     0.000000     1.000000     0.000000     0.000000     0.000000
    4     1.000000    90.000000     0.000000     0.000000     1.000000     0.000000     0.000000     0.000000
    5    -1.000000   180.000000     0.000000     1.000000     0.000000     0.000000     0.000000     0.000000
    6    -1.000000   180.000000     0.707107     0.707107     0.000000     0.000000     0.000000     0.000000
    7    -1.000000   180.000000     1.000000     0.000000     0.000000     0.000000     0.000000     0.000000
    8    -1.000000   180.000000     0.707107    -0.707107     0.000000     0.000000     0.000000     0.000000
    9    -1.000000     0.000001     1.000000     0.000000     0.000000     0.000000     0.000000     0.500000
   10    -1.000000    90.000000     0.000000     0.000000    -1.000000     0.000000     0.000000     0.500000
   11    -1.000000   179.999999     0.000000     0.000000     1.000000     0.000000     0.000000     0.500000
   12    -1.000000    90.000000     0.000000     0.000000     1.000000     0.000000     0.000000     0.500000
   13     1.000000   180.000000     0.000000     1.000000     0.000000     0.000000     0.000000     0.500000
   14     1.000000   180.000000     0.707107     0.707107     0.000000     0.000000     0.000000     0.500000
   15     1.000000   180.000000     1.000000     0.000000     0.000000     0.000000     0.000000     0.500000
   16     1.000000   180.000000     0.707107    -0.707107     0.000000     0.000000     0.000000     0.500000

 Subroutine IBZKPT returns following result:

 Found     12 irreducible k-points:

 Following reciprocal coordinates:
            Coordinates               Weight
  0.000000  0.000000  0.000000      1.000000
  0.200000  0.000000  0.000000      4.000000
  0.400000  0.000000  0.000000      4.000000
  0.200000  0.200000  0.000000      4.000000
  0.400000  0.200000  0.000000      8.000000
  0.400000  0.400000  0.000000      4.000000
  0.000000  0.000000  0.333333      2.000000
  0.200000  0.000000  0.333333      8.000000
  0.400000  0.000000  0.333333      8.000000
  0.200000  0.200000  0.333333      8.000000
  0.400000  0.200000  0.333333     16.000000
  0.400000  0.400000  0.333333      8.000000

 Following cartesian coordinates:
            Coordinates               Weight
  0.000000  0.000000  0.000000      1.000000
  0.051401  0.000000  0.000000      4.000000
  0.102802  0.000000  0.000000      4.000000
  0.051401  0.051401  0.000000      4.000000
  0.102802  0.051401  0.000000      8.000000
  0.102802  0.102802  0.000000      4.000000
  0.000000  0.000000  0.042642      2.000000
  0.051401  0.000000  0.042642      8.000000
  0.102802  0.000000  0.042642      8.000000
  0.051401  0.051401  0.042642      8.000000
  0.102802  0.051401  0.042642     16.000000
  0.102802  0.102802  0.042642      8.000000

 TETIRR: Found    104 inequivalent tetrahedra from      450

 SYSTEM =  final
 POSCAR =  SCEL2_1_1_2_0_0_0/0

 Startparameter for this run:
   NWRITE =      2    write-flag & timer
   PREC   = accura    normal or accurate (medium, high low for compatibility)
   ISTART =      0    job   : 0-new  1-cont  2-samecut
   ICHARG =      1    charge: 1-file 2-atom 10-const
   ISPIN  =      2    spin polarized calculation?
   LNONCOLLINEAR =      F non collinear calculations
   LSORBIT =      F    spin-orbit coupling
   INIWAV =      1    electr: 0-lowe 1-rand  2-diag
   LASPH  =      F    aspherical Exc in radial PAW
   METAGGA=      F    non-selfconsistent MetaGGA calc.

 Electronic Relaxation 1
   ENCUT  =  520.0 eV  38.22 Ry    6.18 a.u.   7.23  7.23 14.53*2*pi/ulx,y,z
   ENINI  =  520.0     initial cutoff
   ENAUG  =  605.4 eV  augmentation charge cutoff
   NELM   =    100;   NELMIN=  2; NELMDL= -5     # of ELM steps
   EDIFF  = 0.1E-02   stopping-criterion for ELM
   LREAL  =      T    real-space projection
   NLSPLINE    = F    spline interpolate recip. space projectors
   LCOMPAT=      F    compatible to vasp.4.4
   GGA_COMPAT  = T    GGA compatible to vasp.4.4-vasp.4.6
   LMAXPAW     = -100 max onsite density
   LMAXMIX     =    6 max onsite mixed and CHGCAR
   VOSKOWN=      0    Vosko Wilk Nusair interpolation
   ROPT   =   -0.00025  -0.00025  -0.00025  -0.00025
 Ionic relaxation
   EDIFFG = 0.1E-01   stopping-criterion for IOM
[...]
   0.00000000  1.94549209  5.86282174
   1.94549209  0.00000000  1.95427391
   1.94549209  0.00000000  5.86282174
   1.94549209  1.94549209  7.76431475
   1.94549209  1.94549209  3.96132873

 k-point  1 :   0.0000 0.0000 0.0000  plane waves:    3197
 k-point  2 :   0.2000 0.0000 0.0000  plane waves:    3191
 k-point  3 :   0.4000 0.0000 0.0000  plane waves:    3198
 k-point  4 :   0.2000 0.2000 0.0000  plane waves:    3178
 k-point  5 :   0.4000 0.2000 0.0000  plane waves:    3187
 k-point  6 :   0.4000 0.4000 0.0000  plane waves:    3180
 k-point  7 :   0.0000 0.0000 0.3333  plane waves:    3185
 k-point  8 :   0.2000 0.0000 0.3333  plane waves:    3180
 k-point  9 :   0.4000 0.0000 0.3333  plane waves:    3195
 k-point 10 :   0.2000 0.2000 0.3333  plane waves:    3186
 k-point 11 :   0.4000 0.2000 0.3333  plane waves:    3190
 k-point 12 :   0.4000 0.4000 0.3333  plane waves:    3183

 maximum and minimum number of plane-waves per node :       334      302

 maximum number of plane-waves:      3198
 maximum index in each direction:
   IXMAX=    7   IYMAX=    7   IZMAX=   14
   IXMIN=   -7   IYMIN=   -7   IZMIN=  -14

 real space projection operators:
  max/ min on nodes  :        701.44        656.81

 parallel 3D FFT for wavefunctions:
    minimum data exchange during FFTs selected (reduces bandwidth)
 parallel 3D FFT for charge:
    minimum data exchange during FFTs selected (reduces bandwidth)

 Broyden mixing: mesh for mixing (old mesh)
   NGX = 15   NGY = 15   NGZ = 29
  (NGX  = 60   NGY  = 60   NGZ  =120)
  gives a total of   6525 points

 initial charge density was supplied:
 charge density of overlapping atoms calculated
 number of electron      75.0000000 magnetization       7.0000000
 keeping initial charge density in first step

 Maximum index for non-local projection operator          821
 Maximum index for augmentation-charges          978 (set IRDMAX)

 First call to EWALD:  gamma=   0.361
 Maximum number of real-space cells 3x 3x 2
 Maximum number of reciprocal cells 2x 2x 4

--------------------------------------- Iteration      1(   1)  ---------------------------------------

atom =   1  type =  1  l = 0

 onsite density matrix

spin component  1

  1.0989

[...]

 occupancies and eigenvectors

  o =  1.0989  v =  1.0000  0.0000      0.0000  0.0000
  o =  1.0989  v =  0.0000  1.0000      0.0000  0.0000
atom =   2  type =  1  l = 0

[...]

  o =  0.8190  v =  1.0000  0.0000      0.0000  0.0000
  o =  0.8190  v =  0.0000  1.0000      0.0000  0.0000
 BZINTS: Fermi energy: 22.944299; 75.000000 electrons
         Band energy: 865.046345;  BLOECHL correction: -0.540576

 eigenvalue-minimisations  :  2616
 total energy-change (2. order) : 0.9377164E+03  (-0.2998335E+04)
 number of electron      75.0000000 magnetization       7.0000000
 augmentation part       75.0000000 magnetization       7.0000000

 Free energy of the ion-electron system (eV)
  alpha Z        PSCENC =       324.21181371
  Ewald energy   TEWEN  =     -5134.40740643
  -Hartree energ DENC   =     -1158.78288442
  -exchange      EXHF   =         0.00000000
  -V(xc)+E(xc)   XCENC  =       251.09029046
  PAW double counting   =      4733.87840878    -4763.84139751
  entropy T*S    EENTRO =         0.00000000
  eigenvalues    EBANDS =       865.04634496
  atomic energy  EATOM  =      5820.52127124
  Solvation  Ediel_sol  =         0.00000000
  free energy    TOTEN  =       937.71644078 eV

  energy without entropy =      937.71644078  energy(sigma->0) =      937.71644078

[...]

 BZINTS: Fermi energy: 13.455907; 75.000000 electrons
         Band energy: 144.769490;  BLOECHL correction: -0.287407

 eigenvalue-minimisations  :  2576
 total energy-change (2. order) :-0.7202769E+03  (-0.6509916E+03)
 number of electron      75.0000000 magnetization       7.0000000
 augmentation part       75.0000000 magnetization       7.0000000

[...]

 BZINTS: Fermi energy: 11.497551; 75.000000 electrons
         Band energy:-102.529645;  BLOECHL correction: -0.023173

[...]

 Broyden mixing:
  rms(total) = 0.39627E+01    rms(broyden)= 0.39621E+01
  rms(prec ) = 0.50573E+01
  weight for this iteration     100.00

[...]

  o =  0.8139  v =  0.0000  1.0000      0.0000  0.0000
  o =  0.8160  v =  1.0000  0.0000      0.0000  0.0000
 BZINTS: Fermi energy:  7.005863; 75.000000 electrons
         Band energy:-143.208916;  BLOECHL correction: -0.152262

[...]

 eigenvalues of (default mixing * dielectric matrix)
  average eigenvalue GAMMA=   0.0427
  0.0427

[...]

 eigenvalue-minimisations  :  3474
 total energy-change (2. order) : 0.1081955E+01  (-0.1017471E+01)
 number of electron      75.0000033 magnetization       5.1100334
 augmentation part        9.8290973 magnetization       3.7519979

[...]

 Broyden mixing:
  rms(total) = 0.23669E-01    rms(broyden)= 0.23664E-01
  rms(prec ) = 0.25073E-01
  weight for this iteration     100.00

 eigenvalues of (default mixing * dielectric matrix)
  average eigenvalue GAMMA=   1.0321
  2.4224  2.4224  0.9447  0.7691  0.7691  0.6956  0.6956  0.5204  0.5406  0.5406

[...]

--------------------------------------- Iteration      1(  16)  ---------------------------------------

atom =   1  type =  1  l = 0

[...]

  o =  0.7859  v =  0.0000  1.0000      0.0000  0.0000
  o =  0.7912  v =  1.0000  0.0000      0.0000  0.0000
atom =  10  type =  4  l = 0

 onsite density matrix

[...]

  0.7859

 occupancies and eigenvectors

  o =  0.7859  v =  0.0000  1.0000      0.0000  0.0000
  o =  0.7912  v =  1.0000  0.0000      0.0000  0.0000
 BZINTS: Fermi energy:  7.464025; 75.000000 electrons
         Band energy:-118.141467;  BLOECHL correction: -0.094296

 eigenvalue-minimisations  :  2488
 total energy-change (2. order) :-0.5229006E-03  (-0.6639089E-03)
 number of electron      75.0000032 magnetization       5.0057534
 augmentation part        9.6754506 magnetization       3.7957675

 Free energy of the ion-electron system (eV)
  alpha Z        PSCENC =       324.21181371
  Ewald energy   TEWEN  =     -5134.40740643
  -Hartree energ DENC   =     -1181.66084501
  -exchange      EXHF   =         0.00000000
  -V(xc)+E(xc)   XCENC  =       255.52383901
  PAW double counting   =      6177.20114827    -6216.71688930
  entropy T*S    EENTRO =         0.00000000
  eigenvalues    EBANDS =      -118.14146703
  atomic energy  EATOM  =      5820.52127124
  Solvation  Ediel_sol  =         0.00000000
  free energy    TOTEN  =       -73.46853555 eV

  energy without entropy =      -73.46853555  energy(sigma->0) =      -73.46853555

 average (electrostatic) potential at core
  the test charge radii are     1.1480  1.0210  0.9791  0.7215
  (the norm of the test charge is              1.0000)
       1 -95.6109       2 -95.6109       3 -43.1622       4 -83.8063       5 -66.7820
       6 -67.2610       7 -66.7820       8 -67.2610       9 -66.9933      10 -66.9933

 E-fermi :   7.4640     XC(G=0): -11.6646     alpha+bet :-16.3376

[...]

 k-point     1 :       0.0000    0.0000    0.0000
  band No.  band energies     occupation
      1     -24.1146      1.00000
      2     -24.0488      1.00000
      3     -11.3929      1.00000
      4     -10.8917      1.00000
      5      -9.8405      1.00000
      6      -9.7586      1.00000
      7      -9.7036      1.00000
      8      -9.4925      1.00000
      9      -7.6168      1.00000
     10      -7.6168      1.00000
     11      -7.6028      1.00000
     12      -7.5060      1.00000
     13      -7.5060      1.00000
     14      -6.7712      1.00000
     15       0.4822      1.00000
     16       2.1369      1.00000
     17       2.1369      1.00000
     18       2.5794      1.00000
     19       2.6688      1.00000
     20       2.6688      1.00000
     21       2.7764      1.00000
     22       2.8691      1.00000
     23       2.8809      1.00000
     24       2.8809      1.00000
     25       3.2225      1.00000
     26       3.2685      1.00000
     27       3.2685      1.00000
     28       3.7432      1.00000
     29       4.2316      1.00000
     30       4.2515      1.00000
     31       5.2592      1.00000
     32       5.2593      1.00000
     33       5.2666      1.00000
     34       5.5601      1.00000
     35       5.7425      1.00000
     36       5.7426      1.00000
     37       6.1202      1.00000
     38       6.1202      1.00000
     39       6.4786      1.00000
     40       6.4786      1.00000
     41       6.4788      1.05754
     42       7.9176      0.00000
     43      10.0187      0.00000
     44      10.0626      0.00000
     45      10.6075      0.00000
     46      10.8271      0.00000
     47      10.8566      0.00000
     48      10.9342      0.00000
     49      10.9653      0.00000
     50      11.0670      0.00000

[...]

 spin component 2

[...]

 k-point    12 :       0.4000    0.4000    0.3333
  band No.  band energies     occupation
      1     -23.9964      1.00000
      2     -23.9630      1.00000
      3     -10.5928      1.00000
      4     -10.3038      1.00000
      5     -10.2619      1.00000
      6      -9.9667      1.00000
      7      -9.8676      1.00000
      8      -9.7064      1.00000
      9      -7.9403      1.00000
     10      -7.8131      1.00000
     11      -7.6730      1.00000
     12      -7.4961      1.00000
     13      -7.2993      1.00000
     14      -7.1461      1.00000
     15       1.2450      1.00000
     16       1.6052      1.00000
     17       2.0664      1.00000
     18       2.5436      1.00000
     19       2.6437      1.00000
     20       2.8908      1.00000
     21       3.0331      1.00000
     22       3.2221      1.00000
     23       3.5456      1.00000
     24       3.5711      1.00000
     25       4.0415      1.00000
     26       4.1671      1.00000
     27       5.3896      1.00000
     28       5.5664      1.00000
     29       5.8322      1.00000
     30       5.9952      1.00000
     31       6.0035      1.00000
     32       6.1627      1.00000
     33       6.1636      1.00000
     34       6.3670      1.00000
     35       6.3977      1.00000
     36      10.5918      0.00000
     37      10.6004      0.00000
     38      10.6506      0.00000
     39      10.6988      0.00000
     40      10.7386      0.00000
     41      10.7907      0.00000
     42      10.8374      0.00000
     43      10.8594      0.00000
     44      10.9125      0.00000
     45      10.9254      0.00000
     46      10.9867      0.00000
     47      10.9923      0.00000
     48      11.0241      0.00000
     49      11.1073      0.00000
     50      11.1482      0.00000

 soft charge-density along one line, spin component           1
         0         1         2         3         4         5         6         7         8         9
 total charge-density along one line

 soft charge-density along one line, spin component           2
         0         1         2         3         4         5         6         7         8         9
 total charge-density along one line

------------------------ aborting loop because EDIFF is reached ----------------------------------------

 total charge

# of ion       s       p       d       f       tot
    1        1.999   5.697   0.484   0.187   8.367
    2        1.999   5.697   0.484   0.187   8.367
    3        0.335   0.517   4.853   0.000   5.705
    4        0.404   0.589   8.314   0.000   9.307
    5        1.561   3.401   0.000   0.000   4.962
    6        1.571   3.382   0.000   0.000   4.953
    7        1.556   3.496   0.000   0.000   5.052
    8        1.558   3.515   0.000   0.000   5.073
    9        1.562   3.451   0.000   0.000   5.013
   10        1.562   3.451   0.000   0.000   5.013
tot         14.105  33.197  14.135   0.374  61.810

 magnetization (x)

[...]

  FORCE on cell =-STRESS in cart. coord.  units (eV):
  Direction    XX          YY          ZZ          XY          YZ          ZX
  Alpha Z   324.21181   324.21181   324.21181
  Ewald   -1679.51453 -1679.51453 -1775.38678     0.00000    -0.00000     0.00000
  Hartree   422.14416   422.14416   337.36202    -0.00000    -0.00000    -0.00000
  E(xc)    -348.41929  -348.41929  -348.56333    -0.00000     0.00000     0.00000
  Local    -301.98502  -301.98502  -122.46614    -0.00000     0.00000     0.00000
  n-local   140.07470   137.03096   138.39856    -0.91562     0.21025     0.12924
  augment   163.07844   163.07844   163.38327     0.00000     0.00000    -0.00000
  Kinetic  1264.03756  1297.01958  1281.81034    -3.26184    -0.51516    -0.33285
  Fock        0.00000     0.00000     0.00000     0.00000     0.00000     0.00000
  Total      -1.40303    -1.40303    -1.25024     0.00000     0.00000     0.00000
  in kB     -18.99390   -18.99390   -16.92541     0.00000     0.00000     0.00000

 VOLUME and BASIS-vectors are now :
  energy-cutoff  :      520.00
  volume of cell :      118.35
      direct lattice vectors                 reciprocal lattice vectors
     3.890984188  0.000000000  0.000000000     0.257004385  0.000000000  0.000000000
     0.000000000  3.890984188  0.000000000     0.000000000  0.257004385  0.000000000
     0.000000000  0.000000000  7.817095656     0.000000000  0.000000000  0.127924749

  length of vectors
     3.890984188  3.890984188  7.817095656     0.257004385  0.257004385  0.127924749

 FORCES acting on ions
    electron-ion (+dipol)            ewald-force                    non-local-force                 convergence-correction
   -.463E-15 -.162E-13 0.126E+03   -.143E-14 -.228E-13 -.125E+03   0.000E+00 0.542E-19 -.864E+00   0.964E-14 0.191E-13 -.276E-01
   -.476E-14 -.172E-13 -.126E+03   0.662E-14 0.154E-13 0.125E+03   0.000E+00 0.000E+00 0.864E+00   0.144E-14 0.100E-13 0.276E-01
   0.597E-13 -.875E-13 0.689E-12   -.125E-13 0.241E-14 0.568E-13   0.847E-21 0.000E+00 0.000E+00   0.873E-14 0.134E-14 -.409E-12
   0.292E-12 0.467E-11 -.348E-12   -.259E-14 0.113E-13 -.853E-13   0.000E+00 0.000E+00 0.508E-20   0.387E-13 -.726E-14 0.643E-12
   -.129E-14 0.129E-12 0.247E-13   -.728E-14 0.986E-15 -.711E-13   0.000E+00 0.000E+00 0.000E+00   0.248E-14 -.247E-13 0.409E-12
   0.180E-14 0.132E-12 0.316E-12   0.174E-13 0.166E-14 0.000E+00   0.678E-20 -.169E-20 -.269E-19   0.575E-14 -.211E-13 -.338E-12
   0.115E-12 0.181E-13 -.734E-12   0.803E-15 -.946E-14 -.142E-13   0.271E-19 0.000E+00 0.000E+00   0.202E-13 0.488E-13 0.397E-12
   0.116E-12 0.132E-13 0.223E-11   0.611E-14 -.422E-14 0.142E-13   0.000E+00 0.000E+00 0.136E-19   0.194E-13 0.262E-13 -.364E-12
   0.102E-12 0.541E-12 0.748E+02   0.108E-13 0.763E-14 -.695E+02   0.000E+00 0.000E+00 -.525E+01   0.134E-13 -.255E-13 -.196E-01
   0.105E-12 0.314E-12 -.748E+02   -.238E-13 -.923E-14 0.695E+02   0.000E+00 -.434E-18 0.525E+01   0.253E-13 -.285E-13 0.196E-01
   0.785E-12 0.570E-11 0.969E-12   -.591E-14 -.627E-14 0.000E+00   0.347E-19 -.381E-18 -.888E-15   0.145E-12 -.170E-14 0.398E-12

 POSITION                                       TOTAL-FORCE (eV/Angst)
      0.00000      0.00000      0.09122         0.000000     -0.000000      0.093016
      0.00000      0.00000      3.81732         0.000000     -0.000000     -0.093016
      1.94549      1.94549      5.86282         0.000000     -0.000000      0.000000
      1.94549      1.94549      1.95427         0.000000      0.000000      0.000000
      0.00000      1.94549      1.95427         0.000000     -0.000000      0.000000
      0.00000      1.94549      5.86282         0.000000     -0.000000      0.000000
      1.94549      0.00000      1.95427         0.000000     -0.000000      0.000000
      1.94549      0.00000      5.86282         0.000000     -0.000000      0.000000
      1.94549      1.94549      7.76431         0.000000     -0.000000     -0.022874
      1.94549      1.94549      3.96133         0.000000     -0.000000      0.022874
    total drift:                                0.000000      0.000000      0.000000

  FREE ENERGIE OF THE ION-ELECTRON SYSTEM (eV)
  free  energy   TOTEN  =       -73.46853555 eV

  energy  without entropy=      -73.46853555  energy(sigma->0) =      -73.46853555

 total charge

[...]

 magnetization (x)

# of ion       s       p       d       f       tot
    1       -0.000   0.001   0.007   0.004   0.011
    2       -0.000   0.001   0.007   0.004   0.011
    3        0.023   0.022   3.432   0.000   3.476
    4        0.015   0.010   1.586   0.000   1.611
    5        0.002  -0.032   0.000   0.000  -0.030
    6       -0.001  -0.040   0.000   0.000  -0.040
    7        0.010  -0.023   0.000   0.000  -0.012
    8        0.008  -0.075   0.000   0.000  -0.067
    9        0.005  -0.016   0.000   0.000  -0.010
   10        0.005  -0.016   0.000   0.000  -0.010
tot          0.067  -0.167   5.031   0.007   4.939

 BZINTS: Fermi energy:  7.464025; 75.000000 electrons
         Band energy:-118.141467;  BLOECHL correction: -0.094296