 vasp.5.4.4.18Apr17-6-g9f103f2a35 (build Oct 03 2018 13:58:34) complex

 executed on             LinuxIFC date 2019.06.04  01:39:10

 INCAR:
 POTCAR:    PAW_PBE La 06Sep2000
 POTCAR:    PAW_PBE Mn 06Sep2000
 POTCAR:    PAW_PBE Ni 02Aug2007
 POTCAR:    PAW_PBE O 08Apr2002

 POTCAR:    PAW_PBE La 06Sep2000
   VRHFIN =La : [core=Kr4d]

   TITEL  = PAW_PBE La 06Sep2000
   POMASS =  138.900; ZVAL   =   11.000    mass and valenz
   ENMAX  =  219.292; ENMIN  =  164.469 eV

 POTCAR:    PAW_PBE Mn 06Sep2000
   VRHFIN =Mn: d6 s1

   TITEL  = PAW_PBE Mn 06Sep2000
   POMASS =   54.938; ZVAL   =    7.000    mass and valenz
   ENMAX  =  269.864; ENMIN  =  202.398 eV

 POTCAR:    PAW_PBE Ni 02Aug2007
   VRHFIN =Ni:

   TITEL  = PAW_PBE Ni 02Aug2007
   POMASS =   58.690; ZVAL   =   10.000    mass and valenz
   ENMAX  =  269.532; ENMIN  =  202.149 eV

 POTCAR:    PAW_PBE O 08Apr2002
   VRHFIN =O: s2p4

   TITEL  = PAW_PBE O 08Apr2002
   POMASS =   16.000; ZVAL   =    6.000    mass and valenz
   ENMAX  =  400.000; ENMIN  =  300.000 eV

 Optimization of the real space projectors (new method)

 maximal supplied QI-value         = 13.42
 optimisation between [QCUT,QGAM] = [ 11.67, 23.35] = [ 38.16,152.62] Ry
 Optimized for a Real-space Cutoff    1.63 Angstroem

   l    n(q)    QCUT    max X(q) W(low)/X(q) W(high)/X(q)  e(spline)
   0     11    11.673    13.882    0.27E-04    0.79E-05    0.11E-06
   0     11    11.673    12.184    0.39E-04    0.13E-04    0.19E-06
   1     11    11.673     4.523    0.73E-05    0.76E-05    0.12E-06
   1     11    11.673     4.424    0.87E-05    0.13E-04    0.19E-06
   2     10    11.673    52.481    0.65E-04    0.36E-04    0.18E-06
   2     10    11.673    38.501    0.61E-04    0.33E-04    0.17E-06
   3     10    11.673    65.631    0.17E-03    0.14E-03    0.37E-06
   3     10    11.673    56.854    0.17E-03    0.14E-03    0.37E-06
 Optimization of the real space projectors (new method)

[...]

   l    n(q)    QCUT    max X(q) W(low)/X(q) W(high)/X(q)  e(spline)
   2      9    11.539    60.317    0.19E-03    0.47E-04    0.16E-06
   2      9    11.539    55.921    0.19E-03    0.48E-04    0.16E-06
   0     10    11.539    51.690    0.80E-04    0.50E-04    0.24E-06
   0     10    11.539    30.015    0.73E-04    0.45E-04    0.22E-06
   1     10    11.539    18.849    0.87E-04    0.16E-03    0.71E-07
   1     10    11.539    14.624    0.73E-04    0.13E-03    0.64E-07
 Optimization of the real space projectors (new method)

 maximal supplied QI-value         = 24.76
 optimisation between [QCUT,QGAM] = [ 11.64, 23.27] = [ 37.91,151.63] Ry
 Optimized for a Real-space Cutoff    1.14 Angstroem

   l    n(q)    QCUT    max X(q) W(low)/X(q) W(high)/X(q)  e(spline)
   0      8    11.635    20.381    0.10E-03    0.33E-03    0.24E-06
   0      8    11.635    15.268    0.11E-03    0.35E-03    0.26E-06
   1      7    11.635     5.964    0.24E-03    0.31E-03    0.30E-06
   1      7    11.635     5.382    0.22E-03    0.25E-03    0.26E-06
  PAW_PBE La 06Sep2000                  :
  PAW_PBE Mn 06Sep2000                  :
  PAW_PBE Ni 02Aug2007                  :
  PAW_PBE O 08Apr2002                   :

 POSCAR: SCEL3_1_1_3_0_0_0/0
  positions in direct lattice
  velocities in cartesian coordinates
 exchange correlation table for  LEXCH =        8
   RHO(1)=    0.500       N(1)  =     2000
   RHO(2)=  100.500       N(2)  =     4000

 ion  position               nearest neighbor table
   1  0.000  0.000  0.010-   7 2.67  10 2.67   7 2.67  10 2.67  13 2.77  13 2.77  13 2.77  13 2.77
                             6 3.31   6 3.31   6 3.31   6 3.31   2 3.64
   2  0.000  0.000  0.323-   7 2.67  10 2.67   7 2.67  10 2.67  14 2.77  14 2.77  14 2.77  14 2.77
                             6 3.31   6 3.31   6 3.31   6 3.31   1 3.64
   3  0.000  0.000  0.667-   9 2.73  12 2.73   9 2.73  12 2.73   8 2.73  11 2.73  11 2.73   8 2.73
                            15 2.77  15 2.77  15 2.77  15 2.77   5 3.39   5 3.39   5 3.39   5 3.39
   4  0.500  0.500  0.499-  14 1.88  15 1.95   8 1.96  11 1.96  11 1.96   8 1.96   3 3.39   3 3.39
                             3 3.39   3 3.39
   5  0.500  0.500  0.834-  13 1.88  15 1.95   9 1.96  12 1.96  12 1.96   9 1.96   3 3.39   3 3.39
                             3 3.39   3 3.39
   6  0.500  0.500  0.167-   7 1.96  10 1.96  10 1.96   7 1.96  14 1.99  13 1.99   2 3.31   2 3.31
                             2 3.31   2 3.31   1 3.31   1 3.31   1 3.31   1 3.31
   7  0.000  0.500  0.167-   6 1.96   6 1.96   2 2.67   2 2.67   1 2.67   1 2.67
   8  0.000  0.500  0.503-   4 1.96   4 1.96   3 2.73   3 2.73
   9  0.000  0.500  0.830-   5 1.96   5 1.96   3 2.73   3 2.73
  10  0.500  0.000  0.167-   6 1.96   6 1.96   2 2.67   2 2.67   1 2.67   1 2.67
  11  0.500  0.000  0.503-   4 1.96   4 1.96   3 2.73   3 2.73
  12  0.500  0.000  0.830-   5 1.96   5 1.96   3 2.73   3 2.73
  13  0.500  0.500  0.996-   5 1.88   6 1.99   1 2.77   1 2.77   1 2.77   1 2.77
  14  0.500  0.500  0.338-   4 1.88   6 1.99   2 2.77   2 2.77   2 2.77   2 2.77
  15  0.500  0.500  0.667-   5 1.95   4 1.95   3 2.77   3 2.77   3 2.77   3 2.77

  LATTYP: Found a simple tetragonal cell.
 ALAT       =     3.9130159540
 C/A-ratio  =     2.9771375239

  Lattice vectors:

 A1 = (   3.9130159540,   0.0000000000,   0.0000000000)
 A2 = (   0.0000000000,   3.9130159540,   0.0000000000)
 A3 = (   0.0000000000,   0.0000000000,  11.6495866283)

Analysis of symmetry for initial positions (statically):
 Subroutine PRICEL returns:
 Original cell was already a primitive cell.

 Routine SETGRP: Setting up the symmetry group for a
 simple tetragonal supercell.

 Subroutine GETGRP returns: Found 16 space group operations
 (whereof  8 operations were pure point group operations)
 out of a pool of 16 trial point group operations.

The static configuration has the point symmetry C_4v.
 The point group associated with its full space group is D_4h.

Analysis of symmetry for dynamics (positions and initial velocities):
 Subroutine PRICEL returns:
 Original cell was already a primitive cell.

[...]

The dynamic configuration has the point symmetry C_4v.
 The point group associated with its full space group is D_4h.

Analysis of structural, dynamic, and magnetic symmetry:
 Subroutine PRICEL returns:
 Original cell was already a primitive cell.

 Routine SETGRP: Setting up the symmetry group for a
 simple tetragonal supercell.

 Subroutine GETGRP returns: Found 16 space group operations
 (whereof  8 operations were pure point group operations)
 out of a pool of 16 trial point group operations.

The magnetic configuration has the point symmetry C_4v.
 The point group associated with its full space group is D_4h.

 Subroutine INISYM returns: Found 16 space group operations
 (whereof  8 operations are pure point group operations),
 and found     1 'primitive' translations

 KPOINTS: Automatic mesh

Automatic generation of k-mesh.
 generate k-points for:    5    5    2
Space group operators:
 irot       det(A)        alpha          n_x          n_y          n_z        tau_x        tau_y        tau_z
    1     1.000000     0.000000     1.000000     0.000000     0.000000     0.000000     0.000000     0.000000
    2     1.000000    90.000000     0.000000     0.000000    -1.000000     0.000000     0.000000     0.000000
    3     1.000000   180.000000     0.000000     0.000000     1.000000     0.000000     0.000000     0.000000
    4     1.000000    90.000000     0.000000     0.000000     1.000000     0.000000     0.000000     0.000000
    5    -1.000000   180.000000     0.000000     1.000000     0.000000     0.000000     0.000000     0.000000
    6    -1.000000   180.000000     0.707107     0.707107     0.000000     0.000000     0.000000     0.000000
    7    -1.000000   180.000000     1.000000     0.000000     0.000000     0.000000     0.000000     0.000000
    8    -1.000000   180.000000     0.707107    -0.707107     0.000000     0.000000     0.000000     0.000000
    9    -1.000000     0.000000     1.000000     0.000000     0.000000     0.000000     0.000000     0.333333
   10    -1.000000    90.000000     0.000000     0.000000    -1.000000     0.000000     0.000000     0.333333
   11    -1.000000   180.000000     0.000000     0.000000     1.000000     0.000000     0.000000     0.333333
   12    -1.000000    90.000000     0.000000     0.000000     1.000000     0.000000     0.000000     0.333333
   13     1.000000   180.000000     0.000000     1.000000     0.000000     0.000000     0.000000     0.333333
   14     1.000000   180.000000     0.707107     0.707107     0.000000     0.000000     0.000000     0.333333
   15     1.000000   180.000000     1.000000     0.000000     0.000000     0.000000     0.000000     0.333333
   16     1.000000   180.000000     0.707107    -0.707107     0.000000     0.000000     0.000000     0.333333

 Subroutine IBZKPT returns following result:

 Found     12 irreducible k-points:

 Following reciprocal coordinates:
            Coordinates               Weight
  0.000000  0.000000  0.000000      1.000000
  0.200000  0.000000  0.000000      4.000000
  0.400000  0.000000  0.000000      4.000000
  0.200000  0.200000  0.000000      4.000000
  0.400000  0.200000  0.000000      8.000000
  0.400000  0.400000  0.000000      4.000000
  0.000000  0.000000  0.500000      1.000000
  0.200000  0.000000  0.500000      4.000000
  0.400000  0.000000  0.500000      4.000000
  0.200000  0.200000  0.500000      4.000000
  0.400000  0.200000  0.500000      8.000000
  0.400000  0.400000  0.500000      4.000000

 Following cartesian coordinates:
            Coordinates               Weight
  0.000000  0.000000  0.000000      1.000000
  0.051111  0.000000  0.000000      4.000000
  0.102223  0.000000  0.000000      4.000000
  0.051111  0.051111  0.000000      4.000000
  0.102223  0.051111  0.000000      8.000000
  0.102223  0.102223  0.000000      4.000000
  0.000000  0.000000  0.042920      1.000000
  0.051111  0.000000  0.042920      4.000000
  0.102223  0.000000  0.042920      4.000000
  0.051111  0.051111  0.042920      4.000000
  0.102223  0.051111  0.042920      8.000000
  0.102223  0.102223  0.042920      4.000000

 TETIRR: Found     73 inequivalent tetrahedra from      300

 SYSTEM =  final
 POSCAR =  SCEL3_1_1_3_0_0_0/0

 Startparameter for this run:
   NWRITE =      2    write-flag & timer
   PREC   = accura    normal or accurate (medium, high low for compatibility)
   ISTART =      0    job   : 0-new  1-cont  2-samecut
   ICHARG =      1    charge: 1-file 2-atom 10-const
   ISPIN  =      2    spin polarized calculation?
   LNONCOLLINEAR =      F non collinear calculations
   LSORBIT =      F    spin-orbit coupling
   INIWAV =      1    electr: 0-lowe 1-rand  2-diag
   LASPH  =      F    aspherical Exc in radial PAW
   METAGGA=      F    non-selfconsistent MetaGGA calc.

 Electronic Relaxation 1
   ENCUT  =  520.0 eV  38.22 Ry    6.18 a.u.   7.28  7.28 21.66*2*pi/ulx,y,z
   ENINI  =  520.0     initial cutoff
   ENAUG  =  605.4 eV  augmentation charge cutoff
   NELM   =    100;   NELMIN=  2; NELMDL= -5     # of ELM steps
   EDIFF  = 0.1E-02   stopping-criterion for ELM
   LREAL  =      T    real-space projection
[...]
  Ewald energy   TEWEN  =     -7484.97734660
  -Hartree energ DENC   =     -1616.50933066
  -exchange      EXHF   =         0.00000000
  -V(xc)+E(xc)   XCENC  =       355.22440413
  PAW double counting   =      6822.26835318    -6834.95433714
  entropy T*S    EENTRO =         0.00000000
  eigenvalues    EBANDS =      1469.27981841
  atomic energy  EATOM  =      8400.32230685
  Solvation  Ediel_sol  =         0.00000000
  free energy    TOTEN  =      1596.86779354 eV

  energy without entropy =     1596.86779354  energy(sigma->0) =     1596.86779354

[...]

 BZINTS: Fermi energy: 14.904256;111.000000 electrons
         Band energy: 327.382235;  BLOECHL correction: -0.089897

 eigenvalue-minimisations  :  3968
 total energy-change (2. order) :-0.1141898E+04  (-0.1041818E+04)
 number of electron     111.0000000 magnetization      11.0000000
 augmentation part      111.0000000 magnetization      11.0000000

[...]

 BZINTS: Fermi energy: 11.722074;111.000000 electrons
         Band energy:-105.167926;  BLOECHL correction: -0.023736

[...]

 Broyden mixing:
  rms(total) = 0.47643E+01    rms(broyden)= 0.47636E+01
  rms(prec ) = 0.54013E+01
  weight for this iteration     100.00

[...]

 eigenvalues of (default mixing * dielectric matrix)
  average eigenvalue GAMMA=   0.0024
  0.0024

[...]

 eigenvalue-minimisations  :  4173
 total energy-change (2. order) : 0.2484508E-02  (-0.1369654E-02)
 number of electron     111.0000024 magnetization       8.9987801
 augmentation part       13.0637740 magnetization       6.5649697

[...]

 Broyden mixing:
  rms(total) = 0.30716E-01    rms(broyden)= 0.30710E-01
  rms(prec ) = 0.31408E-01
  weight for this iteration     100.00

 eigenvalues of (default mixing * dielectric matrix)
  average eigenvalue GAMMA=   1.0812
  3.5456  1.7793  1.7793  1.0468  1.0468  0.7034  0.7034  0.6931  0.6931  0.4750
  0.4750  0.5572  0.5572

[...]

--------------------------------------- Iteration      1(  19)  ---------------------------------------

atom =   1  type =  1  l = 0

[...]

  o =  0.7862  v =  0.0000  1.0000      0.0000  0.0000
  o =  0.7916  v =  1.0000  0.0000      0.0000  0.0000
atom =  15  type =  4  l = 0

 onsite density matrix

[...]

  0.7872

 occupancies and eigenvectors

  o =  0.7872  v =  0.0000  1.0000      0.0000  0.0000
  o =  0.7883  v =  1.0000  0.0000      0.0000  0.0000
 BZINTS: Fermi energy:  7.863451;111.000000 electrons
         Band energy:-187.831913;  BLOECHL correction: -0.135026

 eigenvalue-minimisations  :  3467
 total energy-change (2. order) :-0.1972949E-03  (-0.5933040E-03)
 number of electron     111.0000024 magnetization       8.9966860
 augmentation part       13.0625726 magnetization       6.5657227

 Free energy of the ion-electron system (eV)
  alpha Z        PSCENC =       486.21392538
  Ewald energy   TEWEN  =     -7484.97734660
  -Hartree energ DENC   =     -1664.53800235
  -exchange      EXHF   =         0.00000000
  -V(xc)+E(xc)   XCENC  =       363.91205382
  PAW double counting   =      9036.30042344    -9062.61841288
  entropy T*S    EENTRO =         0.00000000
  eigenvalues    EBANDS =      -187.83191255
  atomic energy  EATOM  =      8400.32230685
  Solvation  Ediel_sol  =         0.00000000
  free energy    TOTEN  =      -113.21696489 eV

  energy without entropy =     -113.21696489  energy(sigma->0) =     -113.21696489

 average (electrostatic) potential at core
  the test charge radii are     1.1480  1.0210  0.9791  0.7215
  (the norm of the test charge is              1.0000)
       1 -95.7338       2 -95.7338       3 -95.8085       4 -42.8851       5 -42.8852
       6 -83.5454       7 -66.6615       8 -67.2311       9 -67.2311      10 -66.6615
      11 -67.2311      12 -67.2311      13 -67.0783      14 -67.0783      15 -67.2825

 E-fermi :   7.8635     XC(G=0): -11.6343     alpha+bet :-16.2315

[...]

 k-point     1 :       0.0000    0.0000    0.0000
  band No.  band energies     occupation
      1     -24.2924      1.00000
      2     -24.2172      1.00000
      3     -24.1629      1.00000
      4     -11.3869      1.00000
      5     -11.2719      1.00000
      6     -10.9440      1.00000
      7     -10.0396      1.00000
      8      -9.8992      1.00000
      9      -9.8914      1.00000
     10      -9.8691      1.00000
     11      -9.8056      1.00000
     12      -9.4682      1.00000
     13      -7.8129      1.00000
     14      -7.8129      1.00000
     15      -7.7173      1.00000
     16      -7.7097      1.00000
     17      -7.7097      1.00000
     18      -7.6249      1.00000
     19      -7.6249      1.00000
     20      -7.1338      1.00000
     21      -6.9877      1.00000
     22       0.7585      1.00000
     23       1.4706      1.00000
     24       2.2125      1.00000
     25       2.2125      1.00000
     26       2.3667      1.00000
     27       2.3667      1.00000
     28       2.6637      1.00000
     29       2.7793      1.00000
     30       2.7793      1.00000
     31       2.8219      1.00000
     32       2.9496      1.00000
     33       2.9496      1.00000
     34       3.0131      1.00000
     35       3.0131      1.00000
     36       3.0674      1.00000
     37       3.0823      1.00000
     38       3.1364      1.00000
     39       3.2792      1.00000
     40       3.2792      1.00000
     41       3.9292      1.00000
     42       4.2029      1.00000
     43       4.4039      1.00000
     44       4.4980      1.00000
     45       4.6460      1.00000
     46       5.0940      1.00000
     47       5.0986      1.00000
     48       5.0986      1.00000
     49       5.3746      1.00000
     50       5.4169      1.00000
     51       5.4169      1.00000
     52       5.4280      1.00000
     53       5.5984      1.00000
     54       5.5984      1.00000
     55       6.1228      1.00000
     56       6.1228      1.00000
     57       6.1365      1.00000
     58       6.1365      1.00000
     59       6.3247      1.00000
     60       6.5020      1.00000
     61       6.5020      1.00682
     62       7.4234      0.88314
     63       8.2239      0.00000
     64       9.8607      0.00000
     65       9.9573      0.00000
     66      10.4213      0.00000
     67      10.4392      0.00000
     68      10.5715      0.00000
     69      10.7323      0.00000
     70      10.7557      0.00000
     71      10.8346      0.00000
     72      10.8952      0.00000

[...]

 spin component 2

[...]

 k-point    12 :       0.4000    0.4000    0.5000
  band No.  band energies     occupation
      1     -24.1869      1.00000
      2     -24.1215      1.00000
      3     -24.0723      1.00000
      4     -10.8013      1.00000
      5     -10.5845      1.00000
      6     -10.4166      1.00000
      7     -10.2302      1.00000
      8     -10.1364      1.00000
      9     -10.0987      1.00000
     10     -10.0053      1.00000
     11      -9.8418      1.00000
     12      -9.7807      1.00000
     13      -8.1436      1.00000
     14      -8.0902      1.00000
     15      -7.9516      1.00000
     16      -7.8569      1.00000
     17      -7.6932      1.00000
     18      -7.5717      1.00000
     19      -7.4008      1.00000
     20      -7.2727      1.00000
     21      -7.1430      1.00000
     22       1.0465      1.00000
     23       1.6490      1.00000
     24       1.6824      1.00000
     25       2.2378      1.00000
     26       2.5612      1.00000
     27       2.7630      1.00000
     28       2.8000      1.00000
     29       3.1024      1.00000
     30       3.1046      1.00000
     31       3.1256      1.00000
     32       3.2827      1.00000
     33       3.3774      1.00000
     34       3.5431      1.00000
     35       3.6267      1.00000
     36       3.6432      1.00000
     37       3.6826      1.00000
     38       4.1338      1.00000
     39       4.3522      1.00000
     40       5.1578      1.00000
     41       5.3125      1.00000
     42       5.5010      1.00000
     43       5.6163      1.00000
     44       6.0385      1.00000
     45       6.0697      1.00000
     46       6.1112      1.00000
     47       6.1241      1.00000
     48       6.2544      1.00000
     49       6.3084      1.00000
     50       6.3313      1.00000
     51       6.3691      1.00000
     52      10.4310      0.00000
     53      10.4352      0.00000
     54      10.4820      0.00000
     55      10.4981      0.00000
     56      10.5320      0.00000
     57      10.5939      0.00000
     58      10.5978      0.00000
     59      10.6185      0.00000
     60      10.6710      0.00000
     61      10.6882      0.00000
     62      10.7277      0.00000
     63      10.7417      0.00000
     64      10.7553      0.00000
     65      10.7626      0.00000
     66      10.7883      0.00000
     67      10.8309      0.00000
     68      10.8665      0.00000
     69      10.8906      0.00000
     70      10.9465      0.00000
     71      10.9685      0.00000
     72      11.2874      0.00000

 soft charge-density along one line, spin component           1
         0         1         2         3         4         5         6         7         8         9
 total charge-density along one line

 soft charge-density along one line, spin component           2
         0         1         2         3         4         5         6         7         8         9
 total charge-density along one line

------------------------ aborting loop because EDIFF is reached ----------------------------------------

 total charge

# of ion       s       p       d       f       tot
    1        2.000   5.695   0.483   0.186   8.365
    2        2.000   5.695   0.483   0.186   8.364
    3        2.000   5.699   0.491   0.191   8.382
    4        0.328   0.498   4.874   0.000   5.701
    5        0.328   0.498   4.875   0.000   5.701
    6        0.402   0.583   8.333   0.000   9.318
    7        1.558   3.420   0.000   0.000   4.978
    8        1.569   3.383   0.000   0.000   4.952
    9        1.569   3.383   0.000   0.000   4.952
   10        1.555   3.498   0.000   0.000   5.053
   11        1.560   3.519   0.000   0.000   5.079
   12        1.560   3.519   0.000   0.000   5.079
   13        1.563   3.450   0.000   0.000   5.013
   14        1.563   3.450   0.000   0.000   5.013
   15        1.560   3.469   0.000   0.000   5.029
tot         21.116  49.757  19.539   0.564  90.977

 magnetization (x)

[...]

  FORCE on cell =-STRESS in cart. coord.  units (eV):
  Direction    XX          YY          ZZ          XY          YZ          ZX
  Alpha Z   486.21393   486.21393   486.21393
  Ewald   -2455.24496 -2455.24496 -2574.50035    -0.00000     0.00000    -0.00000
  Hartree   597.75569   597.75569   468.42118    -0.00000    -0.00000    -0.00000
  E(xc)    -512.88036  -512.88036  -512.94113    -0.00000     0.00000    -0.00000
  Local    -409.10517  -409.10517  -153.36337    -0.00000     0.00000    -0.00000
  n-local   202.71732   199.58117   202.30025    -0.93749     0.00033     0.00104
  augment   172.54871   172.54871   170.12117     0.00000     0.00000    -0.00000
  Kinetic  1894.81266  1943.77573  1913.42974    -6.45882    -0.00047     0.00025
  Fock        0.00000     0.00000     0.00000     0.00000     0.00000     0.00000
  Total      -0.26873    -0.26873    -0.31860     0.00000     0.00000     0.00000
  in kB      -2.41375    -2.41375    -2.86167     0.00000     0.00000     0.00000

 VOLUME and BASIS-vectors are now :
  energy-cutoff  :      520.00
  volume of cell :      178.37
      direct lattice vectors                 reciprocal lattice vectors
     3.913015954  0.000000000  0.000000000     0.255557353  0.000000000  0.000000000
     0.000000000  3.913015954  0.000000000     0.000000000  0.255557353  0.000000000
     0.000000000  0.000000000 11.649586628     0.000000000  0.000000000  0.085839956

  length of vectors
     3.913015954  3.913015954 11.649586628     0.255557353  0.255557353  0.085839956

 FORCES acting on ions
    electron-ion (+dipol)            ewald-force                    non-local-force                 convergence-correction
   0.337E-15 0.818E-14 0.173E+03   0.199E-13 0.102E-13 -.172E+03   0.000E+00 0.217E-18 -.130E+01   -.227E-13 0.293E-14 -.681E-01
   -.355E-14 0.458E-13 -.173E+03   -.225E-13 -.796E-14 0.172E+03   -.108E-18 -.163E-18 0.130E+01   -.830E-14 0.488E-16 0.681E-01
   0.439E-14 -.951E-14 -.828E-05   0.209E-13 -.837E-14 -.299E-03   0.000E+00 0.000E+00 -.651E-18   -.753E-14 0.139E-13 0.130E-04
   0.574E-13 0.106E-11 -.452E+02   -.284E-14 -.128E-13 0.443E+02   -.169E-20 0.000E+00 0.812E+00   0.308E-13 0.673E-14 0.455E-01
   0.593E-13 0.171E-11 0.452E+02   0.782E-14 0.151E-13 -.443E+02   0.678E-20 0.000E+00 -.812E+00   0.375E-13 0.659E-14 -.455E-01
   0.297E-12 0.185E-11 0.838E-04   -.103E-13 0.731E-14 -.449E-03   0.000E+00 0.847E-21 -.203E-19   0.719E-13 0.684E-14 -.465E-05
   -.166E-14 0.195E-12 0.293E-04   0.345E-14 -.559E-14 -.188E-03   0.000E+00 -.339E-20 0.339E-20   -.482E-14 -.186E-13 -.269E-05
   0.157E-14 0.113E-12 -.286E+02   -.288E-14 0.600E-14 0.278E+02   -.339E-20 0.000E+00 0.829E+00   -.159E-13 -.181E-13 0.243E-01
   -.658E-15 0.190E-13 0.286E+02   0.513E-14 0.484E-14 -.278E+02   0.000E+00 0.000E+00 -.829E+00   -.962E-14 -.204E-13 -.242E-01
   0.107E-12 0.199E-13 0.293E-04   0.986E-14 -.142E-13 -.188E-03   0.000E+00 0.169E-20 0.271E-19   0.389E-13 0.393E-13 -.269E-05
   0.113E-12 0.123E-12 -.286E+02   -.120E-13 0.970E-14 0.278E+02   -.678E-20 0.000E+00 0.829E+00   0.300E-13 0.266E-13 0.243E-01
   0.118E-12 -.436E-13 0.286E+02   -.563E-14 -.133E-13 -.278E+02   0.593E-20 0.000E+00 -.829E+00   0.436E-13 0.162E-13 -.242E-01
   0.115E-12 0.196E-12 0.994E+02   -.390E-14 -.870E-14 -.933E+02   0.136E-19 0.000E+00 -.627E+01   0.384E-13 -.201E-13 0.252E-01
   0.105E-12 0.487E-12 -.994E+02   0.324E-14 0.618E-14 0.933E+02   -.136E-19 0.000E+00 0.627E+01   0.220E-13 -.194E-13 -.252E-01
   0.115E-12 0.177E-11 0.785E-04   -.491E-14 0.230E-14 -.339E-03   0.000E+00 0.000E+00 0.000E+00   0.289E-13 -.188E-13 0.804E-05
   0.109E-11 0.755E-11 0.516E-02   0.534E-14 -.932E-14 0.284E-13   -.108E-18 0.534E-19 -.178E-14   0.273E-12 0.386E-14 0.264E-05

 POSITION                                       TOTAL-FORCE (eV/Angst)
      0.00000      0.00000      0.12020         0.000000     -0.000000      0.211903
      0.00000      0.00000      3.76300         0.000000     -0.000000     -0.211903
      0.00000      0.00000      7.76639         0.000000     -0.000000      0.000000
      1.95651      1.95651      5.81567         0.000000     -0.000000     -0.059194
      1.95651      1.95651      9.71712         0.000000      0.000000      0.059194
      1.95651      1.95651      1.94160         0.000000      0.000000      0.000000
      0.00000      1.95651      1.94160         0.000000     -0.000000      0.000000
      0.00000      1.95651      5.86056         0.000000     -0.000000      0.082400
      0.00000      1.95651      9.67222         0.000000     -0.000000     -0.082400
      1.95651      0.00000      1.94160         0.000000     -0.000000      0.000000
      1.95651      0.00000      5.86056        -0.000000     -0.000000      0.082400
      1.95651      0.00000      9.67222         0.000000     -0.000000     -0.082400
      1.95651      1.95651     11.59796         0.000000     -0.000000     -0.162269
      1.95651      1.95651      3.93482         0.000000     -0.000000      0.162269
      1.95651      1.95651      7.76639         0.000000      0.000000      0.000000
    total drift:                                0.000000      0.000000      0.005162

  FREE ENERGIE OF THE ION-ELECTRON SYSTEM (eV)
  free  energy   TOTEN  =      -113.21696489 eV

  energy  without entropy=     -113.21696489  energy(sigma->0) =     -113.21696489

 total charge

[...]

 magnetization (x)

# of ion       s       p       d       f       tot
    1        0.000   0.000   0.006   0.004   0.010
    2        0.000   0.000   0.006   0.004   0.010
    3        0.001   0.001   0.013   0.006   0.021
    4        0.025   0.023   3.600   0.000   3.649
    5        0.025   0.023   3.600   0.000   3.649
    6        0.015   0.010   1.664   0.000   1.689
    7        0.002   0.017   0.000   0.000   0.019
    8        0.000  -0.036   0.000   0.000  -0.035
    9        0.000  -0.036   0.000   0.000  -0.035
   10        0.011   0.007   0.000   0.000   0.018
   11        0.011  -0.054   0.000   0.000  -0.043
   12        0.011  -0.054   0.000   0.000  -0.043
   13        0.005  -0.031   0.000   0.000  -0.026
   14        0.005  -0.031   0.000   0.000  -0.026
   15        0.001  -0.025   0.000   0.000  -0.024
tot          0.115  -0.185   8.889   0.014   8.833

 BZINTS: Fermi energy:  7.863451;111.000000 electrons
         Band energy:-187.831913;  BLOECHL correction: -0.135026