 vasp.5.4.4.18Apr17-6-g9f103f2a35 (build Oct 03 2018 13:58:34) complex

 executed on             LinuxIFC date 2019.06.04  01:57:42

 INCAR:
 POTCAR:    PAW_PBE La 06Sep2000
 POTCAR:    PAW_PBE Mn 06Sep2000
 POTCAR:    PAW_PBE Ni 02Aug2007
 POTCAR:    PAW_PBE O 08Apr2002

 POTCAR:    PAW_PBE La 06Sep2000
   VRHFIN =La : [core=Kr4d]

   TITEL  = PAW_PBE La 06Sep2000
   POMASS =  138.900; ZVAL   =   11.000    mass and valenz
   ENMAX  =  219.292; ENMIN  =  164.469 eV

 POTCAR:    PAW_PBE Mn 06Sep2000
   VRHFIN =Mn: d6 s1

   TITEL  = PAW_PBE Mn 06Sep2000
   POMASS =   54.938; ZVAL   =    7.000    mass and valenz
   ENMAX  =  269.864; ENMIN  =  202.398 eV

 POTCAR:    PAW_PBE Ni 02Aug2007
   VRHFIN =Ni:

   TITEL  = PAW_PBE Ni 02Aug2007
   POMASS =   58.690; ZVAL   =   10.000    mass and valenz
   ENMAX  =  269.532; ENMIN  =  202.149 eV

 POTCAR:    PAW_PBE O 08Apr2002
   VRHFIN =O: s2p4

   TITEL  = PAW_PBE O 08Apr2002
   POMASS =   16.000; ZVAL   =    6.000    mass and valenz
   ENMAX  =  400.000; ENMIN  =  300.000 eV

 Optimization of the real space projectors (new method)

 maximal supplied QI-value         = 13.42
 optimisation between [QCUT,QGAM] = [ 11.67, 23.35] = [ 38.16,152.62] Ry
 Optimized for a Real-space Cutoff    1.63 Angstroem

   l    n(q)    QCUT    max X(q) W(low)/X(q) W(high)/X(q)  e(spline)
   0     11    11.673    13.882    0.27E-04    0.79E-05    0.11E-06
   0     11    11.673    12.184    0.39E-04    0.13E-04    0.19E-06
   1     11    11.673     4.523    0.73E-05    0.76E-05    0.12E-06
   1     11    11.673     4.424    0.87E-05    0.13E-04    0.19E-06
   2     10    11.673    52.481    0.65E-04    0.36E-04    0.18E-06
   2     10    11.673    38.501    0.61E-04    0.33E-04    0.17E-06
   3     10    11.673    65.631    0.17E-03    0.14E-03    0.37E-06
   3     10    11.673    56.854    0.17E-03    0.14E-03    0.37E-06
 Optimization of the real space projectors (new method)

[...]

   l    n(q)    QCUT    max X(q) W(low)/X(q) W(high)/X(q)  e(spline)
   2      9    11.539    60.317    0.19E-03    0.47E-04    0.16E-06
   2      9    11.539    55.921    0.19E-03    0.48E-04    0.16E-06
   0     10    11.539    51.690    0.80E-04    0.50E-04    0.24E-06
   0     10    11.539    30.015    0.73E-04    0.45E-04    0.22E-06
   1     10    11.539    18.849    0.87E-04    0.16E-03    0.71E-07
   1     10    11.539    14.624    0.73E-04    0.13E-03    0.64E-07
 Optimization of the real space projectors (new method)

 maximal supplied QI-value         = 24.76
 optimisation between [QCUT,QGAM] = [ 11.64, 23.27] = [ 37.91,151.63] Ry
 Optimized for a Real-space Cutoff    1.14 Angstroem

   l    n(q)    QCUT    max X(q) W(low)/X(q) W(high)/X(q)  e(spline)
   0      8    11.635    20.381    0.10E-03    0.33E-03    0.24E-06
   0      8    11.635    15.268    0.11E-03    0.35E-03    0.26E-06
   1      7    11.635     5.964    0.24E-03    0.31E-03    0.30E-06
   1      7    11.635     5.382    0.22E-03    0.25E-03    0.26E-06
  PAW_PBE La 06Sep2000                  :
  PAW_PBE Mn 06Sep2000                  :
  PAW_PBE Ni 02Aug2007                  :
  PAW_PBE O 08Apr2002                   :

 POSCAR: SCEL6_1_6_1_1_0_0/6
  positions in direct lattice
  velocities in cartesian coordinates
 exchange correlation table for  LEXCH =        8
   RHO(1)=    0.500       N(1)  =     2000
   RHO(2)=  100.500       N(2)  =     4000

 ion  position               nearest neighbor table
   1  0.000  0.500  0.167-  29 2.74  29 2.74  16 2.74  23 2.74  16 2.74  23 2.74  17 2.74  17 2.74
                            24 2.74  24 2.74  28 2.75  30 2.75  11 3.35  11 3.35  11 3.35  11 3.35
   2  0.000  0.000  0.328-  29 2.65  23 2.68  16 2.68  16 2.68  23 2.68  28 2.74  28 2.74  22 2.79
                            22 2.79  15 2.79  15 2.79  11 3.28  11 3.28  10 3.35  10 3.35  10 3.35
   3  0.000  0.500  0.499-  28 2.71  22 2.72  15 2.72  15 2.72  22 2.72  27 2.74  27 2.74  14 2.74
                            14 2.74  21 2.74  21 2.74  26 2.76  10 3.34  10 3.34   8 3.35   8 3.35
   4  0.000  0.000  0.667-  25 2.73  27 2.73  13 2.73  20 2.73  13 2.73  20 2.73  14 2.73  14 2.73
                            21 2.73  21 2.73  26 2.74  26 2.74   9 3.35   9 3.35   9 3.35   9 3.35
   5  0.000  0.500  0.834-  30 2.71  19 2.72  18 2.72  18 2.72  19 2.72  25 2.74  25 2.74  13 2.74
                            20 2.74  13 2.74  20 2.74  26 2.76  12 3.34  12 3.34   7 3.35   7 3.35
   6  0.000  0.000  0.005-  29 2.65  24 2.68  17 2.68  17 2.68  24 2.68  30 2.74  30 2.74  18 2.79
                            18 2.79  19 2.79  19 2.79  11 3.28  11 3.28  12 3.35  12 3.35  12 3.35
   7  0.500  0.000  0.834-  18 1.89  19 1.89  13 1.90  20 1.90  25 1.93  25 1.93   5 3.35   5 3.35
                             5 3.35   5 3.35   4 3.36   4 3.36   6 3.42   6 3.42
   8  0.500  0.000  0.499-  15 1.89  22 1.89  21 1.90  14 1.90  27 1.93  27 1.93   3 3.35   3 3.35
                             3 3.35   3 3.35   4 3.36   4 3.36   2 3.42   2 3.42
   9  0.500  0.500  0.667-  26 1.93  26 1.93  13 1.97  20 1.97  14 1.97  21 1.97   4 3.35   4 3.35
                             4 3.35   4 3.35   5 3.36   5 3.36   3 3.36   3 3.36
  10  0.500  0.500  0.333-  28 1.93  28 1.93  16 1.96  23 1.96  22 1.97  15 1.97   3 3.34   3 3.34
                             2 3.35   2 3.35   2 3.35   2 3.35   1 3.35   1 3.35
  11  0.500  0.000  0.167-  16 1.91  23 1.91  17 1.91  24 1.91  29 1.93  29 1.93   2 3.28   2 3.28
                             6 3.28   6 3.28   1 3.35   1 3.35   1 3.35   1 3.35
  12  0.500  0.500  0.000-  30 1.93  30 1.93  17 1.96  24 1.96  19 1.97  18 1.97   5 3.34   5 3.34
                             6 3.35   6 3.35   6 3.35   6 3.35   1 3.35   1 3.35
  13  0.500  0.755  0.752-   7 1.90   9 1.97   4 2.73   4 2.73   5 2.74   5 2.74
  14  0.500  0.245  0.582-   8 1.90   9 1.97   4 2.73   4 2.73   3 2.74   3 2.74
  15  0.500  0.753  0.419-   8 1.89  10 1.97   3 2.72   3 2.72   2 2.79   2 2.79
  16  0.500  0.245  0.249-  11 1.91  10 1.96   2 2.68   2 2.68   1 2.74   1 2.74
  17  0.500  0.755  0.084-  11 1.91  12 1.96   6 2.68   6 2.68   1 2.74   1 2.74
  18  0.500  0.247  0.914-   7 1.89  12 1.97   5 2.72   5 2.72   6 2.79   6 2.79
  19  0.500  0.753  0.914-   7 1.89  12 1.97   5 2.72   5 2.72   6 2.79   6 2.79
  20  0.500  0.245  0.752-   7 1.90   9 1.97   4 2.73   4 2.73   5 2.74   5 2.74
  21  0.500  0.755  0.582-   8 1.90   9 1.97   4 2.73   4 2.73   3 2.74   3 2.74
  22  0.500  0.247  0.419-   8 1.89  10 1.97   3 2.72   3 2.72   2 2.79   2 2.79
  23  0.500  0.755  0.249-  11 1.91  10 1.96   2 2.68   2 2.68   1 2.74   1 2.74
  24  0.500  0.245  0.084-  11 1.91  12 1.96   6 2.68   6 2.68   1 2.74   1 2.74
  25  0.000  0.000  0.833-   7 1.93   7 1.93   4 2.73   5 2.74   5 2.74
  26  0.000  0.500  0.667-   9 1.93   9 1.93   4 2.74   4 2.74   5 2.76   3 2.76
  27  0.000  0.000  0.501-   8 1.93   8 1.93   4 2.73   3 2.74   3 2.74
  28  0.000  0.500  0.334-  10 1.93  10 1.93   3 2.71   2 2.74   2 2.74   1 2.75
  29  0.000  0.000  0.167-  11 1.93  11 1.93   2 2.65   6 2.65   1 2.74   1 2.74
  30  0.000  0.500  1.000-  12 1.93  12 1.93   5 2.71   6 2.74   6 2.74   1 2.75

  LATTYP: Found a simple orthorhombic cell.
 ALAT       =     3.8623360493
 B/A-ratio  =     1.4167902639
 C/A-ratio  =     4.2550096677

  Lattice vectors:

 A1 = (   3.8623360493,   0.0000000000,   0.0000000000)
 A2 = (   0.0000000000,   3.8693732375,   3.8693732375)
 A3 = (   0.0000000000, -11.6207888728,  11.6207888728)

Analysis of symmetry for initial positions (statically):
 Subroutine PRICEL returns:
 Original cell was already a primitive cell.

 Routine SETGRP: Setting up the symmetry group for a
 simple orthorhombic supercell.

 Subroutine GETGRP returns: Found  8 space group operations
 (whereof  4 operations were pure point group operations)
 out of a pool of  8 trial point group operations.

The static configuration has the point symmetry C_2v.
 The point group associated with its full space group is D_2h.

Analysis of symmetry for dynamics (positions and initial velocities):
 Subroutine PRICEL returns:
 Original cell was already a primitive cell.

[...]

The dynamic configuration has the point symmetry C_2v.
 The point group associated with its full space group is D_2h.

Analysis of structural, dynamic, and magnetic symmetry:
 Subroutine PRICEL returns:
 Original cell was already a primitive cell.

 Routine SETGRP: Setting up the symmetry group for a
 simple orthorhombic supercell.

 Subroutine GETGRP returns: Found  8 space group operations
 (whereof  4 operations were pure point group operations)
 out of a pool of  8 trial point group operations.

The magnetic configuration has the point symmetry C_2v.
 The point group associated with its full space group is D_2h.

 Subroutine INISYM returns: Found  8 space group operations
 (whereof  4 operations are pure point group operations),
 and found     1 'primitive' translations

 KPOINTS: Automatic mesh

Automatic generation of k-mesh.
 generate k-points for:    5    4    1
Space group operators:
 irot       det(A)        alpha          n_x          n_y          n_z        tau_x        tau_y        tau_z
    1     1.000000     0.000001     1.000000     0.000000     0.000000     0.000000     0.000000     0.000000
    2     1.000000   180.000000     0.000000    -0.707107     0.707107     0.000000     0.000000     0.000000
    3    -1.000000   180.000000     0.000000     0.707107     0.707107     0.000000     0.000000     0.000000
    4    -1.000000   179.999999     1.000000     0.000000     0.000000     0.000000     0.000000     0.000000
    5    -1.000000     0.000001     1.000000     0.000000     0.000000     0.000000     0.000000     0.333333
    6    -1.000000   180.000000     0.000000    -0.707107     0.707107     0.000000     0.000000     0.333333
    7     1.000000   180.000000     0.000000     0.707107     0.707107     0.000000     0.000000     0.333333
    8     1.000000   179.999999     1.000000     0.000000     0.000000     0.000000     0.000000     0.333333

 Subroutine IBZKPT returns following result:

 Found      9 irreducible k-points:

 Following reciprocal coordinates:
            Coordinates               Weight
  0.000000  0.000000  0.000000      1.000000
  0.200000  0.000000  0.000000      2.000000
  0.400000  0.000000  0.000000      2.000000
  0.000000  0.250000  0.000000      2.000000
  0.200000  0.250000  0.000000      4.000000
  0.400000  0.250000  0.000000      4.000000
  0.000000  0.500000  0.000000      1.000000
  0.200000  0.500000  0.000000      2.000000
  0.400000  0.500000  0.000000      2.000000

 Following cartesian coordinates:
            Coordinates               Weight
  0.000000  0.000000  0.000000      1.000000
  0.051782  0.000000  0.000000      2.000000
  0.103564  0.000000  0.000000      2.000000
  0.000000  0.032305  0.032305      2.000000
  0.051782  0.032305  0.032305      4.000000
  0.103564  0.032305  0.032305      4.000000
  0.000000  0.064610  0.064610      1.000000
  0.051782  0.064610  0.064610      2.000000
  0.103564  0.064610  0.064610      2.000000

 TETIRR: Found     54 inequivalent tetrahedra from      120

 SYSTEM =  final
 POSCAR =  SCEL6_1_6_1_1_0_0/6

[...]
     30      -7.0852      1.00000
     31      -7.0842      1.00000
     32      -7.0573      1.00000
     33      -7.0457      1.00000
     34      -6.9308      1.00000
     35      -6.9241      1.00000
     36      -6.8589      1.00000
     37      -6.8538      1.00000
     38      -6.8239      1.00000
     39      -6.7505      1.00000
     40      -6.6828      1.00000
     41      -6.6707      1.00000
     42      -6.6584      1.00000
     43       0.4050      1.00000
     44       0.5924      1.00000
     45       0.7035      1.00000
     46       0.8189      1.00000
     47       1.0166      1.00000
     48       1.0546      1.00000
     49       1.1449      1.00000
     50       1.4750      1.00000
     51       1.5325      1.00000
     52       1.9061      1.00000
     53       1.9087      1.00000
     54       1.9365      1.00000
     55       2.0751      1.00000
     56       2.0877      1.00000
     57       2.0994      1.00000
     58       2.1023      1.00000
     59       2.1430      1.00000
     60       2.3091      1.00000
[...]
    132      10.9839      0.00000
    133      11.0091      0.00000
    134      11.0719      0.00000
    135      11.1134      0.00000
    136      11.1683      0.00000
    137      11.2078      0.00000
    138      11.2503      0.00000
    139      11.2663      0.00000
    140      11.3018      0.00000
    141      11.3112      0.00000
    142      11.3466      0.00000
    143      11.3693      0.00000
    144      11.3743      0.00000
    145      11.4223      0.00000
    146      11.4364      0.00000

[...]

 spin component 2

[...]

 k-point     9 :       0.4000    0.5000    0.0000
  band No.  band energies     occupation
      1     -23.6644      1.00000
      2     -23.6552      1.00000
      3     -23.6544      1.00000
      4     -23.5512      1.00000
      5     -23.5494      1.00000
      6     -23.5134      1.00000
      7     -10.7027      1.00000
      8     -10.7001      1.00000
      9     -10.5426      1.00000
     10     -10.5066      1.00000
     11     -10.3859      1.00000
     12     -10.3140      1.00000
     13     -10.2573      1.00000
     14     -10.2222      1.00000
     15     -10.0417      1.00000
     16     -10.0264      1.00000
     17      -9.9927      1.00000
     18      -9.7412      1.00000
     19      -9.6328      1.00000
     20      -9.6128      1.00000
     21      -9.5646      1.00000
     22      -9.5448      1.00000
     23      -9.4438      1.00000
     24      -9.4000      1.00000
     25      -7.4078      1.00000
     26      -7.3601      1.00000
     27      -7.1864      1.00000
     28      -7.1065      1.00000
     29      -7.0994      1.00000
     30      -7.0173      1.00000
     31      -6.9963      1.00000
     32      -6.9893      1.00000
     33      -6.9579      1.00000
     34      -6.8561      1.00000
     35      -6.8359      1.00000
     36      -6.8336      1.00000
     37      -6.7864      1.00000
     38      -6.7362      1.00000
     39      -6.7290      1.00000
     40      -6.6841      1.00000
     41      -6.6583      1.00000
     42      -6.6413      1.00000
     43       1.6789      1.00000
     44       1.7299      1.00000
     45       1.7865      1.00000
     46       1.8011      1.00000
     47       1.8612      1.00000
     48       1.8678      1.00000
     49       1.9000      1.00000
     50       1.9076      1.00000
     51       2.0978      1.00000
     52       2.1179      1.00000
     53       2.3984      1.00000
     54       2.4359      1.00000
     55       2.5128      1.00000
     56       2.5769      1.00000
     57       2.7615      1.00000
     58       2.8048      1.00000
     59       2.8231      1.00000
     60       2.9973      1.00000
[...]
    132      11.2796      0.00000
    133      11.2817      0.00000
    134      11.2914      0.00000
    135      11.3023      0.00000
    136      11.3101      0.00000
    137      11.3274      0.00000
    138      11.3378      0.00000
    139      11.3458      0.00000
    140      11.3620      0.00000
    141      11.3744      0.00000
    142      11.3900      0.00000
    143      11.3964      0.00000
    144      11.4087      0.00000
    145      11.4242      0.00000
    146      11.4669      0.00000

 soft charge-density along one line, spin component           1
         0         1         2         3         4         5         6         7         8         9
 total charge-density along one line

 soft charge-density along one line, spin component           2
         0         1         2         3         4         5         6         7         8         9
 total charge-density along one line

------------------------ aborting loop because EDIFF is reached ----------------------------------------

 total charge

# of ion       s       p       d       f       tot
    1        2.000   5.699   0.487   0.188   8.374
    2        2.001   5.699   0.496   0.192   8.388
    3        2.000   5.701   0.495   0.193   8.389
    4        2.000   5.700   0.495   0.193   8.388
    5        2.000   5.701   0.495   0.193   8.389
    6        2.001   5.699   0.496   0.192   8.388
    7        0.352   0.559   4.870   0.000   5.781
    8        0.352   0.559   4.870   0.000   5.781
    9        0.399   0.586   8.315   0.000   9.300
   10        0.406   0.595   8.307   0.000   9.308
   11        0.444   0.683   8.327   0.000   9.454
   12        0.406   0.595   8.307   0.000   9.308
   13        1.562   3.458   0.000   0.000   5.020
   14        1.562   3.458   0.000   0.000   5.020
   15        1.562   3.457   0.000   0.000   5.019
   16        1.562   3.435   0.000   0.000   4.997
   17        1.562   3.435   0.000   0.000   4.997
   18        1.562   3.457   0.000   0.000   5.019
   19        1.562   3.457   0.000   0.000   5.019
   20        1.562   3.458   0.000   0.000   5.020
   21        1.562   3.458   0.000   0.000   5.020
   22        1.562   3.457   0.000   0.000   5.019
   23        1.562   3.435   0.000   0.000   4.997
   24        1.562   3.435   0.000   0.000   4.997
   25        1.565   3.466   0.000   0.000   5.031
   26        1.558   3.441   0.000   0.000   4.999
   27        1.565   3.466   0.000   0.000   5.031
   28        1.559   3.440   0.000   0.000   4.999
   29        1.564   3.440   0.000   0.000   5.003
   30        1.559   3.440   0.000   0.000   4.999
tot         42.475  99.867  45.960   1.151 189.453

 magnetization (x)

[...]

  FORCE on cell =-STRESS in cart. coord.  units (eV):
  Direction    XX          YY          ZZ          XY          YZ          ZX
  Alpha Z   989.17597   989.17597   989.17597
  Ewald   -5231.53292 -5344.92738 -5344.92738     0.00000    44.98016    -0.00000
  Hartree  1311.75105  1211.67598  1211.67598     0.00000    46.21047    -0.00000
  E(xc)   -1066.54484 -1066.83575 -1066.83575     0.00000    -0.01641    -0.00000
  Local    -923.13965  -713.18982  -713.18982    -0.00000   -90.85359    -0.00000
  n-local   430.04242   428.77181   428.77420    -0.70106     0.19564    -0.70061
  augment   633.85527   634.57581   634.57581     0.00000     0.04408    -0.00000
  Kinetic  3856.74688  3860.44788  3860.44496     1.52407    -0.57347     1.52607
  Fock        0.00000     0.00000     0.00000     0.00000     0.00000     0.00000
  Total       0.35419    -0.30576    -0.30576     0.00000    -0.01312     0.00000
  in kB       1.63377    -1.41038    -1.41038     0.00000    -0.06054     0.00000

 VOLUME and BASIS-vectors are now :
  energy-cutoff  :      520.00
  volume of cell :      347.34
      direct lattice vectors                 reciprocal lattice vectors
     3.862336049  0.000000000  0.000000000     0.258910666  0.000000000  0.000000000
     0.000000000  3.869373238  3.869373238     0.000000000  0.129219894  0.129219894
     0.000000000-11.620788873 11.620788873     0.000000000 -0.043026339  0.043026339

  length of vectors
     3.862336049  5.472120110 16.434277229     0.258910666  0.182744527  0.060848432

 FORCES acting on ions
    electron-ion (+dipol)            ewald-force                    non-local-force                 convergence-correction
   -.243E-14 0.606E-03 -.606E-03   0.770E-14 0.322E-03 -.322E-03   0.000E+00 0.271E-18 -.108E-18   -.266E-15 -.254E-05 0.254E-05
   -.156E-13 0.108E+03 -.108E+03   0.173E-13 -.107E+03 0.107E+03   0.000E+00 -.675E+00 0.675E+00   0.684E-14 0.109E-01 -.109E-01
   -.820E-14 0.432E+02 -.432E+02   -.290E-13 -.430E+02 0.430E+02   0.000E+00 -.139E+00 0.139E+00   0.756E-14 -.104E-01 0.104E-01
   -.305E-14 0.593E-03 -.593E-03   -.408E-13 0.334E-03 -.334E-03   0.000E+00 -.108E-18 0.325E-18   0.580E-15 -.287E-05 0.287E-05
   -.558E-14 -.432E+02 0.432E+02   -.110E-13 0.430E+02 -.430E+02   0.000E+00 0.139E+00 -.139E+00   0.168E-14 0.104E-01 -.104E-01
   -.767E-14 -.108E+03 0.108E+03   0.240E-13 0.107E+03 -.107E+03   0.000E+00 0.675E+00 -.675E+00   0.566E-14 -.109E-01 0.109E-01
   0.611E-13 -.210E+02 0.210E+02   -.241E-14 0.209E+02 -.209E+02   0.000E+00 0.983E-01 -.983E-01   0.203E-13 0.369E-02 -.369E-02
   0.571E-13 0.210E+02 -.210E+02   0.919E-14 -.209E+02 0.209E+02   0.000E+00 -.983E-01 0.983E-01   0.225E-13 -.369E-02 0.369E-02
   0.284E-12 -.120E-03 0.120E-03   0.104E-13 0.390E-03 -.390E-03   0.000E+00 0.508E-20 -.339E-20   0.783E-13 -.293E-05 0.293E-05
   0.281E-12 0.650E+02 -.650E+02   -.129E-14 -.647E+02 0.647E+02   0.000E+00 -.260E+00 0.260E+00   0.525E-13 0.782E-02 -.782E-02
   0.307E-12 -.123E-03 0.123E-03   -.257E-13 0.395E-03 -.395E-03   0.000E+00 0.847E-21 0.000E+00   0.715E-13 -.261E-05 0.261E-05
   0.278E-12 -.650E+02 0.650E+02   -.180E-13 0.647E+02 -.647E+02   0.000E+00 0.260E+00 -.260E+00   0.574E-13 -.782E-02 0.782E-02
   0.109E-12 -.102E+02 -.283E+02   -.445E-14 0.102E+02 0.234E+02   -.325E-18 0.277E-01 0.494E+01   0.155E-13 0.421E-02 -.325E-01
   0.115E-12 0.102E+02 0.283E+02   0.157E-13 -.102E+02 -.234E+02   -.217E-18 -.277E-01 -.494E+01   0.505E-13 -.421E-02 0.325E-01
   0.118E-12 0.272E+02 -.748E+02   0.268E-14 -.268E+02 0.698E+02   -.867E-18 -.424E+00 0.502E+01   0.242E-13 -.646E-03 -.169E-01
   0.116E-12 0.186E+02 -.470E+02   -.906E-14 -.182E+02 0.490E+02   0.000E+00 -.397E+00 -.191E+01   0.468E-13 0.194E-02 -.111E-02
   0.112E-12 -.186E+02 0.470E+02   0.170E-13 0.182E+02 -.490E+02   0.000E+00 0.397E+00 0.191E+01   0.858E-14 -.194E-02 0.111E-02
   0.124E-12 -.272E+02 0.748E+02   0.104E-13 0.268E+02 -.698E+02   -.867E-18 0.424E+00 -.502E+01   0.542E-13 0.650E-03 0.169E-01
   0.113E-12 -.748E+02 0.272E+02   0.236E-13 0.698E+02 -.268E+02   0.867E-18 0.502E+01 -.424E+00   0.309E-13 -.169E-01 -.650E-03
   0.109E-12 0.283E+02 0.102E+02   0.202E-13 -.234E+02 -.102E+02   0.434E-18 -.494E+01 -.277E-01   0.363E-13 0.325E-01 -.421E-02
   0.109E-12 -.283E+02 -.102E+02   0.355E-14 0.234E+02 0.102E+02   -.217E-18 0.494E+01 0.277E-01   0.300E-13 -.325E-01 0.421E-02
   0.123E-12 0.748E+02 -.272E+02   0.374E-14 -.698E+02 0.268E+02   0.867E-18 -.502E+01 0.424E+00   0.207E-13 0.169E-01 0.646E-03
   0.111E-12 0.470E+02 -.186E+02   0.160E-13 -.490E+02 0.182E+02   0.000E+00 0.191E+01 0.397E+00   0.322E-13 0.111E-02 -.194E-02
   0.112E-12 -.470E+02 0.186E+02   -.160E-13 0.490E+02 -.182E+02   0.000E+00 -.191E+01 -.397E+00   0.368E-13 -.111E-02 0.194E-02
   -.409E-14 -.161E+02 0.161E+02   -.982E-15 0.159E+02 -.159E+02   0.000E+00 0.219E+00 -.219E+00   -.186E-14 0.552E-02 -.552E-02
   -.881E-14 0.684E-03 -.684E-03   0.134E-13 0.193E-03 -.193E-03   0.000E+00 0.000E+00 0.000E+00   -.161E-13 -.172E-05 0.172E-05
   -.427E-14 0.161E+02 -.161E+02   -.455E-14 -.159E+02 0.159E+02   0.000E+00 -.219E+00 0.219E+00   0.413E-14 -.552E-02 0.552E-02
   -.862E-14 0.390E+02 -.390E+02   0.112E-13 -.390E+02 0.390E+02   0.000E+00 0.269E-01 -.269E-01   0.248E-14 0.327E-02 -.327E-02
   -.534E-14 0.689E-03 -.689E-03   0.165E-13 0.190E-03 -.190E-03   0.000E+00 0.407E-19 0.407E-19   -.102E-13 -.160E-05 0.160E-05
   -.227E-14 -.390E+02 0.390E+02   -.511E-14 0.390E+02 -.390E+02   0.000E+00 -.269E-01 0.269E-01   -.882E-14 -.326E-02 0.326E-02
   0.256E-11 0.531E-02 -.531E-02   0.541E-13 -.227E-12 0.242E-12   -.325E-18 -.853E-15 0.132E-15   0.681E-12 -.132E-05 0.132E-05

 POSITION                                       TOTAL-FORCE (eV/Angst)
      0.00000     -0.00211      3.87149         0.000000      0.000000     -0.000000
      0.00000     -3.80999      3.80999         0.000000      0.158884     -0.158884
      0.00000     -3.86417      7.73354         0.000000      0.010276     -0.010276
      0.00000     -7.74719      7.74719         0.000000      0.000000     -0.000000
      0.00000     -7.76085     11.63022         0.000000     -0.010276      0.010276
      0.00000     -0.06361      0.06361         0.000000     -0.158884      0.158884
      1.93117     -9.69113      9.69113         0.000000      0.042960     -0.042960
      1.93117     -5.80325      5.80325         0.000000     -0.042960      0.042960
      1.93117     -5.81251      9.68188         0.000000      0.000000     -0.000000
      1.93117     -1.93843      5.80780         0.000000      0.021052     -0.021052
      1.93117     -1.93680      1.93680         0.000000      0.000000     -0.000000
      1.93117      1.93421      1.93516         0.000000     -0.021052      0.021052
      1.93117     -5.81179     11.65619         0.000000     -0.002399      0.085607
      1.93117     -5.81322      7.70757         0.000000      0.002399     -0.085607
      1.93117     -1.95555      7.77985         0.000000     -0.015393      0.023553
      1.93117     -1.94940      3.84471         0.000000     -0.004779      0.001398
      1.93117      1.94518      3.89825         0.000000      0.004779     -0.001398
      1.93117     -9.66946     11.58391         0.000000      0.015393     -0.023553
      1.93117     -7.71454     13.53884         0.000000      0.023553     -0.015393
      1.93117     -7.78682      9.68117         0.000000     -0.085607      0.002399
      1.93117     -3.83820      9.68259         0.000000      0.085607     -0.002399
      1.93117     -3.91048      5.82492         0.000000     -0.023553      0.015393
      1.93117      0.02466      5.81877         0.000000     -0.001398      0.004779
      1.93117     -0.02888      1.92420         0.000000      0.001398     -0.004779
      0.00000     -9.67558      9.67558         0.000000      0.015228     -0.015228
      0.00000     -5.81251      9.68188         0.000000      0.000000     -0.000000
      0.00000     -5.81881      5.81881         0.000000     -0.015228      0.015228
      0.00000     -1.94452      5.81389         0.000000      0.036624     -0.036624
      0.00000     -1.93680      1.93680         0.000000      0.000000     -0.000000
      0.00000     -9.68049     13.54987         0.000000     -0.036624      0.036624
    total drift:                                0.000000      0.005311     -0.005311

  FREE ENERGIE OF THE ION-ELECTRON SYSTEM (eV)
  free  energy   TOTEN  =      -213.75410289 eV

  energy  without entropy=     -213.75410289  energy(sigma->0) =     -213.75410289

 total charge

[...]

 magnetization (x)

# of ion       s       p       d       f       tot
    1        0.001  -0.001   0.005   0.002   0.007
    2        0.001  -0.000   0.007   0.003   0.011
    3        0.001   0.001   0.010   0.004   0.015
    4        0.001   0.001   0.009   0.003   0.014
    5        0.001   0.001   0.010   0.004   0.015
    6        0.001  -0.000   0.007   0.003   0.011
    7        0.023   0.028   3.288   0.000   3.339
    8        0.023   0.028   3.288   0.000   3.339
    9        0.009   0.002   1.582   0.000   1.593
   10        0.014   0.006   1.534   0.000   1.553
   11        0.019   0.017   1.254   0.000   1.290
   12        0.014   0.006   1.534   0.000   1.553
   13        0.005  -0.023   0.000   0.000  -0.018
   14        0.005  -0.023   0.000   0.000  -0.018
   15        0.005  -0.022   0.000   0.000  -0.018
   16        0.006  -0.085   0.000   0.000  -0.079
   17        0.006  -0.085   0.000   0.000  -0.079
   18        0.005  -0.022   0.000   0.000  -0.018
   19        0.005  -0.022   0.000   0.000  -0.018
   20        0.005  -0.023   0.000   0.000  -0.018
   21        0.005  -0.023   0.000   0.000  -0.018
   22        0.005  -0.022   0.000   0.000  -0.018
   23        0.006  -0.085   0.000   0.000  -0.079
   24        0.006  -0.085   0.000   0.000  -0.079
   25        0.003  -0.059   0.000   0.000  -0.056
   26        0.005  -0.047   0.000   0.000  -0.041
   27        0.003  -0.059   0.000   0.000  -0.056
   28        0.005  -0.065   0.000   0.000  -0.060
   29        0.007  -0.077   0.000   0.000  -0.070
   30        0.005  -0.065   0.000   0.000  -0.060
tot          0.193  -0.805  12.528   0.020  11.935

 BZINTS: Fermi energy:  7.507716;228.000000 electrons
         Band energy:-291.688280;  BLOECHL correction: -0.140418