 vasp.5.4.4.18Apr17-6-g9f103f2a35 (build Oct 03 2018 13:58:34) complex

 executed on             LinuxIFC date 2019.06.04  01:31:34

 INCAR:
 POTCAR:    PAW_PBE La 06Sep2000
 POTCAR:    PAW_PBE Mn 06Sep2000
 POTCAR:    PAW_PBE Ni 02Aug2007
 POTCAR:    PAW_PBE O 08Apr2002

 POTCAR:    PAW_PBE La 06Sep2000
   VRHFIN =La : [core=Kr4d]

   TITEL  = PAW_PBE La 06Sep2000
   POMASS =  138.900; ZVAL   =   11.000    mass and valenz
   ENMAX  =  219.292; ENMIN  =  164.469 eV

 POTCAR:    PAW_PBE Mn 06Sep2000
   VRHFIN =Mn: d6 s1

   TITEL  = PAW_PBE Mn 06Sep2000
   POMASS =   54.938; ZVAL   =    7.000    mass and valenz
   ENMAX  =  269.864; ENMIN  =  202.398 eV

 POTCAR:    PAW_PBE Ni 02Aug2007
   VRHFIN =Ni:

   TITEL  = PAW_PBE Ni 02Aug2007
   POMASS =   58.690; ZVAL   =   10.000    mass and valenz
   ENMAX  =  269.532; ENMIN  =  202.149 eV

 POTCAR:    PAW_PBE O 08Apr2002
   VRHFIN =O: s2p4

   TITEL  = PAW_PBE O 08Apr2002
   POMASS =   16.000; ZVAL   =    6.000    mass and valenz
   ENMAX  =  400.000; ENMIN  =  300.000 eV

 Optimization of the real space projectors (new method)

 maximal supplied QI-value         = 13.42
 optimisation between [QCUT,QGAM] = [ 11.67, 23.35] = [ 38.16,152.62] Ry
 Optimized for a Real-space Cutoff    1.63 Angstroem

   l    n(q)    QCUT    max X(q) W(low)/X(q) W(high)/X(q)  e(spline)
   0     11    11.673    13.882    0.27E-04    0.79E-05    0.11E-06
   0     11    11.673    12.184    0.39E-04    0.13E-04    0.19E-06
   1     11    11.673     4.523    0.73E-05    0.76E-05    0.12E-06
   1     11    11.673     4.424    0.87E-05    0.13E-04    0.19E-06
   2     10    11.673    52.481    0.65E-04    0.36E-04    0.18E-06
   2     10    11.673    38.501    0.61E-04    0.33E-04    0.17E-06
   3     10    11.673    65.631    0.17E-03    0.14E-03    0.37E-06
   3     10    11.673    56.854    0.17E-03    0.14E-03    0.37E-06
 Optimization of the real space projectors (new method)

[...]

   l    n(q)    QCUT    max X(q) W(low)/X(q) W(high)/X(q)  e(spline)
   2      9    11.539    60.317    0.19E-03    0.47E-04    0.16E-06
   2      9    11.539    55.921    0.19E-03    0.48E-04    0.16E-06
   0     10    11.539    51.690    0.80E-04    0.50E-04    0.24E-06
   0     10    11.539    30.015    0.73E-04    0.45E-04    0.22E-06
   1     10    11.539    18.849    0.87E-04    0.16E-03    0.71E-07
   1     10    11.539    14.624    0.73E-04    0.13E-03    0.64E-07
 Optimization of the real space projectors (new method)

 maximal supplied QI-value         = 24.76
 optimisation between [QCUT,QGAM] = [ 11.64, 23.27] = [ 37.91,151.63] Ry
 Optimized for a Real-space Cutoff    1.14 Angstroem

   l    n(q)    QCUT    max X(q) W(low)/X(q) W(high)/X(q)  e(spline)
   0      8    11.635    20.381    0.10E-03    0.33E-03    0.24E-06
   0      8    11.635    15.268    0.11E-03    0.35E-03    0.26E-06
   1      7    11.635     5.964    0.24E-03    0.31E-03    0.30E-06
   1      7    11.635     5.382    0.22E-03    0.25E-03    0.26E-06
  PAW_PBE La 06Sep2000                  :
  PAW_PBE Mn 06Sep2000                  :
  PAW_PBE Ni 02Aug2007                  :
  PAW_PBE O 08Apr2002                   :

 POSCAR: SCEL5_1_5_1_4_0_0/3
  positions in direct lattice
  velocities in cartesian coordinates
 exchange correlation table for  LEXCH =        8
   RHO(1)=    0.500       N(1)  =     2000
   RHO(2)=  100.500       N(2)  =     4000

 ion  position               nearest neighbor table
   1  0.000  0.606  0.212-  24 2.58  19 2.66  14 2.66  14 2.66  19 2.66  25 2.74  25 2.74   9 3.23
                             9 3.23  10 3.36  10 3.36  10 3.36  10 3.36
   2  0.000  0.200  0.400-  24 2.73  24 2.73  13 2.75  13 2.75  19 2.75  19 2.75  18 2.75  14 2.75
                            18 2.75  14 2.75  25 2.78  23 2.78  10 3.35  10 3.35   8 3.35   8 3.35
   3  0.000  0.794  0.588-  24 2.58  13 2.66  13 2.66  18 2.66  18 2.66  23 2.74  23 2.74   9 3.23
                             9 3.23   8 3.36   8 3.36   8 3.36   8 3.36
   4  0.000  0.396  0.791-  23 2.59  17 2.67  12 2.67  12 2.67  17 2.67  22 2.74  22 2.74  11 2.80
                            16 2.80  16 2.80  11 2.80   8 3.27   8 3.27   6 3.36   6 3.36   6 3.36
   5  0.000  0.004  0.009-  25 2.59  15 2.67  15 2.67  20 2.67  20 2.67  21 2.74  21 2.74  11 2.80
                            11 2.80  16 2.80  16 2.80  10 3.27  10 3.27   7 3.36   7 3.36   7 3.36
   6  0.500  0.900  0.800-  17 1.88  12 1.88  11 1.94  16 1.94  22 1.94  22 1.94   4 3.36   4 3.36
                             4 3.36   4 3.36
   7  0.500  0.500  0.000-  20 1.88  15 1.88  16 1.94  11 1.94  21 1.94  21 1.94   5 3.36   5 3.36
                             5 3.36   5 3.36
   8  0.500  0.300  0.600-  23 1.94  23 1.94  18 1.97  13 1.97  12 1.99  17 1.99   4 3.27   4 3.27
                             2 3.35   2 3.35   3 3.36   3 3.36   3 3.36   3 3.36
   9  0.500  0.700  0.400-  18 1.90  14 1.90  13 1.90  19 1.90  24 1.94  24 1.94   1 3.23   1 3.23
                             3 3.23   3 3.23   2 3.35   2 3.35   2 3.35   2 3.35
  10  0.500  0.100  0.200-  25 1.94  25 1.94  14 1.97  19 1.97  15 1.99  20 1.99   5 3.27   5 3.27
                             2 3.35   2 3.35   1 3.36   1 3.36   1 3.36   1 3.36
  11  0.500  0.700  0.900-   6 1.94   7 1.94   5 2.80   5 2.80   4 2.80   4 2.80
  12  0.500  0.099  0.704-   6 1.88   8 1.99   4 2.67   4 2.67
  13  0.500  0.505  0.499-   9 1.90   8 1.97   3 2.66   3 2.66   2 2.75   2 2.75
  14  0.500  0.895  0.301-   9 1.90  10 1.97   1 2.66   1 2.66   2 2.75   2 2.75
  15  0.500  0.301  0.096-   7 1.88  10 1.99   5 2.67   5 2.67
  16  0.500  0.200  0.900-   7 1.94   6 1.94   4 2.80   4 2.80   5 2.80   5 2.80
  17  0.500  0.605  0.704-   6 1.88   8 1.99   4 2.67   4 2.67
  18  0.500  0.993  0.499-   9 1.90   8 1.97   3 2.66   3 2.66   2 2.75   2 2.75
  19  0.500  0.407  0.301-   9 1.90  10 1.97   1 2.66   1 2.66   2 2.75   2 2.75
  20  0.500  0.795  0.096-   7 1.88  10 1.99   5 2.67   5 2.67
  21  0.000  0.499  0.998-   7 1.94   7 1.94   5 2.74   5 2.74
  22  0.000  0.901  0.802-   6 1.94   6 1.94   4 2.74   4 2.74
  23  0.000  0.301  0.603-   8 1.94   8 1.94   4 2.59   3 2.74   3 2.74   2 2.78
  24  0.000  0.700  0.400-   9 1.94   9 1.94   1 2.58   3 2.58   2 2.73   2 2.73
  25  0.000  0.099  0.197-  10 1.94  10 1.94   5 2.59   1 2.74   1 2.74   2 2.78

  LATTYP: Found a base centered orthorhombic cell.
 ALAT       =     5.4694621960
 B/A-ratio  =     5.0110915155
 C/A-ratio  =     0.7104059040

  Lattice vectors:

 A1 = (   0.0000000000,  11.6239296086,   7.7564358003)
 A2 = (   0.0000000000,  -7.7564358003, -11.6239296086)
 A3 = (  -3.8855382357,   0.0000000000,   0.0000000000)

Analysis of symmetry for initial positions (statically):
 Subroutine PRICEL returns:
 Original cell was already a primitive cell.

 Routine SETGRP: Setting up the symmetry group for a
 base centered orthorhombic supercell.

 Subroutine GETGRP returns: Found  8 space group operations
 (whereof  4 operations were pure point group operations)
 out of a pool of  8 trial point group operations.

The static configuration has the point symmetry C_2v.
 The point group associated with its full space group is D_2h.

Analysis of symmetry for dynamics (positions and initial velocities):
 Subroutine PRICEL returns:
 Original cell was already a primitive cell.

[...]

The dynamic configuration has the point symmetry C_2v.
 The point group associated with its full space group is D_2h.

Analysis of structural, dynamic, and magnetic symmetry:
 Subroutine PRICEL returns:
 Original cell was already a primitive cell.

 Routine SETGRP: Setting up the symmetry group for a
 base centered orthorhombic supercell.

 Subroutine GETGRP returns: Found  8 space group operations
 (whereof  4 operations were pure point group operations)
 out of a pool of  8 trial point group operations.

The magnetic configuration has the point symmetry C_2v.
 The point group associated with its full space group is D_2h.

 Subroutine INISYM returns: Found  8 space group operations
 (whereof  4 operations are pure point group operations),
 and found     1 'primitive' translations

 KPOINTS: Automatic mesh

Automatic generation of k-mesh.
 generate k-points for:    5    4    1
Space group operators:
 irot       det(A)        alpha          n_x          n_y          n_z        tau_x        tau_y        tau_z
    1     1.000000     0.000000     1.000000     0.000000     0.000000     0.000000     0.000000     0.000000
    2    -1.000000   180.000000     1.000000     0.000000     0.000000     0.000000     0.000000     0.000000
    3     1.000000   180.000000     0.000000    -0.707107    -0.707107     0.000000     0.000000     0.000000
    4    -1.000000   180.000000     0.000000    -0.707107     0.707107     0.000000     0.000000     0.000000
    5    -1.000000     0.000000     1.000000     0.000000     0.000000     0.000000     0.400000    -0.200000
    6     1.000000   180.000000     1.000000     0.000000     0.000000     0.000000     0.400000    -0.200000
    7    -1.000000   180.000000     0.000000    -0.707107    -0.707107     0.000000     0.400000    -0.200000
    8     1.000000   180.000000     0.000000    -0.707107     0.707107     0.000000     0.400000    -0.200000

 Subroutine IBZKPT returns following result:

 Found      9 irreducible k-points:

 Following reciprocal coordinates:
            Coordinates               Weight
  0.000000  0.000000  0.000000      1.000000
  0.200000  0.000000  0.000000      2.000000
  0.400000  0.000000  0.000000      2.000000
  0.000000  0.250000  0.000000      2.000000
  0.200000  0.250000  0.000000      4.000000
  0.400000  0.250000  0.000000      4.000000
  0.000000  0.500000  0.000000      1.000000
  0.200000  0.500000  0.000000      2.000000
  0.400000  0.500000  0.000000      2.000000

 Following cartesian coordinates:
            Coordinates               Weight
  0.000000  0.000000  0.000000      1.000000
  0.051473  0.000000  0.000000      2.000000
  0.102946  0.000000  0.000000      2.000000
  0.000000  0.038770 -0.025871      2.000000
  0.051473  0.038770 -0.025871      4.000000
  0.102946  0.038770 -0.025871      4.000000
  0.000000  0.077541 -0.051742      1.000000
  0.051473  0.077541 -0.051742      2.000000
  0.102946  0.077541 -0.051742      2.000000

 TETIRR: Found     54 inequivalent tetrahedra from      120

 SYSTEM =  final
 POSCAR =  SCEL5_1_5_1_4_0_0/3

 Startparameter for this run:
   NWRITE =      2    write-flag & timer
   PREC   = accura    normal or accurate (medium, high low for compatibility)
   ISTART =      0    job   : 0-new  1-cont  2-samecut
   ICHARG =      1    charge: 1-file 2-atom 10-const
   ISPIN  =      2    spin polarized calculation?
   LNONCOLLINEAR =      F non collinear calculations
   LSORBIT =      F    spin-orbit coupling
   INIWAV =      1    electr: 0-lowe 1-rand  2-diag
   LASPH  =      F    aspherical Exc in radial PAW
   METAGGA=      F    non-selfconsistent MetaGGA calc.

 Electronic Relaxation 1
   ENCUT  =  520.0 eV  38.22 Ry    6.18 a.u.   7.22 10.17 25.98*2*pi/ulx,y,z
   ENINI  =  520.0     initial cutoff
   ENAUG  =  605.4 eV  augmentation charge cutoff
   NELM   =    100;   NELMIN=  2; NELMDL= -5     # of ELM steps
[...]
       1 -95.2544       2 -95.3080       3 -95.2544       4 -95.3061       5 -95.3062
       6 -43.1283       7 -43.1283       8 -83.6576       9 -83.9652      10 -83.6576
      11 -67.0015      12 -66.9631      13 -66.7063      14 -66.7063      15 -66.9631
      16 -67.0015      17 -66.9631      18 -66.7063      19 -66.7063      20 -66.9631
      21 -67.1477      22 -67.1477      23 -66.4880      24 -66.7750      25 -66.4880

 E-fermi :   7.6451     XC(G=0): -11.7457     alpha+bet :-16.6149

[...]

 k-point     1 :       0.0000    0.0000    0.0000
  band No.  band energies     occupation
      1     -23.8217      1.00000
      2     -23.7818      1.00000
      3     -23.7796      1.00000
      4     -23.7058      1.00000
      5     -23.6703      1.00000
      6     -11.0357      1.00000
      7     -10.8689      1.00000
      8     -10.8224      1.00000
      9     -10.6036      1.00000
     10     -10.4327      1.00000
     11     -10.2599      1.00000
     12     -10.1656      1.00000
     13      -9.8897      1.00000
     14      -9.8850      1.00000
     15      -9.8047      1.00000
     16      -9.7539      1.00000
     17      -9.6245      1.00000
     18      -9.5677      1.00000
     19      -9.4568      1.00000
     20      -9.4214      1.00000
     21      -7.3497      1.00000
     22      -7.3277      1.00000
     23      -7.2885      1.00000
     24      -7.2757      1.00000
     25      -7.2662      1.00000
     26      -7.1527      1.00000
     27      -7.1215      1.00000
     28      -7.0791      1.00000
     29      -7.0665      1.00000
     30      -6.9248      1.00000
     31      -6.9042      1.00000
     32      -6.8554      1.00000
     33      -6.8410      1.00000
     34      -6.8354      1.00000
     35      -6.7279      1.00000
     36       0.4109      1.00000
     37       0.5523      1.00000
     38       0.7314      1.00000
     39       0.8650      1.00000
     40       1.0428      1.00000
     41       1.2109      1.00000
     42       1.8175      1.00000
     43       1.9002      1.00000
     44       1.9086      1.00000
     45       1.9107      1.00000
     46       1.9287      1.00000
     47       1.9445      1.00000
     48       1.9688      1.00000
     49       2.0165      1.00000
     50       2.1185      1.00000
     51       2.3331      1.00000
     52       2.3365      1.00000
     53       2.4054      1.00000
     54       2.4997      1.00000
     55       2.5162      1.00000
     56       2.7056      1.00000
     57       2.7524      1.00000
     58       2.7822      1.00000
     59       3.3205      1.00000
     60       3.3328      1.00000
[...]
    108      10.8840      0.00000
    109      10.9035      0.00000
    110      10.9194      0.00000
    111      10.9679      0.00000
    112      11.0147      0.00000
    113      11.1133      0.00000
    114      11.1433      0.00000
    115      11.1650      0.00000
    116      11.1849      0.00000
    117      11.2209      0.00000
    118      11.2338      0.00000
    119      11.2628      0.00000
    120      11.2852      0.00000
    121      11.3289      0.00000
    122      11.3477      0.00000

[...]

 spin component 2

[...]

 k-point     9 :       0.4000    0.5000    0.0000
  band No.  band energies     occupation
      1     -23.7236      1.00000
      2     -23.7236      1.00000
      3     -23.6938      1.00000
      4     -23.6651      1.00000
      5     -23.6623      1.00000
      6     -10.6980      1.00000
      7     -10.6771      1.00000
      8     -10.6308      1.00000
      9     -10.5215      1.00000
     10     -10.5038      1.00000
     11     -10.2159      1.00000
     12     -10.2061      1.00000
     13     -10.1505      1.00000
     14     -10.0542      1.00000
     15      -9.8877      1.00000
     16      -9.8637      1.00000
     17      -9.7526      1.00000
     18      -9.6390      1.00000
     19      -9.5800      1.00000
     20      -9.4438      1.00000
     21      -7.4750      1.00000
     22      -7.4737      1.00000
     23      -7.2920      1.00000
     24      -7.1521      1.00000
     25      -7.0774      1.00000
     26      -7.0723      1.00000
     27      -7.0654      1.00000
     28      -6.9605      1.00000
     29      -6.9181      1.00000
     30      -6.9088      1.00000
     31      -6.8781      1.00000
     32      -6.7873      1.00000
     33      -6.7418      1.00000
     34      -6.7226      1.00000
     35      -6.7071      1.00000
     36       1.6628      1.00000
     37       1.7336      1.00000
     38       1.7635      1.00000
     39       1.8165      1.00000
     40       1.8694      1.00000
     41       1.8964      1.00000
     42       1.9141      1.00000
     43       2.2486      1.00000
     44       2.4002      1.00000
     45       2.4868      1.00000
     46       2.5115      1.00000
     47       2.6308      1.00000
     48       2.8602      1.00000
     49       2.8607      1.00000
     50       3.0324      1.00000
     51       3.0411      1.00000
     52       3.0807      1.00000
     53       3.1209      1.00000
     54       3.4236      1.00000
     55       3.5651      1.00000
     56       3.5869      1.00000
     57       3.6306      1.00000
     58       3.7590      1.00000
     59       3.8409      1.00000
     60       3.9601      1.00000
[...]
    108      11.1919      0.00000
    109      11.1991      0.00000
    110      11.2041      0.00000
    111      11.2172      0.00000
    112      11.2296      0.00000
    113      11.2350      0.00000
    114      11.2438      0.00000
    115      11.2578      0.00000
    116      11.2654      0.00000
    117      11.2713      0.00000
    118      11.2800      0.00000
    119      11.2891      0.00000
    120      11.3140      0.00000
    121      11.3353      0.00000
    122      11.3825      0.00000

 soft charge-density along one line, spin component           1
         0         1         2         3         4         5         6         7         8         9
 total charge-density along one line

 soft charge-density along one line, spin component           2
         0         1         2         3         4         5         6         7         8         9
 total charge-density along one line

------------------------ aborting loop because EDIFF is reached ----------------------------------------

 total charge

# of ion       s       p       d       f       tot
    1        2.002   5.698   0.502   0.193   8.395
    2        1.999   5.698   0.484   0.187   8.368
    3        2.002   5.698   0.502   0.193   8.395
    4        2.002   5.701   0.505   0.197   8.404
    5        2.002   5.701   0.505   0.197   8.404
    6        0.344   0.533   4.861   0.000   5.738
    7        0.344   0.533   4.861   0.000   5.738
    8        0.400   0.573   8.313   0.000   9.287
    9        0.446   0.696   8.341   0.000   9.484
   10        0.400   0.573   8.314   0.000   9.287
   11        1.561   3.466   0.000   0.000   5.027
   12        1.564   3.453   0.000   0.000   5.016
   13        1.561   3.444   0.000   0.000   5.005
   14        1.561   3.444   0.000   0.000   5.005
   15        1.564   3.453   0.000   0.000   5.016
   16        1.561   3.464   0.000   0.000   5.025
   17        1.564   3.453   0.000   0.000   5.016
   18        1.561   3.443   0.000   0.000   5.004
   19        1.561   3.443   0.000   0.000   5.004
   20        1.564   3.453   0.000   0.000   5.016
   21        1.566   3.448   0.000   0.000   5.014
   22        1.566   3.448   0.000   0.000   5.014
   23        1.557   3.452   0.000   0.000   5.009
   24        1.563   3.454   0.000   0.000   5.017
   25        1.557   3.452   0.000   0.000   5.009
tot         35.369  83.174  37.187   0.966 156.697

 magnetization (x)

[...]

  FORCE on cell =-STRESS in cart. coord.  units (eV):
  Direction    XX          YY          ZZ          XY          YZ          ZX
  Alpha Z   820.98189   820.98189   820.98189
  Ewald   -4239.25317 -4395.86702 -4395.86702    -0.00000   -91.95615     0.00000
  Hartree  1144.04389   987.59618   987.59616    -0.00000   -97.66367    -0.00000
  E(xc)    -882.09569  -882.26358  -882.26359    -0.00000     0.05266    -0.00000
  Local    -894.00762  -574.41188  -574.41145     0.00000   189.15154     0.00000
  n-local   353.02418   353.65346   353.58625    -0.39197    -0.77067     0.41928
  augment   481.58875   478.89978   478.89920     0.00000     0.06020    -0.00000
  Kinetic  3215.46373  3211.34640  3211.65443     0.59479     1.29413    -0.71291
  Fock        0.00000     0.00000     0.00000     0.00000     0.00000     0.00000
  Total      -0.25404     0.05555     0.05555     0.00000     0.17155     0.00000
  in kB      -1.39753     0.30559     0.30559     0.00000     0.94375     0.00000

 VOLUME and BASIS-vectors are now :
  energy-cutoff  :      520.00
  volume of cell :      291.23
      direct lattice vectors                 reciprocal lattice vectors
     3.885538236  0.000000000  0.000000000     0.257364602  0.000000000  0.000000000
     0.000000000  3.867493808 -3.867493808     0.000000000  0.155081996 -0.103483382
     0.000000000  7.756435800 11.623929609     0.000000000  0.051598614  0.051598614

  length of vectors
     3.885538236  5.469462196 13.974191779     0.257364602  0.186438290  0.072971460

 FORCES acting on ions
    electron-ion (+dipol)            ewald-force                    non-local-force                 convergence-correction
   0.707E-14 0.151E+03 0.151E+03   0.270E-13 -.150E+03 -.150E+03   0.000E+00 -.115E+01 -.115E+01   0.114E-13 -.322E-01 -.322E-01
   -.905E-14 -.973E-06 0.132E-04   -.267E-14 -.149E-10 -.855E-11   0.000E+00 0.000E+00 -.542E-19   0.266E-13 -.166E-05 0.161E-05
   -.102E-13 -.151E+03 -.151E+03   -.907E-14 0.150E+03 0.150E+03   0.000E+00 0.115E+01 0.115E+01   0.261E-13 0.322E-01 0.322E-01
   0.110E-14 -.110E+03 -.110E+03   -.378E-13 0.109E+03 0.109E+03   0.000E+00 0.867E+00 0.867E+00   0.175E-13 0.258E-01 0.258E-01
   -.296E-14 0.110E+03 0.110E+03   -.757E-14 -.109E+03 -.109E+03   0.000E+00 -.867E+00 -.867E+00   0.106E-13 -.258E-01 -.258E-01
   0.585E-13 -.477E+02 -.477E+02   0.438E-14 0.473E+02 0.473E+02   0.000E+00 0.454E+00 0.454E+00   0.191E-13 0.880E-02 0.880E-02
   0.602E-13 0.477E+02 0.477E+02   -.680E-15 -.473E+02 -.473E+02   0.000E+00 -.454E+00 -.454E+00   0.667E-14 -.880E-02 -.880E-02
   0.270E-12 -.846E+02 -.846E+02   0.379E-13 0.837E+02 0.837E+02   0.000E+00 0.817E+00 0.817E+00   0.400E-13 0.206E-01 0.206E-01
   0.332E-12 -.165E-04 -.868E-04   -.470E-14 -.483E-10 -.644E-10   0.000E+00 0.136E-19 0.000E+00   0.243E-13 -.884E-06 -.673E-06
   0.328E-12 0.846E+02 0.846E+02   -.435E-13 -.837E+02 -.837E+02   0.000E+00 -.817E+00 -.817E+00   0.302E-13 -.206E-01 -.206E-01
   0.116E-12 -.239E-04 0.154E-04   0.240E-13 -.984E-11 0.213E-10   0.000E+00 -.271E-18 0.163E-18   0.157E-13 0.469E-06 0.434E-06
   0.118E-12 -.371E+02 -.918E+02   0.497E-13 0.358E+02 0.859E+02   0.000E+00 0.132E+01 0.592E+01   0.222E-13 0.159E-02 0.230E-01
   0.126E-12 -.241E+02 -.635E+02   -.151E-14 0.233E+02 0.660E+02   0.000E+00 0.775E+00 -.246E+01   0.141E-13 0.839E-03 0.140E-01
   0.121E-12 0.241E+02 0.635E+02   0.104E-13 -.233E+02 -.660E+02   0.000E+00 -.775E+00 0.246E+01   0.363E-14 -.840E-03 -.140E-01
   0.124E-12 0.371E+02 0.918E+02   -.281E-13 -.358E+02 -.859E+02   0.000E+00 -.132E+01 -.592E+01   0.101E-13 -.159E-02 -.230E-01
   0.111E-12 -.156E-04 0.513E-05   0.123E-13 -.182E-11 -.169E-10   0.000E+00 -.163E-18 -.542E-19   0.153E-13 0.479E-06 0.509E-06
   0.119E-12 -.918E+02 -.371E+02   0.814E-14 0.859E+02 0.358E+02   0.000E+00 0.592E+01 0.132E+01   0.823E-14 0.230E-01 0.159E-02
   0.119E-12 -.635E+02 -.241E+02   0.314E-14 0.660E+02 0.233E+02   0.000E+00 -.246E+01 0.775E+00   0.872E-14 0.140E-01 0.839E-03
   0.117E-12 0.635E+02 0.241E+02   -.158E-13 -.660E+02 -.233E+02   0.000E+00 0.246E+01 -.775E+00   0.160E-13 -.140E-01 -.840E-03
   0.115E-12 0.918E+02 0.371E+02   0.184E-14 -.859E+02 -.358E+02   0.000E+00 -.592E+01 -.132E+01   0.147E-13 -.230E-01 -.159E-02
   0.463E-14 0.350E+02 0.350E+02   -.332E-14 -.351E+02 -.351E+02   0.000E+00 0.174E+00 0.174E+00   0.154E-13 -.479E-02 -.479E-02
   0.107E-13 -.350E+02 -.350E+02   -.245E-13 0.351E+02 0.351E+02   0.000E+00 -.174E+00 -.174E+00   -.235E-14 0.479E-02 0.479E-02
   -.429E-14 -.486E+02 -.486E+02   -.386E-13 0.481E+02 0.481E+02   0.000E+00 0.383E+00 0.383E+00   0.388E-14 0.367E-02 0.367E-02
   -.871E-14 -.201E-04 -.759E-06   0.144E-13 0.293E-11 0.124E-11   0.000E+00 0.108E-18 -.108E-18   0.166E-13 -.518E-06 -.359E-06
   -.635E-14 0.486E+02 0.486E+02   0.423E-13 -.481E+02 -.481E+02   0.000E+00 -.383E+00 -.383E+00   0.143E-13 -.367E-02 -.367E-02
   0.222E-11 -.194E-03 -.113E-03   0.176E-13 0.142E-12 -.142E-13   0.000E+00 -.944E-15 -.167E-15   0.389E-12 -.277E-05 -.112E-05

 POSITION                                       TOTAL-FORCE (eV/Angst)
      0.00000      3.98808      0.12058         0.000000     -0.064412     -0.064412
      0.00000      3.87607      3.87607         0.000000      0.000000     -0.000000
      0.00000      7.63156      3.76407         0.000000      0.064412      0.064412
      0.00000      7.66714      7.66714         0.000000     -0.003938     -0.003938
      0.00000      0.08501      0.08501         0.000000      0.003938      0.003938
      1.94277      9.68368      5.81619         0.000000      0.046300      0.046300
      1.94277      1.93596     -1.93153         0.000000     -0.046300     -0.046300
      1.94277      5.80964      5.80964         0.000000      0.014897      0.014897
      1.94277      5.80982      1.94233         0.000000      0.000000     -0.000000
      1.94277      1.94251      1.94251         0.000000     -0.014897     -0.014897
      1.94277      9.68804      7.75429         0.000000      0.000000     -0.000000
      1.94277      5.84652      7.80362         0.000000      0.010997     -0.012011
      1.94277      5.82344      3.84239         0.000000     -0.022632      0.038000
      1.94277      5.79620      0.04226         0.000000      0.022632     -0.038000
      1.94277      1.90562     -0.05148         0.000000     -0.010997      0.012011
      1.94277      7.75429      9.68804         0.000000      0.000000     -0.000000
      1.94277      7.80362      5.84652         0.000000     -0.012011      0.010997
      1.94277      7.70989      1.95595         0.000000      0.038000     -0.022632
      1.94277      3.90975      1.92871         0.000000     -0.038000      0.022632
      1.94277      3.81602     -1.96187         0.000000      0.012011     -0.010997
      0.00000      9.67056      9.67056         0.000000     -0.009300     -0.009300
      0.00000      9.70551      5.83802         0.000000      0.009300      0.009300
      0.00000      5.83865      5.83865         0.000000     -0.064076     -0.064076
      0.00000      5.80982      1.94233         0.000000      0.000000     -0.000000
      0.00000      1.91350      1.91350         0.000000      0.064076      0.064076
    total drift:                                0.000000     -0.000196     -0.000114

  FREE ENERGIE OF THE ION-ELECTRON SYSTEM (eV)
  free  energy   TOTEN  =      -180.25398025 eV

  energy  without entropy=     -180.25398025  energy(sigma->0) =     -180.25398025

 total charge

[...]

 magnetization (x)

# of ion       s       p       d       f       tot
    1        0.000  -0.000   0.005   0.003   0.008
    2        0.000  -0.001   0.002   0.001   0.003
    3        0.000  -0.000   0.005   0.003   0.008
    4        0.001   0.001   0.011   0.005   0.018
    5        0.001   0.001   0.011   0.005   0.018
    6        0.023   0.020   3.359   0.000   3.402
    7        0.023   0.020   3.359   0.000   3.402
    8        0.015   0.004   1.619   0.000   1.639
    9        0.019   0.023   1.271   0.000   1.313
   10        0.015   0.004   1.619   0.000   1.639
   11        0.002  -0.015   0.000   0.000  -0.014
   12        0.005  -0.039   0.000   0.000  -0.035
   13        0.006  -0.055   0.000   0.000  -0.049
   14        0.006  -0.055   0.000   0.000  -0.049
   15        0.005  -0.040   0.000   0.000  -0.035
   16        0.002  -0.017   0.000   0.000  -0.015
   17        0.005  -0.040   0.000   0.000  -0.035
   18        0.006  -0.056   0.000   0.000  -0.050
   19        0.006  -0.056   0.000   0.000  -0.050
   20        0.005  -0.040   0.000   0.000  -0.035
   21        0.005  -0.063   0.000   0.000  -0.058
   22        0.005  -0.063   0.000   0.000  -0.058
   23        0.005  -0.022   0.000   0.000  -0.017
   24        0.008  -0.033   0.000   0.000  -0.026
   25        0.005  -0.022   0.000   0.000  -0.017
tot          0.173  -0.545  11.261   0.017  10.907

 BZINTS: Fermi energy:  7.645059;189.000000 electrons
         Band energy:-259.623126;  BLOECHL correction: -0.117229