 vasp.5.4.4.18Apr17-6-g9f103f2a35 (build Oct 03 2018 13:58:34) complex

 executed on             LinuxIFC date 2019.06.04  01:04:41

 INCAR:
 POTCAR:    PAW_PBE La 06Sep2000
 POTCAR:    PAW_PBE Mn 06Sep2000
 POTCAR:    PAW_PBE Ni 02Aug2007
 POTCAR:    PAW_PBE O 08Apr2002

 POTCAR:    PAW_PBE La 06Sep2000
   VRHFIN =La : [core=Kr4d]

   TITEL  = PAW_PBE La 06Sep2000
   POMASS =  138.900; ZVAL   =   11.000    mass and valenz
   ENMAX  =  219.292; ENMIN  =  164.469 eV

 POTCAR:    PAW_PBE Mn 06Sep2000
   VRHFIN =Mn: d6 s1

   TITEL  = PAW_PBE Mn 06Sep2000
   POMASS =   54.938; ZVAL   =    7.000    mass and valenz
   ENMAX  =  269.864; ENMIN  =  202.398 eV

 POTCAR:    PAW_PBE Ni 02Aug2007
   VRHFIN =Ni:

   TITEL  = PAW_PBE Ni 02Aug2007
   POMASS =   58.690; ZVAL   =   10.000    mass and valenz
   ENMAX  =  269.532; ENMIN  =  202.149 eV

 POTCAR:    PAW_PBE O 08Apr2002
   VRHFIN =O: s2p4

   TITEL  = PAW_PBE O 08Apr2002
   POMASS =   16.000; ZVAL   =    6.000    mass and valenz
   ENMAX  =  400.000; ENMIN  =  300.000 eV

 Optimization of the real space projectors (new method)

 maximal supplied QI-value         = 13.42
 optimisation between [QCUT,QGAM] = [ 11.67, 23.35] = [ 38.16,152.62] Ry
 Optimized for a Real-space Cutoff    1.63 Angstroem

   l    n(q)    QCUT    max X(q) W(low)/X(q) W(high)/X(q)  e(spline)
   0     11    11.673    13.882    0.27E-04    0.79E-05    0.11E-06
   0     11    11.673    12.184    0.39E-04    0.13E-04    0.19E-06
   1     11    11.673     4.523    0.73E-05    0.76E-05    0.12E-06
   1     11    11.673     4.424    0.87E-05    0.13E-04    0.19E-06
   2     10    11.673    52.481    0.65E-04    0.36E-04    0.18E-06
   2     10    11.673    38.501    0.61E-04    0.33E-04    0.17E-06
   3     10    11.673    65.631    0.17E-03    0.14E-03    0.37E-06
   3     10    11.673    56.854    0.17E-03    0.14E-03    0.37E-06
 Optimization of the real space projectors (new method)

[...]

   l    n(q)    QCUT    max X(q) W(low)/X(q) W(high)/X(q)  e(spline)
   2      9    11.539    60.317    0.19E-03    0.47E-04    0.16E-06
   2      9    11.539    55.921    0.19E-03    0.48E-04    0.16E-06
   0     10    11.539    51.690    0.80E-04    0.50E-04    0.24E-06
   0     10    11.539    30.015    0.73E-04    0.45E-04    0.22E-06
   1     10    11.539    18.849    0.87E-04    0.16E-03    0.71E-07
   1     10    11.539    14.624    0.73E-04    0.13E-03    0.64E-07
 Optimization of the real space projectors (new method)

 maximal supplied QI-value         = 24.76
 optimisation between [QCUT,QGAM] = [ 11.64, 23.27] = [ 37.91,151.63] Ry
 Optimized for a Real-space Cutoff    1.14 Angstroem

   l    n(q)    QCUT    max X(q) W(low)/X(q) W(high)/X(q)  e(spline)
   0      8    11.635    20.381    0.10E-03    0.33E-03    0.24E-06
   0      8    11.635    15.268    0.11E-03    0.35E-03    0.26E-06
   1      7    11.635     5.964    0.24E-03    0.31E-03    0.30E-06
   1      7    11.635     5.382    0.22E-03    0.25E-03    0.26E-06
  PAW_PBE La 06Sep2000                  :
  PAW_PBE Mn 06Sep2000                  :
  PAW_PBE Ni 02Aug2007                  :
  PAW_PBE O 08Apr2002                   :

 POSCAR: SCEL6_1_2_3_1_0_0/4
  positions in direct lattice
  velocities in cartesian coordinates
 exchange correlation table for  LEXCH =        8
   RHO(1)=    0.500       N(1)  =     2000
   RHO(2)=  100.500       N(2)  =     4000

 ion  position               nearest neighbor table
   1  0.000  0.173  0.327-  30 2.66  17 2.70  17 2.70  24 2.71  24 2.71  27 2.77  29 2.77  14 2.80
                            14 2.80  23 2.82  23 2.82  12 3.29  12 3.29  10 3.36  10 3.36  11 3.37
   2  0.000  0.336  0.660-  29 2.64  23 2.67  23 2.67  26 2.70  16 2.71  16 2.71  28 2.75  13 2.78
                            13 2.78  22 2.79  22 2.79  25 2.83  11 3.29  11 3.29   7 3.35   7 3.35
   3  0.000  0.508  0.013-  27 2.62  21 2.63  21 2.63  30 2.64  15 2.75  15 2.75  18 2.76  18 2.76
                            12 3.28  12 3.28  10 3.28  10 3.28   4 3.67
   4  0.000  0.655  0.327-  30 2.66  17 2.70  17 2.70  21 2.71  21 2.71  27 2.77  29 2.77  14 2.80
                            14 2.80  20 2.82  20 2.82  12 3.29  12 3.29  10 3.36  10 3.36  11 3.37
   5  0.000  0.824  0.660-  29 2.64  20 2.67  20 2.67  26 2.70  16 2.71  16 2.71  28 2.75  13 2.78
                            13 2.78  19 2.79  19 2.79  25 2.83  11 3.29  11 3.29   7 3.35   7 3.35
   6  0.000  0.005  0.013-  27 2.62  24 2.63  24 2.63  30 2.64  15 2.75  15 2.75  18 2.76  18 2.76
                            12 3.28  12 3.28  10 3.28  10 3.28   1 3.67
   7  0.500  1.000  0.499-  14 1.87  23 1.89  20 1.89  26 1.94  26 1.94  13 1.96   2 3.35   2 3.35
                             5 3.35   5 3.35
   8  0.500  0.167  0.834-  18 1.88  25 1.94  25 1.94  13 1.94  19 1.94  22 1.94
   9  0.500  0.667  0.834-  15 1.87  16 1.92  28 1.94  28 1.94  22 1.94  19 1.94   5 3.39   5 3.39
                             2 3.39   2 3.39
  10  0.500  0.834  0.168-  27 1.94  27 1.94  21 1.94  24 1.94  14 1.99  15 2.01   3 3.28   3 3.28
                             6 3.28   6 3.28   4 3.36   4 3.36   1 3.36   1 3.36
  11  0.500  0.500  0.500-  17 1.94  29 1.94  29 1.94  16 1.98  20 1.99  23 1.99   5 3.29   5 3.29
                             2 3.29   2 3.29   1 3.37   1 3.37   4 3.37   4 3.37
  12  0.500  0.333  0.166-  30 1.94  30 1.94  24 1.95  21 1.95  17 1.96  18 1.99   6 3.28   6 3.28
                             3 3.28   3 3.28   1 3.29   1 3.29   4 3.29   4 3.29
  13  0.500  0.084  0.667-   8 1.94   7 1.96   5 2.78   5 2.78   2 2.78   2 2.78
  14  0.500  0.919  0.338-   7 1.87  10 1.99   4 2.80   4 2.80   1 2.80   1 2.80
  15  0.500  0.748  0.995-   9 1.87  10 2.01   6 2.75   6 2.75   3 2.75   3 2.75
  16  0.500  0.585  0.670-   9 1.92  11 1.98   2 2.71   2 2.71   5 2.71   5 2.71
  17  0.500  0.417  0.334-  11 1.94  12 1.96   1 2.70   1 2.70   4 2.70   4 2.70
  18  0.500  0.248  0.995-   8 1.88  12 1.99   3 2.76   3 2.76   6 2.76   6 2.76
  19  0.500  0.916  0.832-   9 1.94   8 1.94   5 2.79   5 2.79
  20  0.500  0.758  0.503-   7 1.89  11 1.99   5 2.67   5 2.67   4 2.82   4 2.82
  21  0.500  0.583  0.165-  10 1.94  12 1.95   3 2.63   3 2.63   4 2.71   4 2.71
  22  0.500  0.416  0.832-   9 1.94   8 1.94   2 2.79   2 2.79
  23  0.500  0.245  0.503-   7 1.89  11 1.99   2 2.67   2 2.67   1 2.82   1 2.82
  24  0.500  0.082  0.165-  10 1.94  12 1.95   6 2.63   6 2.63   1 2.71   1 2.71
  25  0.000  0.166  0.832-   8 1.94   8 1.94   2 2.83   5 2.83
  26  0.000  0.002  0.504-   7 1.94   7 1.94   2 2.70   5 2.70
  27  0.000  0.832  0.165-  10 1.94  10 1.94   3 2.62   6 2.62   4 2.77   1 2.77
  28  0.000  0.666  0.831-   9 1.94   9 1.94   5 2.75   2 2.75
  29  0.000  0.501  0.503-  11 1.94  11 1.94   5 2.64   2 2.64   1 2.77   4 2.77
  30  0.000  0.333  0.165-  12 1.94  12 1.94   6 2.64   3 2.64   1 2.66   4 2.66

  LATTYP: Found a base centered orthorhombic cell.
 ALAT       =     7.7741009209
 B/A-ratio  =     3.0011271697
 C/A-ratio  =     0.4985773589

  Lattice vectors:

 A1 = (   0.0000000000,   3.8870504556,  11.6655327469)
 A2 = (   0.0000000000,   3.8870504653, -11.6655327468)
 A3 = (  -3.8759907051,   0.0000000000,   0.0000000000)

Analysis of symmetry for initial positions (statically):
 Subroutine PRICEL returns:
 Original cell was already a primitive cell.

 Routine SETGRP: Setting up the symmetry group for a
 base centered orthorhombic supercell.

 Subroutine GETGRP returns: Found  4 space group operations
 (whereof  2 operations were pure point group operations)
 out of a pool of  8 trial point group operations.

The static configuration has the point symmetry C_1h.
 The point group associated with its full space group is C_2v.

Analysis of symmetry for dynamics (positions and initial velocities):
 Subroutine PRICEL returns:
 Original cell was already a primitive cell.

[...]

The dynamic configuration has the point symmetry C_1h.
 The point group associated with its full space group is C_2v.

Analysis of structural, dynamic, and magnetic symmetry:
 Subroutine PRICEL returns:
 Original cell was already a primitive cell.

 Routine SETGRP: Setting up the symmetry group for a
 base centered orthorhombic supercell.

 Subroutine GETGRP returns: Found  4 space group operations
 (whereof  2 operations were pure point group operations)
 out of a pool of  8 trial point group operations.

The magnetic configuration has the point symmetry C_1h.
 The point group associated with its full space group is C_2v.

 Subroutine INISYM returns: Found  4 space group operations
 (whereof  2 operations are pure point group operations),
 and found     1 'primitive' translations

 KPOINTS: Automatic mesh

Automatic generation of k-mesh.
 generate k-points for:    5    3    2
Space group operators:
 irot       det(A)        alpha          n_x          n_y          n_z        tau_x        tau_y        tau_z
    1     1.000000     0.000000     1.000000     0.000000     0.000000     0.000000     0.000000     0.000000
    2    -1.000000   180.000000     1.000000     0.000000     0.000000     0.000000     0.000000     0.000000
    3     1.000000   180.000000     0.000000    -0.000000     1.000000     0.000000     0.500000    -0.000000
    4    -1.000000   179.999999     0.000000    -1.000000    -0.000000     0.000000     0.500000    -0.000000

 Subroutine IBZKPT returns following result:

 Found     12 irreducible k-points:

 Following reciprocal coordinates:
            Coordinates               Weight
  0.000000  0.000000  0.000000      1.000000
  0.200000  0.000000  0.000000      2.000000
  0.400000  0.000000  0.000000      2.000000
  0.000000  0.333333  0.000000      2.000000
  0.200000  0.333333  0.000000      4.000000
  0.400000  0.333333  0.000000      4.000000
  0.000000 -0.000000  0.500000      1.000000
  0.200000 -0.000000  0.500000      2.000000
  0.400000 -0.000000  0.500000      2.000000
  0.000000  0.333333  0.500000      2.000000
  0.200000  0.333333  0.500000      4.000000
  0.400000  0.333333  0.500000      4.000000

 Following cartesian coordinates:
            Coordinates               Weight
  0.000000  0.000000  0.000000      1.000000
  0.051600  0.000000  0.000000      2.000000
  0.103199  0.000000  0.000000      2.000000
  0.000000  0.042877  0.014287      2.000000
  0.051600  0.042877  0.014287      4.000000
  0.103199  0.042877  0.014287      4.000000
  0.000000 -0.000000  0.042861      1.000000
  0.051600 -0.000000  0.042861      2.000000
  0.103199 -0.000000  0.042861      2.000000
  0.000000  0.042877  0.057148      2.000000
  0.051600  0.042877  0.057148      4.000000
  0.103199  0.042877  0.057148      4.000000

 TETIRR: Found     87 inequivalent tetrahedra from      180

 SYSTEM =  final
 POSCAR =  SCEL6_1_2_3_1_0_0/4

 Startparameter for this run:
   NWRITE =      2    write-flag & timer
   PREC   = accura    normal or accurate (medium, high low for compatibility)
   ISTART =      0    job   : 0-new  1-cont  2-samecut
   ICHARG =      1    charge: 1-file 2-atom 10-const
   ISPIN  =      2    spin polarized calculation?
   LNONCOLLINEAR =      F non collinear calculations
   LSORBIT =      F    spin-orbit coupling
   INIWAV =      1    electr: 0-lowe 1-rand  2-diag
[...]
     30      -7.3753      1.00000
     31      -7.3717      1.00000
     32      -7.3560      1.00000
     33      -7.3088      1.00000
     34      -7.2822      1.00000
     35      -7.2356      1.00000
     36      -7.1942      1.00000
     37      -6.9913      1.00000
     38      -6.9755      1.00000
     39      -6.8051      1.00000
     40      -6.7580      1.00000
     41      -6.7249      1.00000
     42      -6.6364      1.00000
     43       0.1428      1.00000
     44       0.4213      1.00000
     45       0.5819      1.00000
     46       0.7894      1.00000
     47       0.9573      1.00000
     48       1.1512      1.00000
     49       1.3202      1.00000
     50       1.7399      1.00000
     51       1.8519      1.00000
     52       1.8727      1.00000
     53       1.9044      1.00000
     54       2.0219      1.00000
     55       2.1228      1.00000
     56       2.1976      1.00000
     57       2.2818      1.00000
     58       2.2951      1.00000
     59       2.3174      1.00000
     60       2.3570      1.00000
[...]
    132      10.8360      0.00000
    133      10.8816      0.00000
    134      10.9562      0.00000
    135      10.9820      0.00000
    136      11.0066      0.00000
    137      11.0270      0.00000
    138      11.0376      0.00000
    139      11.0606      0.00000
    140      11.0670      0.00000
    141      11.0938      0.00000
    142      11.1118      0.00000
    143      11.1370      0.00000
    144      11.1469      0.00000
    145      11.1804      0.00000
    146      11.2178      0.00000

[...]

 spin component 2

[...]

 k-point    12 :       0.4000    0.3333    0.5000
  band No.  band energies     occupation
      1     -23.9081      1.00000
      2     -23.8776      1.00000
      3     -23.8457      1.00000
      4     -23.8188      1.00000
      5     -23.8165      1.00000
      6     -23.7901      1.00000
      7     -11.0577      1.00000
      8     -10.8835      1.00000
      9     -10.7771      1.00000
     10     -10.5225      1.00000
     11     -10.4702      1.00000
     12     -10.2794      1.00000
     13     -10.2377      1.00000
     14     -10.1341      1.00000
     15     -10.1123      1.00000
     16     -10.0049      1.00000
     17      -9.9034      1.00000
     18      -9.8257      1.00000
     19      -9.8085      1.00000
     20      -9.7231      1.00000
     21      -9.7170      1.00000
     22      -9.6069      1.00000
     23      -9.5666      1.00000
     24      -9.3886      1.00000
     25      -7.8196      1.00000
     26      -7.7645      1.00000
     27      -7.6124      1.00000
     28      -7.5550      1.00000
     29      -7.4825      1.00000
     30      -7.4537      1.00000
     31      -7.3862      1.00000
     32      -7.3771      1.00000
     33      -7.2859      1.00000
     34      -7.2055      1.00000
     35      -7.1629      1.00000
     36      -7.1248      1.00000
     37      -7.0632      1.00000
     38      -7.0448      1.00000
     39      -6.9844      1.00000
     40      -6.8938      1.00000
     41      -6.8441      1.00000
     42      -6.7217      1.00000
     43       1.3064      1.00000
     44       1.5494      1.00000
     45       1.6659      1.00000
     46       1.8900      1.00000
     47       1.9710      1.00000
     48       2.1337      1.00000
     49       2.1539      1.00000
     50       2.1844      1.00000
     51       2.4903      1.00000
     52       2.5186      1.00000
     53       2.6005      1.00000
     54       2.6862      1.00000
     55       2.7220      1.00000
     56       2.8396      1.00000
     57       2.9056      1.00000
     58       3.0290      1.00000
     59       3.0733      1.00000
     60       3.1153      1.00000
[...]
    132      11.0641      0.00000
    133      11.0762      0.00000
    134      11.0859      0.00000
    135      11.0917      0.00000
    136      11.1047      0.00000
    137      11.1170      0.00000
    138      11.1265      0.00000
    139      11.1340      0.00000
    140      11.1473      0.00000
    141      11.1620      0.00000
    142      11.1795      0.00000
    143      11.2160      0.00000
    144      11.2555      0.00000
    145      11.2669      0.00000
    146      11.3038      0.00000

 soft charge-density along one line, spin component           1
         0         1         2         3         4         5         6         7         8         9
 total charge-density along one line

 soft charge-density along one line, spin component           2
         0         1         2         3         4         5         6         7         8         9
 total charge-density along one line

------------------------ aborting loop because EDIFF is reached ----------------------------------------

 total charge

# of ion       s       p       d       f       tot
    1        2.000   5.697   0.484   0.187   8.367
    2        2.001   5.700   0.500   0.195   8.396
    3        2.001   5.698   0.500   0.193   8.392
    4        2.000   5.697   0.484   0.187   8.367
    5        2.001   5.700   0.500   0.195   8.396
    6        2.002   5.698   0.500   0.193   8.393
    7        0.348   0.546   4.868   0.000   5.762
    8        0.333   0.509   4.857   0.000   5.698
    9        0.339   0.524   4.865   0.000   5.728
   10        0.409   0.598   8.323   0.000   9.330
   11        0.403   0.588   8.327   0.000   9.318
   12        0.414   0.613   8.335   0.000   9.362
   13        1.561   3.464   0.000   0.000   5.025
   14        1.563   3.444   0.000   0.000   5.007
   15        1.563   3.457   0.000   0.000   5.020
   16        1.561   3.461   0.000   0.000   5.022
   17        1.558   3.446   0.000   0.000   5.004
   18        1.563   3.451   0.000   0.000   5.014
   19        1.565   3.447   0.000   0.000   5.012
   20        1.562   3.459   0.000   0.000   5.021
   21        1.559   3.456   0.000   0.000   5.015
   22        1.565   3.447   0.000   0.000   5.012
   23        1.562   3.459   0.000   0.000   5.021
   24        1.559   3.456   0.000   0.000   5.014
   25        1.565   3.445   0.000   0.000   5.010
   26        1.566   3.456   0.000   0.000   5.021
   27        1.558   3.454   0.000   0.000   5.012
   28        1.565   3.453   0.000   0.000   5.018
   29        1.557   3.453   0.000   0.000   5.011
   30        1.559   3.464   0.000   0.000   5.022
tot         42.360  99.738  42.544   1.149 185.790

 magnetization (x)

[...]

  FORCE on cell =-STRESS in cart. coord.  units (eV):
  Direction    XX          YY          ZZ          XY          YZ          ZX
  Alpha Z   982.42233   982.42233   982.42233
  Ewald   -5017.90314 -5092.42944 -5313.61550     0.00000    -0.00000     0.00000
  Hartree  1293.28973  1232.63969  1030.11467     0.00000    -0.00002    -0.00000
  E(xc)   -1046.20573 -1046.34414 -1046.47690    -0.00000    -0.00001     0.00000
  Local    -964.63118  -830.73985  -404.42476     0.00000    -0.00025    -0.00000
  n-local   416.66161   416.08717   416.52533     0.55318    -0.01080    -0.01222
  augment   489.06310   489.15131   488.57046     0.00000     0.00009     0.00000
  Kinetic  3847.64890  3848.79821  3847.05256    -1.19047    -0.01837     0.04252
  Fock        0.00000     0.00000     0.00000     0.00000     0.00000     0.00000
  Total       0.34563    -0.41470     0.16820     0.00000    -0.00000     0.00000
  in kB       1.57540    -1.89019     0.76667     0.00000    -0.00000     0.00000

 VOLUME and BASIS-vectors are now :
  energy-cutoff  :      520.00
  volume of cell :      351.51
      direct lattice vectors                 reciprocal lattice vectors
     3.875990705  0.000000000  0.000000000     0.257998555  0.000000000  0.000000000
     0.000000000  7.774100921  0.000000000     0.000000000  0.128632238  0.042861309
     0.000000000 -3.887050465 11.665532747     0.000000000 -0.000000000  0.085722617

  length of vectors
     3.875990705  7.774100921 12.296089443     0.257998555  0.135585193  0.085722617

 FORCES acting on ions
    electron-ion (+dipol)            ewald-force                    non-local-force                 convergence-correction
   -.786E-14 0.703E+02 -.915E+02   0.385E-13 -.696E+02 0.910E+02   0.000E+00 -.696E+00 0.667E+00   -.974E-14 -.555E-02 0.438E-02
   -.893E-14 0.628E+02 -.104E+03   0.261E-14 -.624E+02 0.103E+03   0.000E+00 -.456E+00 0.808E+00   -.745E-14 0.160E-02 0.620E-01
   0.752E-14 0.229E+01 0.196E+03   0.889E-13 -.219E+01 -.195E+03   0.000E+00 -.112E+00 -.152E+01   -.519E-14 -.658E-03 -.687E-01
   -.303E-14 -.703E+02 -.915E+02   -.101E-12 0.696E+02 0.910E+02   0.000E+00 0.696E+00 0.667E+00   -.601E-14 0.555E-02 0.438E-02
   -.932E-14 -.628E+02 -.104E+03   -.247E-13 0.624E+02 0.103E+03   0.000E+00 0.456E+00 0.808E+00   -.965E-14 -.160E-02 0.620E-01
   0.500E-14 -.229E+01 0.196E+03   -.489E-13 0.218E+01 -.195E+03   0.000E+00 0.112E+00 -.152E+01   -.297E-14 0.656E-03 -.687E-01
   0.589E-13 -.443E-04 -.470E+02   -.217E-14 -.559E-05 0.462E+02   0.000E+00 -.343E-09 0.822E+00   0.177E-13 -.707E-07 0.264E-01
   0.499E-13 -.131E-04 0.362E+02   0.313E-13 0.250E-04 -.359E+02   0.000E+00 0.173E-09 -.416E+00   0.252E-13 0.235E-06 -.395E-02
   0.600E-13 -.182E-04 0.131E+02   0.295E-13 0.379E-04 -.129E+02   0.000E+00 0.172E-09 -.412E+00   0.271E-13 0.109E-06 0.119E-02
   0.264E-12 -.943E-04 0.775E+01   -.184E-13 -.240E-05 -.733E+01   0.000E+00 0.147E-09 -.352E+00   0.894E-13 -.770E-06 -.279E-01
   0.291E-12 -.440E-04 -.634E+02   -.680E-13 -.684E-05 0.618E+02   0.000E+00 -.603E-09 0.145E+01   0.504E-13 0.345E-06 0.542E-01
   0.322E-12 -.142E-03 0.557E+02   0.671E-14 -.267E-04 -.544E+02   0.000E+00 0.509E-09 -.122E+01   0.770E-13 -.805E-06 -.590E-01
   0.119E-12 0.940E-03 -.340E+02   0.269E-13 -.371E-04 0.337E+02   0.000E+00 -.623E-10 0.149E+00   0.347E-13 0.899E-06 0.443E-01
   0.123E-12 -.512E-04 -.671E+02   0.378E-13 0.563E-04 0.609E+02   0.000E+00 -.260E-08 0.622E+01   0.274E-13 -.900E-06 -.436E-01
   0.101E-12 0.474E-03 0.961E+02   0.233E-13 0.413E-05 -.899E+02   0.000E+00 0.249E-08 -.597E+01   0.381E-13 0.704E-06 -.182E-01
   0.124E-12 0.955E-03 -.829E+02   -.161E-13 -.569E-04 0.790E+02   0.000E+00 -.167E-08 0.400E+01   0.315E-13 -.148E-07 0.117E-01
   0.120E-12 -.621E-04 -.280E+02   0.342E-13 0.747E-04 0.277E+02   0.000E+00 -.579E-10 0.139E+00   0.301E-13 -.168E-07 0.552E-02
   0.100E-12 0.470E-03 0.112E+03   -.200E-14 0.393E-05 -.107E+03   0.000E+00 0.215E-08 -.516E+01   0.398E-13 0.100E-05 -.797E-03
   0.114E-12 -.118E+02 0.138E+02   0.386E-13 0.120E+02 -.137E+02   0.000E+00 -.189E+00 -.166E+00   0.385E-13 -.132E-01 -.283E-02
   0.109E-12 -.562E+02 -.307E+02   -.134E-13 0.508E+02 0.297E+02   0.000E+00 0.551E+01 0.956E+00   0.417E-13 -.474E-01 0.275E-01
   0.110E-12 -.100E+02 0.167E+02   -.219E-13 0.988E+01 -.160E+02   0.000E+00 0.110E+00 -.635E+00   0.440E-13 -.687E-03 -.237E-01
   0.115E-12 0.118E+02 0.138E+02   -.542E-13 -.120E+02 -.137E+02   0.000E+00 0.189E+00 -.166E+00   0.288E-13 0.132E-01 -.283E-02
   0.106E-12 0.562E+02 -.307E+02   0.105E-13 -.508E+02 0.297E+02   0.000E+00 -.551E+01 0.956E+00   0.276E-13 0.474E-01 0.275E-01
   0.112E-12 0.100E+02 0.167E+02   -.484E-13 -.988E+01 -.160E+02   0.000E+00 -.110E+00 -.635E+00   0.356E-13 0.688E-03 -.237E-01
   -.240E-14 -.925E-05 0.240E+02   -.397E-13 -.461E-04 -.241E+02   0.000E+00 -.308E-10 0.738E-01   0.292E-14 0.297E-06 -.559E-02
   -.113E-14 0.440E-03 -.293E+02   0.161E-13 -.926E-05 0.286E+02   0.000E+00 -.291E-09 0.698E+00   0.384E-14 0.440E-06 0.287E-01
   -.227E-14 0.924E-03 0.289E+01   0.791E-14 0.740E-04 -.183E+01   0.000E+00 0.433E-09 -.104E+01   -.141E-13 0.345E-06 -.203E-01
   -.214E-14 -.924E-05 0.333E+01   0.247E-15 -.378E-04 -.300E+01   0.000E+00 0.146E-09 -.350E+00   -.778E-15 -.284E-06 -.152E-02
   -.533E-14 0.446E-03 -.323E+02   0.653E-13 -.969E-05 0.312E+02   0.000E+00 -.441E-09 0.106E+01   -.157E-15 0.150E-06 0.276E-01
   -.519E-14 0.924E-03 0.315E+02   -.215E-14 0.641E-04 -.312E+02   0.000E+00 0.857E-10 -.205E+00   -.552E-14 0.799E-06 -.272E-01
   0.236E-11 0.105E-01 0.329E+00   -.285E-14 -.266E-13 0.711E-14   0.000E+00 0.123E-09 -.295E+00   0.650E-12 -.318E-05 -.111E-01

 POSITION                                       TOTAL-FORCE (eV/Angst)
      0.00000      0.06881      3.82034         0.000000      0.021521      0.152429
      0.00000      0.04838      7.69902         0.000000      0.018046      0.090494
      0.00000      3.89632      0.14932         0.000000     -0.010911     -0.211517
      0.00000      3.81824      3.82034         0.000000     -0.021521      0.152429
      0.00000      3.83867      7.69902         0.000000     -0.018046      0.090494
      0.00000     -0.00927      0.14932         0.000000      0.010911     -0.211517
      1.93800      5.83058      5.82210         0.000000     -0.000000      0.053039
      1.93800     -1.94352      9.72639         0.000000      0.000000     -0.044227
      1.93800      1.94353      9.73376         0.000000      0.000000     -0.214753
      1.93800      5.83058      1.95608         0.000000     -0.000000      0.036480
      1.93800      1.94353      5.83452         0.000000      0.000000     -0.015489
      1.93800      1.94352      1.93272         0.000000     -0.000000      0.024340
      1.93800     -1.94353      7.78455         0.000000      0.000000     -0.068091
      1.93800      5.83058      3.94755         0.000000      0.000000     -0.031183
      1.93800      1.94353     11.60782         0.000000     -0.000000      0.180869
      1.93800      1.94352      7.81204         0.000000     -0.000000      0.140256
      1.93800      1.94353      3.89656         0.000000      0.000000     -0.137708
      1.93800     -1.94353     11.61019         0.000000     -0.000000      0.058433
      1.93800      3.88607      9.70101         0.000000      0.004034     -0.018192
      1.93800      3.93687      5.86977         0.000000      0.023100     -0.021174
      1.93800      3.89210      1.92410         0.000000     -0.028240      0.018579
      1.93800      0.00099      9.70101         0.000000     -0.004034     -0.018192
      1.93800     -0.04982      5.86977         0.000000     -0.023100     -0.021174
      1.93800     -0.00505      1.92410         0.000000      0.028240      0.018579
      0.00000     -1.94352      9.70262         0.000000      0.000000     -0.023126
      0.00000     -1.94353      5.87419         0.000000     -0.000000      0.039030
      0.00000      5.83058      1.92224         0.000000      0.000000     -0.001007
      0.00000      1.94353      9.69834         0.000000      0.000000     -0.020728
      0.00000      1.94353      5.86565         0.000000      0.000000     -0.027649
      0.00000      1.94352      1.92854         0.000000     -0.000000      0.030278
    total drift:                                0.000000      0.010453      0.022463

  FREE ENERGIE OF THE ION-ELECTRON SYSTEM (eV)
  free  energy   TOTEN  =      -220.34542306 eV

  energy  without entropy=     -220.34542306  energy(sigma->0) =     -220.34542306

 total charge

[...]

 magnetization (x)

# of ion       s       p       d       f       tot
    1        0.000   0.000   0.004   0.002   0.006
    2        0.001   0.001   0.010   0.005   0.017
    3        0.000   0.001   0.007   0.004   0.012
    4        0.000   0.000   0.004   0.002   0.006
    5        0.001   0.001   0.010   0.005   0.017
    6        0.000   0.001   0.007   0.004   0.012
    7        0.024   0.027   3.341   0.000   3.392
    8        0.022   0.017   3.467   0.000   3.507
    9        0.023   0.022   3.438   0.000   3.483
   10        0.016   0.009   1.584   0.000   1.609
   11        0.013   0.006   1.615   0.000   1.635
   12        0.017   0.013   1.569   0.000   1.599
   13        0.002  -0.023   0.000   0.000  -0.021
   14        0.005  -0.033   0.000   0.000  -0.028
   15        0.005  -0.016   0.000   0.000  -0.011
   16        0.004  -0.023   0.000   0.000  -0.019
   17        0.007  -0.020   0.000   0.000  -0.013
   18        0.005  -0.042   0.000   0.000  -0.037
   19        0.004  -0.057   0.000   0.000  -0.053
   20        0.005  -0.007   0.000   0.000  -0.002
   21        0.006  -0.026   0.000   0.000  -0.020
   22        0.004  -0.057   0.000   0.000  -0.053
   23        0.005  -0.008   0.000   0.000  -0.002
   24        0.006  -0.026   0.000   0.000  -0.020
   25        0.004  -0.059   0.000   0.000  -0.055
   26        0.004  -0.060   0.000   0.000  -0.056
   27        0.006  -0.024   0.000   0.000  -0.018
   28        0.004  -0.057   0.000   0.000  -0.054
   29        0.006  -0.019   0.000   0.000  -0.013
   30        0.007  -0.015   0.000   0.000  -0.008
tot          0.208  -0.475  15.057   0.022  14.812

 BZINTS: Fermi energy:  7.655589;225.000000 electrons
         Band energy:-332.319731;  BLOECHL correction: -0.163972