 vasp.5.4.4.18Apr17-6-g9f103f2a35 (build Oct 03 2018 13:58:34) complex

 executed on             LinuxIFC date 2019.06.04  01:12:27

 INCAR:
 POTCAR:    PAW_PBE La 06Sep2000
 POTCAR:    PAW_PBE Mn 06Sep2000
 POTCAR:    PAW_PBE Ni 02Aug2007
 POTCAR:    PAW_PBE O 08Apr2002

 POTCAR:    PAW_PBE La 06Sep2000
   VRHFIN =La : [core=Kr4d]

   TITEL  = PAW_PBE La 06Sep2000
   POMASS =  138.900; ZVAL   =   11.000    mass and valenz
   ENMAX  =  219.292; ENMIN  =  164.469 eV

 POTCAR:    PAW_PBE Mn 06Sep2000
   VRHFIN =Mn: d6 s1

   TITEL  = PAW_PBE Mn 06Sep2000
   POMASS =   54.938; ZVAL   =    7.000    mass and valenz
   ENMAX  =  269.864; ENMIN  =  202.398 eV

 POTCAR:    PAW_PBE Ni 02Aug2007
   VRHFIN =Ni:

   TITEL  = PAW_PBE Ni 02Aug2007
   POMASS =   58.690; ZVAL   =   10.000    mass and valenz
   ENMAX  =  269.532; ENMIN  =  202.149 eV

 POTCAR:    PAW_PBE O 08Apr2002
   VRHFIN =O: s2p4

   TITEL  = PAW_PBE O 08Apr2002
   POMASS =   16.000; ZVAL   =    6.000    mass and valenz
   ENMAX  =  400.000; ENMIN  =  300.000 eV

 Optimization of the real space projectors (new method)

 maximal supplied QI-value         = 13.42
 optimisation between [QCUT,QGAM] = [ 11.67, 23.35] = [ 38.16,152.62] Ry
 Optimized for a Real-space Cutoff    1.63 Angstroem

   l    n(q)    QCUT    max X(q) W(low)/X(q) W(high)/X(q)  e(spline)
   0     11    11.673    13.882    0.27E-04    0.79E-05    0.11E-06
   0     11    11.673    12.184    0.39E-04    0.13E-04    0.19E-06
   1     11    11.673     4.523    0.73E-05    0.76E-05    0.12E-06
   1     11    11.673     4.424    0.87E-05    0.13E-04    0.19E-06
   2     10    11.673    52.481    0.65E-04    0.36E-04    0.18E-06
   2     10    11.673    38.501    0.61E-04    0.33E-04    0.17E-06
   3     10    11.673    65.631    0.17E-03    0.14E-03    0.37E-06
   3     10    11.673    56.854    0.17E-03    0.14E-03    0.37E-06
 Optimization of the real space projectors (new method)

[...]

   l    n(q)    QCUT    max X(q) W(low)/X(q) W(high)/X(q)  e(spline)
   2      9    11.539    60.317    0.19E-03    0.47E-04    0.16E-06
   2      9    11.539    55.921    0.19E-03    0.48E-04    0.16E-06
   0     10    11.539    51.690    0.80E-04    0.50E-04    0.24E-06
   0     10    11.539    30.015    0.73E-04    0.45E-04    0.22E-06
   1     10    11.539    18.849    0.87E-04    0.16E-03    0.71E-07
   1     10    11.539    14.624    0.73E-04    0.13E-03    0.64E-07
 Optimization of the real space projectors (new method)

 maximal supplied QI-value         = 24.76
 optimisation between [QCUT,QGAM] = [ 11.64, 23.27] = [ 37.91,151.63] Ry
 Optimized for a Real-space Cutoff    1.14 Angstroem

   l    n(q)    QCUT    max X(q) W(low)/X(q) W(high)/X(q)  e(spline)
   0      8    11.635    20.381    0.10E-03    0.33E-03    0.24E-06
   0      8    11.635    15.268    0.11E-03    0.35E-03    0.26E-06
   1      7    11.635     5.964    0.24E-03    0.31E-03    0.30E-06
   1      7    11.635     5.382    0.22E-03    0.25E-03    0.26E-06
  PAW_PBE La 06Sep2000                  :
  PAW_PBE Mn 06Sep2000                  :
  PAW_PBE Ni 02Aug2007                  :
  PAW_PBE O 08Apr2002                   :

 POSCAR: SCEL6_2_1_3_0_1_1/7
  positions in direct lattice
  velocities in cartesian coordinates
 exchange correlation table for  LEXCH =        8
   RHO(1)=    0.500       N(1)  =     2000
   RHO(2)=  100.500       N(2)  =     4000

 ion  position               nearest neighbor table
   1  0.167  0.167  0.333-  17 2.72  14 2.72  17 2.72  14 2.72  24 2.73  27 2.73  30 2.73  21 2.73
                            23 2.73  29 2.73  26 2.73  20 2.73  12 3.33   8 3.33  12 3.33   8 3.33
   2  0.332  0.332  0.664-  20 2.70  26 2.70  29 2.70  23 2.70  16 2.72  16 2.72  13 2.73  13 2.73
                            19 2.75  28 2.75  25 2.75  22 2.75  11 3.32  11 3.32   8 3.33   8 3.33
   3  0.501  0.501  0.002-  21 2.70  27 2.70  30 2.70  24 2.70  15 2.72  15 2.72  18 2.73  18 2.73
                            19 2.75  28 2.75  25 2.75  22 2.75   9 3.32   9 3.32  12 3.33  12 3.33
   4  0.667  0.667  0.333-  17 2.72  14 2.72  17 2.72  14 2.72  21 2.73  27 2.73  30 2.73  24 2.73
                            20 2.73  29 2.73  26 2.73  23 2.73  12 3.33   8 3.33  12 3.33   8 3.33
   5  0.832  0.832  0.664-  23 2.70  26 2.70  29 2.70  20 2.70  16 2.72  16 2.72  13 2.73  13 2.73
                            22 2.75  28 2.75  25 2.75  19 2.75  11 3.32  11 3.32   8 3.33   8 3.33
   6  0.001  0.001  0.002-  24 2.70  27 2.70  30 2.70  21 2.70  15 2.72  15 2.72  18 2.73  18 2.73
                            22 2.75  28 2.75  25 2.75  19 2.75   9 3.32   9 3.32  12 3.33  12 3.33
   7  0.917  0.417  0.833-  19 1.89  22 1.89  25 1.89  28 1.89  13 1.91  18 1.91   2 3.35   5 3.35
                             5 3.35   2 3.35   3 3.35   6 3.35   3 3.35   6 3.35
   8  0.750  0.250  0.499-  26 1.93  23 1.93  20 1.93  29 1.93  14 1.94  13 1.96   2 3.33   5 3.33
                             2 3.33   5 3.33   4 3.33   1 3.33   4 3.33   1 3.33
   9  0.583  0.083  0.167-  15 1.91  14 1.91  21 1.92  24 1.92  27 1.92  30 1.92   3 3.32   6 3.32
                             3 3.32   6 3.32   4 3.34   1 3.34   1 3.34   4 3.34
  10  0.417  0.917  0.833-  16 1.94  15 1.94  19 1.96  22 1.96  25 1.96  28 1.96   2 3.35   5 3.35
                             2 3.35   5 3.35   6 3.35   3 3.35   3 3.35   6 3.35
  11  0.250  0.750  0.500-  16 1.91  17 1.91  29 1.92  23 1.92  20 1.92  26 1.92   5 3.32   2 3.32
                             2 3.32   5 3.32   1 3.34   4 3.34   4 3.34   1 3.34
  12  0.084  0.584  0.167-  27 1.93  24 1.93  21 1.93  30 1.93  17 1.94  18 1.96   6 3.33   3 3.33
                             3 3.33   6 3.33   4 3.33   1 3.33   4 3.33   1 3.33
  13  0.834  0.334  0.668-   7 1.91   8 1.96   5 2.73   2 2.73   2 2.73   5 2.73
  14  0.666  0.166  0.332-   9 1.91   8 1.94   1 2.72   4 2.72   1 2.72   4 2.72
  15  0.501  0.001  0.001-   9 1.91  10 1.94   6 2.72   3 2.72   3 2.72   6 2.72
  16  0.333  0.833  0.665-  11 1.91  10 1.94   2 2.72   5 2.72   2 2.72   5 2.72
  17  0.167  0.667  0.335-  11 1.91  12 1.94   1 2.72   4 2.72   1 2.72   4 2.72
  18  0.999  0.499  0.998-   7 1.91  12 1.96   3 2.73   6 2.73   3 2.73   6 2.73
  19  0.162  0.171  0.833-   7 1.89  10 1.96   2 2.75   5 2.75   3 2.75   6 2.75
  20  0.000  1.000  0.500-  11 1.92   8 1.93   2 2.70   5 2.70   4 2.73   1 2.73
  21  0.833  0.833  0.166-   9 1.92  12 1.93   3 2.70   6 2.70   4 2.73   1 2.73
  22  0.671  0.662  0.833-   7 1.89  10 1.96   5 2.75   2 2.75   6 2.75   3 2.75
  23  0.500  0.500  0.500-  11 1.92   8 1.93   5 2.70   2 2.70   1 2.73   4 2.73
  24  0.333  0.333  0.166-   9 1.92  12 1.93   6 2.70   3 2.70   1 2.73   4 2.73
  25  0.671  0.171  0.833-   7 1.89  10 1.96   2 2.75   5 2.75   3 2.75   6 2.75
  26  0.500  1.000  0.500-  11 1.92   8 1.93   2 2.70   5 2.70   4 2.73   1 2.73
  27  0.333  0.833  0.166-   9 1.92  12 1.93   3 2.70   6 2.70   4 2.73   1 2.73
  28  0.162  0.662  0.833-   7 1.89  10 1.96   2 2.75   5 2.75   3 2.75   6 2.75
  29  0.000  0.500  0.500-  11 1.92   8 1.93   2 2.70   5 2.70   4 2.73   1 2.73
  30  0.833  0.333  0.166-   9 1.92  12 1.93   3 2.70   6 2.70   4 2.73   1 2.73

  LATTYP: Found a body centered tetragonal cell.
 ALAT       =     5.4496465192
 C/A-ratio  =     4.2449010450

  Lattice vectors:

 A1 = (   0.0000000000,  -3.8534820088,  11.5666051021)
 A2 = (   0.0000000000,   3.8534820088,  11.5666051021)
 A3 = (  -3.8534820088,   0.0000000000, -11.5666051021)

Analysis of symmetry for initial positions (statically):
 Subroutine PRICEL returns:
 Original cell was already a primitive cell.

 Routine SETGRP: Setting up the symmetry group for a
 body centered tetragonal supercell.

 Subroutine GETGRP returns: Found 16 space group operations
 (whereof  4 operations were pure point group operations)
 out of a pool of 16 trial point group operations.

The static configuration has the point symmetry C_2v.
 The point group associated with its full space group is D_4h.

Analysis of symmetry for dynamics (positions and initial velocities):
 Subroutine PRICEL returns:
 Original cell was already a primitive cell.

[...]

The dynamic configuration has the point symmetry C_2v.
 The point group associated with its full space group is D_4h.

Analysis of structural, dynamic, and magnetic symmetry:
 Subroutine PRICEL returns:
 Original cell was already a primitive cell.

 Routine SETGRP: Setting up the symmetry group for a
 body centered tetragonal supercell.

 Subroutine GETGRP returns: Found 16 space group operations
 (whereof  4 operations were pure point group operations)
 out of a pool of 16 trial point group operations.

The magnetic configuration has the point symmetry C_2v.
 The point group associated with its full space group is D_4h.

 Subroutine INISYM returns: Found 16 space group operations
 (whereof  4 operations are pure point group operations),
 and found     1 'primitive' translations

 KPOINTS: Automatic mesh

Automatic generation of k-mesh.
 generate k-points for:    4    4    2
Space group operators:
 irot       det(A)        alpha          n_x          n_y          n_z        tau_x        tau_y        tau_z
    1     1.000000     0.000001     1.000000     0.000000     0.000000     0.000000     0.000000     0.000000
    2     1.000000   180.000000     0.000000     0.000000     1.000000     0.000000     0.000000     0.000000
    3    -1.000000   180.000000     0.707107     0.707107     0.000000     0.000000     0.000000     0.000000
    4    -1.000000   180.000000     0.707107    -0.707107     0.000000     0.000000     0.000000     0.000000
    5    -1.000000     0.000001     1.000000     0.000000     0.000000     0.833333     0.833333     1.666666
    6     1.000000    90.000000     0.000000     0.000000    -1.000000     0.500000     0.500000     1.000000
    7    -1.000000    90.000000     0.000000     0.000000    -1.000000     0.333333     0.333333     0.666666
    8    -1.000000   180.000000     0.000000     0.000000     1.000000     0.833333     0.833333     1.666666
    9     1.000000    90.000000     0.000000     0.000000     1.000000     0.500000     0.500000     1.000000
   10    -1.000000    90.000000     0.000000     0.000000     1.000000     0.333333     0.333333     0.666666
   11     1.000000   180.000000     0.707107     0.707107     0.000000     0.833333     0.833333     1.666666
   12     1.000000   180.000000     1.000000     0.000000     0.000000     0.333333     0.333333     0.666666
   13    -1.000000   180.000000     1.000000     0.000000     0.000000     0.500000     0.500000     1.000000
   14     1.000000   180.000000     0.707107    -0.707107     0.000000     0.833333     0.833333     1.666666
   15     1.000000   180.000000     0.000000     1.000000     0.000000     0.333333     0.333333     0.666666
   16    -1.000000   180.000000     0.000000     1.000000     0.000000     0.500000     0.500000     1.000000

 Subroutine IBZKPT returns following result:

 Found     10 irreducible k-points:

 Following reciprocal coordinates:
            Coordinates               Weight
  0.000000  0.000000  0.000000      1.000000
  0.250000  0.000000  0.000000      4.000000
[...]
     30      -6.9938      1.00000
     31      -6.9921      1.00000
     32      -6.9293      1.00000
     33      -6.9220      1.00000
     34      -6.9220      1.00000
     35      -6.8829      1.00000
     36      -6.8829      1.00000
     37      -6.7562      1.00000
     38      -6.7562      1.00000
     39      -6.6990      1.00000
     40      -6.6990      1.00000
     41      -6.3041      1.00000
     42      -6.2765      1.00000
     43       0.3361      1.00000
     44       0.3403      1.00000
     45       0.3481      1.00000
     46       0.4388      1.00000
     47       0.5936      1.00000
     48       0.6693      1.00000
     49       0.8668      1.00000
     50       0.9181      1.00000
     51       1.3124      1.00000
     52       1.3384      1.00000
     53       1.3637      1.00000
     54       1.8402      1.00000
     55       1.8402      1.00000
     56       1.8697      1.00000
     57       1.8697      1.00000
     58       1.8749      1.00000
     59       1.9941      1.00000
     60       1.9941      1.00000
[...]
    134      11.3573      0.00000
    135      11.4166      0.00000
    136      11.4324      0.00000
    137      11.4650      0.00000
    138      11.5061      0.00000
    139      11.5331      0.00000
    140      11.5451      0.00000
    141      11.5774      0.00000
    142      11.5870      0.00000
    143      11.6097      0.00000
    144      11.6231      0.00000
    145      11.6460      0.00000
    146      11.6803      0.00000
    147      11.7079      0.00000
    148      11.7690      0.00000

[...]

 spin component 2

[...]

 k-point    10 :      -0.2500    0.2500    0.5000
  band No.  band energies     occupation
      1     -23.4339      1.00000
      2     -23.4250      1.00000
      3     -23.3795      1.00000
      4     -23.3727      1.00000
      5     -23.3462      1.00000
      6     -23.3213      1.00000
      7     -10.8017      1.00000
      8     -10.7857      1.00000
      9     -10.7618      1.00000
     10     -10.6694      1.00000
     11     -10.2624      1.00000
     12     -10.1866      1.00000
     13      -9.8596      1.00000
     14      -9.8445      1.00000
     15      -9.7958      1.00000
     16      -9.7288      1.00000
     17      -9.5456      1.00000
     18      -9.5412      1.00000
     19      -9.3685      1.00000
     20      -9.3574      1.00000
     21      -9.2488      1.00000
     22      -9.2301      1.00000
     23      -9.1385      1.00000
     24      -9.1290      1.00000
     25      -7.2725      1.00000
     26      -7.2344      1.00000
     27      -6.9042      1.00000
     28      -6.8924      1.00000
     29      -6.8441      1.00000
     30      -6.8272      1.00000
     31      -6.8019      1.00000
     32      -6.7962      1.00000
     33      -6.7755      1.00000
     34      -6.7652      1.00000
     35      -6.7588      1.00000
     36      -6.7290      1.00000
     37      -6.6764      1.00000
     38      -6.6679      1.00000
     39      -6.5009      1.00000
     40      -6.4689      1.00000
     41      -6.3400      1.00000
     42      -6.3313      1.00000
     43       1.5506      1.00000
     44       1.6808      1.00000
     45       2.0179      1.00000
     46       2.1301      1.00000
     47       2.1647      1.00000
     48       2.1657      1.00000
     49       2.1666      1.00000
     50       2.4170      1.00000
     51       2.4847      1.00000
     52       2.4861      1.00000
     53       2.6448      1.00000
     54       2.6605      1.00000
     55       2.6895      1.00000
     56       2.7342      1.00000
     57       2.8164      1.00000
     58       2.9478      1.00000
     59       2.9537      1.00000
     60       3.0146      1.00000
[...]
    134      11.4985      0.00000
    135      11.5106      0.00000
    136      11.5288      0.00000
    137      11.5400      0.00000
    138      11.5581      0.00000
    139      11.5771      0.00000
    140      11.5860      0.00000
    141      11.5991      0.00000
    142      11.6113      0.00000
    143      11.6215      0.00000
    144      11.6392      0.00000
    145      11.6465      0.00000
    146      11.6541      0.00000
    147      11.6859      0.00000
    148      11.6905      0.00000

 soft charge-density along one line, spin component           1
         0         1         2         3         4         5         6         7         8         9
 total charge-density along one line

 soft charge-density along one line, spin component           2
         0         1         2         3         4         5         6         7         8         9
 total charge-density along one line

------------------------ aborting loop because EDIFF is reached ----------------------------------------

 total charge

# of ion       s       p       d       f       tot
    1        2.000   5.702   0.495   0.192   8.388
    2        2.000   5.702   0.498   0.195   8.395
    3        2.000   5.702   0.498   0.195   8.395
    4        2.000   5.702   0.495   0.192   8.388
    5        2.000   5.701   0.501   0.194   8.396
    6        2.001   5.701   0.501   0.194   8.397
    7        0.363   0.583   4.867   0.000   5.813
    8        0.422   0.628   8.322   0.000   9.372
    9        0.437   0.668   8.308   0.000   9.413
   10        0.400   0.588   8.324   0.000   9.311
   11        0.437   0.668   8.308   0.000   9.413
   12        0.422   0.628   8.322   0.000   9.372
   13        1.563   3.459   0.000   0.000   5.022
   14        1.563   3.432   0.000   0.000   4.995
   15        1.562   3.435   0.000   0.000   4.997
   16        1.562   3.435   0.000   0.000   4.997
   17        1.563   3.432   0.000   0.000   4.995
   18        1.563   3.459   0.000   0.000   5.022
   19        1.562   3.462   0.000   0.000   5.024
   20        1.563   3.436   0.000   0.000   4.998
   21        1.563   3.436   0.000   0.000   4.998
   22        1.562   3.462   0.000   0.000   5.024
   23        1.563   3.436   0.000   0.000   4.998
   24        1.563   3.436   0.000   0.000   4.998
   25        1.562   3.460   0.000   0.000   5.022
   26        1.563   3.433   0.000   0.000   4.996
   27        1.563   3.433   0.000   0.000   4.996
   28        1.562   3.460   0.000   0.000   5.022
   29        1.563   3.431   0.000   0.000   4.994
   30        1.563   3.431   0.000   0.000   4.994
tot         42.607  99.943  49.435   1.162 193.146

 magnetization (x)

[...]

  FORCE on cell =-STRESS in cart. coord.  units (eV):
  Direction    XX          YY          ZZ          XY          YZ          ZX
  Alpha Z   994.62109   994.62109   994.62109
  Ewald   -5451.50083 -5451.50083 -5504.55118     0.00000     0.00000     0.00001
  Hartree  1323.45245  1323.45238  1274.53264    -0.00000     0.00000     0.00002
  E(xc)   -1087.41014 -1087.41014 -1087.36452    -0.00000     0.00000    -0.00002
  Local    -872.09466  -872.09455  -770.17504     0.00000     0.00000    -0.00053
  n-local   442.72011   442.31433   442.70150     2.98260    -0.18074     0.24179
  augment   779.31396   779.31402   779.38209    -0.00000     0.00000     0.00112
  Kinetic  3870.05475  3871.52094  3870.48685     8.74739     0.66558    -0.95309
  Fock        0.00000     0.00000     0.00000     0.00000     0.00000     0.00000
  Total      -0.31302    -0.31302    -0.36657     0.00000     0.00000     0.00000
  in kB      -1.45996    -1.45996    -1.70971     0.00000     0.00000     0.00000

 VOLUME and BASIS-vectors are now :
  energy-cutoff  :      520.00
  volume of cell :      343.51
      direct lattice vectors                 reciprocal lattice vectors
     3.853482009 -3.853482009  0.000000000     0.129752779 -0.129752779  0.043227896
     3.853482009  3.853482009  0.000000000     0.129752779  0.129752779  0.043227896
    -3.853482009  0.000000000 11.566605102     0.000000000  0.000000000  0.086455792

  length of vectors
     5.449646519  5.449646519 12.191623238     0.188521135  0.188521135  0.086455792

 FORCES acting on ions
    electron-ion (+dipol)            ewald-force                    non-local-force                 convergence-correction
   -.392E-03 0.472E-05 -.131E-02   -.102E-03 -.186E-06 0.319E-03   0.108E-18 0.488E-18 0.000E+00   0.152E-06 -.506E-07 -.765E-05
   0.397E-03 -.176E-04 -.750E+02   0.945E-04 0.124E-04 0.747E+02   0.173E-17 0.867E-18 0.280E+00   -.163E-05 0.345E-07 0.274E-03
   0.568E-05 -.507E-05 0.750E+02   -.654E-05 0.578E-05 -.747E+02   -.173E-17 -.867E-18 -.280E+00   0.149E-05 -.168E-07 -.265E-03
   -.392E-03 -.472E-05 -.131E-02   -.102E-03 0.186E-06 0.319E-03   -.217E-18 -.488E-18 0.000E+00   0.152E-06 0.506E-07 -.765E-05
   0.397E-03 0.176E-04 -.750E+02   0.945E-04 -.124E-04 0.747E+02   0.347E-17 -.867E-18 0.280E+00   -.163E-05 -.345E-07 0.274E-03
   0.568E-05 0.507E-05 0.750E+02   -.654E-05 -.578E-05 -.747E+02   -.173E-17 0.867E-18 -.280E+00   0.149E-05 0.168E-07 -.265E-03
   0.254E-04 0.255E-11 0.380E-04   0.272E-04 0.782E-13 0.387E-03   -.212E-21 0.106E-21 0.000E+00   0.425E-07 0.439E-14 0.842E-07
   0.127E-04 -.413E-11 -.385E+02   -.546E-06 0.655E-14 0.382E+02   0.000E+00 0.000E+00 0.287E+00   -.102E-06 -.497E-13 0.459E-02
   -.298E-04 -.471E-11 0.281E+02   -.358E-04 0.166E-14 -.282E+02   0.434E-18 0.217E-18 0.355E-01   -.848E-07 -.815E-13 -.905E-02
   0.350E-04 -.719E-12 0.866E-04   0.310E-04 0.653E-13 0.537E-03   0.000E+00 0.000E+00 -.339E-20   0.459E-07 -.412E-15 -.168E-06
   -.268E-05 0.457E-12 -.281E+02   -.129E-05 0.215E-13 0.282E+02   -.542E-18 0.867E-18 -.355E-01   0.131E-07 0.480E-13 0.905E-02
   -.567E-04 0.458E-12 0.385E+02   -.254E-04 0.570E-13 -.382E+02   -.867E-18 0.867E-18 -.287E+00   0.420E-07 0.172E-13 -.459E-02
   0.476E-03 -.223E-11 -.703E+02   -.499E-04 0.490E-14 0.663E+02   -.555E-16 0.000E+00 0.407E+01   0.893E-07 -.189E-13 -.324E-03
   -.505E-03 0.286E-11 -.808E+01   0.736E-04 -.136E-13 0.902E+01   -.694E-17 0.173E-17 -.109E+01   -.814E-07 -.549E-13 0.142E-03
   -.477E-05 -.337E-12 0.420E+02   -.144E-06 -.444E-14 -.436E+02   0.694E-17 0.000E+00 0.175E+01   -.169E-07 -.650E-14 0.102E-02
   0.522E-03 -.551E-12 -.420E+02   -.754E-04 0.237E-13 0.436E+02   -.139E-16 0.000E+00 -.175E+01   0.739E-07 0.420E-13 -.102E-02
   -.520E-03 0.796E-12 0.807E+01   0.726E-04 -.116E-13 -.902E+01   0.694E-17 -.173E-17 0.109E+01   -.458E-07 0.304E-13 -.153E-03
   0.285E-05 -.272E-11 0.703E+02   0.898E-05 -.662E-13 -.663E+02   0.555E-16 0.000E+00 -.407E+01   -.166E-07 0.306E-13 0.329E-03
   -.475E-03 -.371E+02 -.142E-02   -.516E-04 0.324E+02 0.227E-03   0.691E-17 0.472E+01 0.136E-19   0.483E-07 -.439E-03 -.197E-06
   -.440E-06 -.483E+01 -.189E+02   -.159E-05 0.520E+01 0.187E+02   0.520E-17 -.498E+00 0.164E+00   -.821E-09 -.465E-03 0.240E-02
   0.471E-03 0.483E+01 0.189E+02   0.570E-04 -.520E+01 -.187E+02   -.304E-17 0.498E+00 -.164E+00   -.532E-07 0.465E-03 -.240E-02
   -.475E-03 0.371E+02 -.142E-02   -.516E-04 -.324E+02 0.227E-03   0.440E-16 -.472E+01 -.102E-19   0.483E-07 0.439E-03 -.197E-06
   -.440E-06 0.483E+01 -.189E+02   -.159E-05 -.520E+01 0.187E+02   0.520E-17 0.498E+00 0.164E+00   -.821E-09 0.465E-03 0.240E-02
   0.471E-03 -.483E+01 0.189E+02   0.570E-04 0.520E+01 -.187E+02   -.520E-17 -.498E+00 -.164E+00   -.532E-07 -.465E-03 -.240E-02
   -.371E+02 0.735E-12 -.141E-02   0.324E+02 0.636E-13 0.228E-03   0.472E+01 0.000E+00 0.108E-18   -.439E-03 0.841E-14 -.170E-06
   -.483E+01 0.275E-11 -.189E+02   0.520E+01 -.230E-13 0.187E+02   -.498E+00 0.000E+00 0.164E+00   -.465E-03 0.846E-14 0.240E-02
   0.483E+01 0.161E-12 0.189E+02   -.520E+01 0.358E-13 -.187E+02   0.498E+00 0.000E+00 -.164E+00   0.465E-03 -.255E-13 -.240E-02
   0.371E+02 0.970E-12 -.142E-02   -.324E+02 0.571E-13 0.227E-03   -.472E+01 0.000E+00 -.108E-18   0.439E-03 0.491E-14 -.224E-06
   0.483E+01 -.230E-12 -.189E+02   -.520E+01 -.575E-14 0.187E+02   0.498E+00 0.000E+00 0.164E+00   0.465E-03 -.300E-13 0.240E-02
   -.483E+01 0.256E-12 0.189E+02   0.520E+01 0.148E-13 -.187E+02   -.498E+00 0.000E+00 -.164E+00   -.465E-03 -.269E-13 -.240E-02
   -.308E-04 0.335E-11 -.416E-01   -.124E-13 0.931E-14 0.746E-13   -.167E-15 -.183E-14 -.777E-15   -.263E-07 0.366E-13 0.639E-06

 POSITION                                       TOTAL-FORCE (eV/Angst)
      0.00000      0.00000      3.85553        -0.000000      0.000000      0.000000
     -0.00000      0.00000      7.68243         0.000000      0.000000     -0.045056
      3.85348      0.00000      0.02864         0.000000     -0.000000      0.045056
      3.85348      0.00000      3.85553        -0.000000      0.000000      0.000000
      3.85348      0.00000      7.68243         0.000000     -0.000000     -0.045056
     -0.00000      0.00000      0.02864        -0.000000      0.000000      0.045056
      1.92674     -1.92674      9.63884        -0.000000      0.000000      0.000000
      1.92674     -1.92674      5.77644         0.000000      0.000000     -0.018484
      1.92674     -1.92674      1.92593        -0.000000      0.000000     -0.011648
      1.92674      1.92674      9.63884         0.000000      0.000000      0.000000
      1.92674      1.92674      5.78514         0.000000      0.000000      0.011648
      1.92674      1.92674      1.93463        -0.000000      0.000000      0.018484
      1.92674     -1.92674      7.73183         0.000000      0.000000      0.020286
      1.92674     -1.92674      3.83926         0.000000      0.000000     -0.139494
      1.92674     -1.92674      0.01417         0.000000      0.000000      0.207563
      1.92674      1.92674      7.69690        -0.000000      0.000000     -0.207563
      1.92674      1.92674      3.87181        -0.000000      0.000000      0.139494
      1.92674     -1.92674     11.54584        -0.000000      0.000000     -0.020286
     -1.92674      0.03242      9.63884         0.000000     -0.004804      0.000000
      1.92674      3.85154      5.78810        -0.000000     -0.125612     -0.001697
      5.78022      0.00194      1.92297         0.000000      0.125612      0.001697
      1.92674     -0.03242      9.63884        -0.000000      0.004804      0.000000
      1.92674      0.00194      5.78810        -0.000000      0.125612     -0.001697
      1.92674     -0.00194      1.92297         0.000000     -0.125612      0.001697
      0.03242     -1.92674      9.63884        -0.004804      0.000000      0.000000
      3.85154      1.92674      5.78810        -0.125612      0.000000     -0.001697
      3.85542      1.92674      1.92297         0.125612      0.000000      0.001697
     -0.03242      1.92674      9.63884         0.004804      0.000000      0.000000
      0.00194      1.92674      5.78810         0.125612     -0.000000     -0.001697
      3.85154     -1.92674      1.92297        -0.125612      0.000000      0.001697
    total drift:                               -0.000031      0.000000     -0.041626

  FREE ENERGIE OF THE ION-ELECTRON SYSTEM (eV)
  free  energy   TOTEN  =      -206.94495563 eV

  energy  without entropy=     -206.94495563  energy(sigma->0) =     -206.94495563

 total charge

[...]

 magnetization (x)

# of ion       s       p       d       f       tot
    1        0.001  -0.001   0.005   0.003   0.008
    2        0.001  -0.000   0.007   0.003   0.010
    3        0.001  -0.000   0.007   0.003   0.010
    4        0.001  -0.001   0.005   0.003   0.008
    5        0.001   0.001   0.007   0.003   0.011
    6        0.001   0.001   0.007   0.003   0.011
    7        0.025   0.034   3.184   0.000   3.244
    8        0.015   0.004   1.426   0.000   1.445
    9        0.018   0.014   1.240   0.000   1.271
   10        0.006  -0.003   1.577   0.000   1.580
   11        0.018   0.014   1.240   0.000   1.271
   12        0.015   0.004   1.426   0.000   1.445
   13        0.004  -0.039   0.000   0.000  -0.034
   14        0.006  -0.097   0.000   0.000  -0.091
   15        0.005  -0.087   0.000   0.000  -0.081
   16        0.005  -0.087   0.000   0.000  -0.081
   17        0.006  -0.097   0.000   0.000  -0.091
   18        0.004  -0.039   0.000   0.000  -0.034
   19        0.004  -0.023   0.000   0.000  -0.019
   20        0.005  -0.095   0.000   0.000  -0.090
   21        0.005  -0.095   0.000   0.000  -0.090
   22        0.004  -0.023   0.000   0.000  -0.019
   23        0.005  -0.095   0.000   0.000  -0.090
   24        0.005  -0.095   0.000   0.000  -0.090
   25        0.004  -0.026   0.000   0.000  -0.021
   26        0.006  -0.098   0.000   0.000  -0.093
   27        0.006  -0.099   0.000   0.000  -0.093
   28        0.004  -0.026   0.000   0.000  -0.021
   29        0.006  -0.100   0.000   0.000  -0.095
   30        0.006  -0.100   0.000   0.000  -0.095
tot          0.193  -1.253  10.130   0.017   9.086

 BZINTS: Fermi energy:  7.473562;231.000000 electrons
         Band energy:-251.959549;  BLOECHL correction: -0.077880