 vasp.5.4.4.18Apr17-6-g9f103f2a35 (build Oct 03 2018 13:58:34) complex

 executed on             LinuxIFC date 2019.06.04  01:18:39

 INCAR:
 POTCAR:    PAW_PBE La 06Sep2000
 POTCAR:    PAW_PBE Mn 06Sep2000
 POTCAR:    PAW_PBE Ni 02Aug2007
 POTCAR:    PAW_PBE O 08Apr2002

 POTCAR:    PAW_PBE La 06Sep2000
   VRHFIN =La : [core=Kr4d]

   TITEL  = PAW_PBE La 06Sep2000
   POMASS =  138.900; ZVAL   =   11.000    mass and valenz
   ENMAX  =  219.292; ENMIN  =  164.469 eV

 POTCAR:    PAW_PBE Mn 06Sep2000
   VRHFIN =Mn: d6 s1

   TITEL  = PAW_PBE Mn 06Sep2000
   POMASS =   54.938; ZVAL   =    7.000    mass and valenz
   ENMAX  =  269.864; ENMIN  =  202.398 eV

 POTCAR:    PAW_PBE Ni 02Aug2007
   VRHFIN =Ni:

   TITEL  = PAW_PBE Ni 02Aug2007
   POMASS =   58.690; ZVAL   =   10.000    mass and valenz
   ENMAX  =  269.532; ENMIN  =  202.149 eV

 POTCAR:    PAW_PBE O 08Apr2002
   VRHFIN =O: s2p4

   TITEL  = PAW_PBE O 08Apr2002
   POMASS =   16.000; ZVAL   =    6.000    mass and valenz
   ENMAX  =  400.000; ENMIN  =  300.000 eV

 Optimization of the real space projectors (new method)

 maximal supplied QI-value         = 13.42
 optimisation between [QCUT,QGAM] = [ 11.67, 23.35] = [ 38.16,152.62] Ry
 Optimized for a Real-space Cutoff    1.63 Angstroem

   l    n(q)    QCUT    max X(q) W(low)/X(q) W(high)/X(q)  e(spline)
   0     11    11.673    13.882    0.27E-04    0.79E-05    0.11E-06
   0     11    11.673    12.184    0.39E-04    0.13E-04    0.19E-06
   1     11    11.673     4.523    0.73E-05    0.76E-05    0.12E-06
   1     11    11.673     4.424    0.87E-05    0.13E-04    0.19E-06
   2     10    11.673    52.481    0.65E-04    0.36E-04    0.18E-06
   2     10    11.673    38.501    0.61E-04    0.33E-04    0.17E-06
   3     10    11.673    65.631    0.17E-03    0.14E-03    0.37E-06
   3     10    11.673    56.854    0.17E-03    0.14E-03    0.37E-06
 Optimization of the real space projectors (new method)

[...]

   l    n(q)    QCUT    max X(q) W(low)/X(q) W(high)/X(q)  e(spline)
   2      9    11.539    60.317    0.19E-03    0.47E-04    0.16E-06
   2      9    11.539    55.921    0.19E-03    0.48E-04    0.16E-06
   0     10    11.539    51.690    0.80E-04    0.50E-04    0.24E-06
   0     10    11.539    30.015    0.73E-04    0.45E-04    0.22E-06
   1     10    11.539    18.849    0.87E-04    0.16E-03    0.71E-07
   1     10    11.539    14.624    0.73E-04    0.13E-03    0.64E-07
 Optimization of the real space projectors (new method)

 maximal supplied QI-value         = 24.76
 optimisation between [QCUT,QGAM] = [ 11.64, 23.27] = [ 37.91,151.63] Ry
 Optimized for a Real-space Cutoff    1.14 Angstroem

   l    n(q)    QCUT    max X(q) W(low)/X(q) W(high)/X(q)  e(spline)
   0      8    11.635    20.381    0.10E-03    0.33E-03    0.24E-06
   0      8    11.635    15.268    0.11E-03    0.35E-03    0.26E-06
   1      7    11.635     5.964    0.24E-03    0.31E-03    0.30E-06
   1      7    11.635     5.382    0.22E-03    0.25E-03    0.26E-06
  PAW_PBE La 06Sep2000                  :
  PAW_PBE Mn 06Sep2000                  :
  PAW_PBE Ni 02Aug2007                  :
  PAW_PBE O 08Apr2002                   :

 POSCAR: SCEL6_2_1_3_0_0_1/0
  positions in direct lattice
  velocities in cartesian coordinates
 exchange correlation table for  LEXCH =        8
   RHO(1)=    0.500       N(1)  =     2000
   RHO(2)=  100.500       N(2)  =     4000

 ion  position               nearest neighbor table
   1  0.500  0.500  0.333-  17 2.76  17 2.76  14 2.76  14 2.76  25 2.76  28 2.76  19 2.76  22 2.76
                            23 2.76  29 2.76  20 2.76  26 2.76   8 3.39   8 3.39  11 3.39  11 3.39
   2  0.000  0.000  0.671-  21 2.73  24 2.73  27 2.73  30 2.73  16 2.76  16 2.76  13 2.76  13 2.76
                            28 2.82  19 2.82  25 2.82  22 2.82   9 3.36   9 3.36  12 3.36  12 3.36
   3  0.500  0.500  0.995-  21 2.73  24 2.73  27 2.73  30 2.73  18 2.76  18 2.76  15 2.76  15 2.76
                            29 2.82  20 2.82  26 2.82  23 2.82  12 3.36  12 3.36   9 3.36   9 3.36
   4  0.000  0.000  0.333-  17 2.76  17 2.76  14 2.76  14 2.76  25 2.76  28 2.76  19 2.76  22 2.76
                            23 2.76  29 2.76  20 2.76  26 2.76   8 3.39   8 3.39  11 3.39  11 3.39
   5  0.500  0.500  0.671-  21 2.73  24 2.73  27 2.73  30 2.73  16 2.76  16 2.76  13 2.76  13 2.76
                            28 2.82  19 2.82  25 2.82  22 2.82   9 3.36   9 3.36  12 3.36  12 3.36
   6  0.000  0.000  0.995-  21 2.73  24 2.73  27 2.73  30 2.73  18 2.76  18 2.76  15 2.76  15 2.76
                            29 2.82  20 2.82  26 2.82  23 2.82  12 3.36  12 3.36   9 3.36   9 3.36
   7  0.500  0.000  0.166-  20 1.95  23 1.95  26 1.95  29 1.95  18 1.96  14 1.98   1 3.40   4 3.40
                             1 3.40   4 3.40   3 3.42   3 3.42   6 3.42   6 3.42
   8  0.000  0.500  0.500-  19 1.95  22 1.95  25 1.95  28 1.95  13 1.96  17 1.97   1 3.39   4 3.39
                             4 3.39   1 3.39   2 3.42   2 3.42   5 3.42   5 3.42
   9  0.000  0.500  0.833-  21 1.92  24 1.92  27 1.92  30 1.92  15 1.98  13 1.98   3 3.36   6 3.36
                             6 3.36   3 3.36   2 3.36   5 3.36   2 3.36   5 3.36
  10  0.500  0.000  0.501-  19 1.95  22 1.95  25 1.95  28 1.95  16 1.96  14 1.98   1 3.40   4 3.40
                             1 3.40   4 3.40   2 3.42   5 3.42   2 3.42   5 3.42
  11  0.000  0.500  0.167-  20 1.95  23 1.95  26 1.95  29 1.95  15 1.96  17 1.97   1 3.39   4 3.39
                             4 3.39   1 3.39   3 3.42   6 3.42   6 3.42   3 3.42
  12  0.500  0.000  0.833-  18 1.97  16 1.97  21 1.99  24 1.99  27 1.99  30 1.99   3 3.36   6 3.36
                             3 3.36   6 3.36   5 3.36   5 3.36   2 3.36   2 3.36
  13  0.000  0.500  0.666-   8 1.96   9 1.98   2 2.76   5 2.76   2 2.76   5 2.76
  14  0.500  0.000  0.333-   7 1.98  10 1.98   1 2.76   4 2.76   1 2.76   4 2.76
  15  0.000  0.500  0.001-  11 1.96   9 1.98   3 2.76   6 2.76   6 2.76   3 2.76
  16  0.500  0.000  0.667-  10 1.96  12 1.97   2 2.76   5 2.76   5 2.76   2 2.76
  17  0.000  0.500  0.333-   8 1.97  11 1.97   1 2.76   4 2.76   4 2.76   1 2.76
  18  0.500  0.000  1.000-   7 1.96  12 1.97   3 2.76   6 2.76   3 2.76   6 2.76
  19  0.750  0.750  0.499-  10 1.95   8 1.95   1 2.76   4 2.76   2 2.82   5 2.82
  20  0.250  0.250  0.168-   7 1.95  11 1.95   1 2.76   4 2.76   3 2.82   6 2.82
  21  0.755  0.745  0.833-   9 1.92  12 1.99   3 2.73   6 2.73   5 2.73   2 2.73
  22  0.250  0.250  0.499-  10 1.95   8 1.95   1 2.76   4 2.76   2 2.82   5 2.82
  23  0.750  0.750  0.168-   7 1.95  11 1.95   1 2.76   4 2.76   3 2.82   6 2.82
  24  0.245  0.255  0.833-   9 1.92  12 1.99   3 2.73   6 2.73   5 2.73   2 2.73
  25  0.750  0.250  0.499-  10 1.95   8 1.95   1 2.76   4 2.76   2 2.82   5 2.82
  26  0.250  0.750  0.168-   7 1.95  11 1.95   1 2.76   4 2.76   3 2.82   6 2.82
  27  0.755  0.255  0.833-   9 1.92  12 1.99   3 2.73   6 2.73   5 2.73   2 2.73
  28  0.250  0.750  0.499-  10 1.95   8 1.95   1 2.76   4 2.76   2 2.82   5 2.82
  29  0.750  0.250  0.168-   7 1.95  11 1.95   1 2.76   4 2.76   3 2.82   6 2.82
  30  0.245  0.745  0.833-   9 1.92  12 1.99   3 2.73   6 2.73   5 2.73   2 2.73

  LATTYP: Found a simple tetragonal cell.
 ALAT       =     5.5219606636
 C/A-ratio  =     2.1384667960

  Lattice vectors:

 A1 = (   3.9046158307,   3.9046158307,   0.0000000000)
 A2 = (   3.9046158307,  -3.9046158307,   0.0000000000)
 A3 = (   0.0000000000,   0.0000000000, -11.8085295279)

Analysis of symmetry for initial positions (statically):
 Subroutine PRICEL returns:
 Original cell was already a primitive cell.

 Routine SETGRP: Setting up the symmetry group for a
 simple tetragonal supercell.

 Subroutine GETGRP returns: Found  8 space group operations
 (whereof  4 operations were pure point group operations)
 out of a pool of 16 trial point group operations.

The static configuration has the point symmetry C_2v.
 The point group associated with its full space group is C_4v.

Analysis of symmetry for dynamics (positions and initial velocities):
 Subroutine PRICEL returns:
 Original cell was already a primitive cell.

[...]

The dynamic configuration has the point symmetry C_2v.
 The point group associated with its full space group is C_4v.

Analysis of structural, dynamic, and magnetic symmetry:
 Subroutine PRICEL returns:
 Original cell was already a primitive cell.

 Routine SETGRP: Setting up the symmetry group for a
 simple tetragonal supercell.

 Subroutine GETGRP returns: Found  8 space group operations
 (whereof  4 operations were pure point group operations)
 out of a pool of 16 trial point group operations.

The magnetic configuration has the point symmetry C_2v.
 The point group associated with its full space group is C_4v.

 Subroutine INISYM returns: Found  8 space group operations
 (whereof  4 operations are pure point group operations),
 and found     1 'primitive' translations

 KPOINTS: Automatic mesh

Automatic generation of k-mesh.
 generate k-points for:    4    4    2
Space group operators:
 irot       det(A)        alpha          n_x          n_y          n_z        tau_x        tau_y        tau_z
    1     1.000000     0.000000     1.000000     0.000000     0.000000     0.000000     0.000000     0.000000
    2     1.000000   180.000000     0.000000     0.000000     1.000000     0.000000     0.000000     0.000000
    3    -1.000000   180.000000     0.707107    -0.707107     0.000000     0.000000     0.000000     0.000000
    4    -1.000000   180.000000     0.707107     0.707107     0.000000     0.000000     0.000000     0.000000
    5     1.000000    90.000000     0.000000     0.000000     1.000000     0.500000     0.500000     0.000000
    6     1.000000    90.000000     0.000000     0.000000    -1.000000     0.500000     0.500000     0.000000
    7    -1.000000   180.000000     1.000000     0.000000     0.000000     0.500000     0.500000     0.000000
    8    -1.000000   180.000000     0.000000     1.000000     0.000000     0.500000     0.500000     0.000000

 Subroutine IBZKPT returns following result:

 Found     12 irreducible k-points:

 Following reciprocal coordinates:
            Coordinates               Weight
  0.000000  0.000000  0.000000      1.000000
  0.250000  0.000000  0.000000      4.000000
  0.500000  0.000000  0.000000      2.000000
  0.250000  0.250000  0.000000      4.000000
  0.500000  0.250000  0.000000      4.000000
  0.500000  0.500000  0.000000      1.000000
  0.000000  0.000000  0.500000      1.000000
  0.250000  0.000000  0.500000      4.000000
  0.500000  0.000000  0.500000      2.000000
  0.250000  0.250000  0.500000      4.000000
  0.500000  0.250000  0.500000      4.000000
  0.500000  0.500000  0.500000      1.000000

 Following cartesian coordinates:
            Coordinates               Weight
  0.000000  0.000000  0.000000      1.000000
  0.032013  0.032013  0.000000      4.000000
  0.064027  0.064027  0.000000      2.000000
  0.064027  0.000000  0.000000      4.000000
  0.096040  0.032013  0.000000      4.000000
  0.128054  0.000000  0.000000      1.000000
  0.000000  0.000000 -0.042342      1.000000
  0.032013  0.032013 -0.042342      4.000000
  0.064027  0.064027 -0.042342      2.000000
[...]
     30      -8.1340      1.00000
     31      -8.0071      1.00000
     32      -7.9916      1.00000
     33      -7.9916      1.00000
     34      -7.9284      1.00000
     35      -7.9284      1.00000
     36      -7.9114      1.00000
     37      -7.9114      1.00000
     38      -7.7994      1.00000
     39      -7.5280      1.00000
     40      -7.5280      1.00000
     41      -7.3430      1.00000
     42      -7.3406      1.00000
     43       0.1666      1.00000
     44       0.2542      1.00000
     45       0.8296      1.00000
     46       0.8317      1.00000
     47       0.8552      1.00000
     48       1.0110      1.00000
     49       1.2181      1.00000
     50       1.2250      1.00000
     51       1.4473      1.00000
     52       1.4659      1.00000
     53       1.5189      1.00000
     54       1.5889      1.00000
     55       1.6590      1.00000
     56       1.7548      1.00000
     57       1.7548      1.00000
     58       1.8869      1.00000
     59       1.8869      1.00000
     60       1.9509      1.00000
[...]
    130      10.3273      0.00000
    131      10.3519      0.00000
    132      10.3759      0.00000
    133      10.3901      0.00000
    134      10.3957      0.00000
    135      10.4517      0.00000
    136      10.4772      0.00000
    137      10.5029      0.00000
    138      10.5161      0.00000
    139      10.5431      0.00000
    140      10.5593      0.00000
    141      10.5848      0.00000
    142      10.5913      0.00000
    143      10.6147      0.00000
    144      10.6378      0.00000

[...]

 spin component 2

[...]

 k-point    12 :       0.5000    0.5000    0.5000
  band No.  band energies     occupation
      1     -24.4262      1.00000
      2     -24.4262      1.00000
      3     -24.4073      1.00000
      4     -24.4072      1.00000
      5     -24.3798      1.00000
      6     -24.3798      1.00000
      7     -11.4478      1.00000
      8     -11.3900      1.00000
      9     -11.3583      1.00000
     10     -11.2319      1.00000
     11     -10.6785      1.00000
     12     -10.6130      1.00000
     13     -10.6130      1.00000
     14     -10.4694      1.00000
     15     -10.3412      1.00000
     16     -10.3142      1.00000
     17     -10.2006      1.00000
     18     -10.2006      1.00000
     19     -10.1563      1.00000
     20     -10.1563      1.00000
     21      -9.8169      1.00000
     22      -9.8128      1.00000
     23      -9.7634      1.00000
     24      -9.5656      1.00000
     25      -7.8822      1.00000
     26      -7.8503      1.00000
     27      -7.8366      1.00000
     28      -7.8359      1.00000
     29      -7.7967      1.00000
     30      -7.7967      1.00000
     31      -7.7905      1.00000
     32      -7.7596      1.00000
     33      -7.7593      1.00000
     34      -7.7593      1.00000
     35      -7.5225      1.00000
     36      -7.5067      1.00000
     37      -7.5067      1.00000
     38      -7.4283      1.00000
     39      -7.2707      1.00000
     40      -7.2439      1.00000
     41      -7.2381      1.00000
     42      -7.1568      1.00000
     43       1.6154      1.00000
     44       1.7395      1.00000
     45       1.9007      1.00000
     46       1.9007      1.00000
     47       2.0707      1.00000
     48       2.1951      1.00000
     49       2.2785      1.00000
     50       2.3884      1.00000
     51       2.7339      1.00000
     52       2.7484      1.00000
     53       2.7485      1.00000
     54       2.9513      1.00000
     55       2.9513      1.00000
     56       2.9583      1.00000
     57       2.9583      1.00000
     58       3.0162      1.00000
     59       3.1144      1.00000
     60       3.1371      1.00000
[...]
    130      10.5542      0.00000
    131      10.5547      0.00000
    132      10.5580      0.00000
    133      10.5604      0.00000
    134      10.5713      0.00000
    135      10.5780      0.00000
    136      10.5939      0.00000
    137      10.5973      0.00000
    138      10.5983      0.00000
    139      10.6165      0.00000
    140      10.6171      0.00000
    141      10.6211      0.00000
    142      10.6242      0.00000
    143      10.6821      0.00000
    144      11.0886      0.00000

 soft charge-density along one line, spin component           1
         0         1         2         3         4         5         6         7         8         9
 total charge-density along one line

 soft charge-density along one line, spin component           2
         0         1         2         3         4         5         6         7         8         9
 total charge-density along one line

------------------------ aborting loop because EDIFF is reached ----------------------------------------

 total charge

# of ion       s       p       d       f       tot
    1        1.998   5.697   0.480   0.186   8.361
    2        1.998   5.695   0.477   0.183   8.353
    3        1.998   5.696   0.473   0.185   8.352
    4        1.998   5.697   0.480   0.186   8.361
    5        1.998   5.696   0.473   0.185   8.352
    6        1.998   5.695   0.477   0.183   8.353
    7        0.316   0.476   4.893   0.000   5.685
    8        0.316   0.476   4.906   0.000   5.697
    9        0.337   0.524   4.876   0.000   5.737
   10        0.316   0.477   4.892   0.000   5.685
   11        0.316   0.476   4.904   0.000   5.696
   12        0.387   0.551   8.322   0.000   9.261
   13        1.565   3.455   0.000   0.000   5.020
   14        1.564   3.451   0.000   0.000   5.015
   15        1.566   3.454   0.000   0.000   5.020
   16        1.558   3.453   0.000   0.000   5.012
   17        1.563   3.461   0.000   0.000   5.025
   18        1.558   3.453   0.000   0.000   5.012
   19        1.565   3.466   0.000   0.000   5.031
   20        1.565   3.465   0.000   0.000   5.030
   21        1.560   3.462   0.000   0.000   5.022
   22        1.565   3.464   0.000   0.000   5.030
   23        1.565   3.466   0.000   0.000   5.031
   24        1.560   3.462   0.000   0.000   5.022
   25        1.563   3.453   0.000   0.000   5.015
   26        1.563   3.450   0.000   0.000   5.013
   27        1.559   3.459   0.000   0.000   5.018
   28        1.563   3.450   0.000   0.000   5.013
   29        1.563   3.451   0.000   0.000   5.014
   30        1.559   3.459   0.000   0.000   5.018
tot         42.103  99.387  35.655   1.108 178.253

 magnetization (x)

[...]

  FORCE on cell =-STRESS in cart. coord.  units (eV):
  Direction    XX          YY          ZZ          XY          YZ          ZX
  Alpha Z   967.40131   967.40131   967.40131
  Ewald   -4832.48330 -4832.48330 -4948.59767     0.00000    -0.00000     0.00000
  Hartree  1032.50200  1032.50200   954.33995    -0.00000    -0.00000     0.00000
  E(xc)   -1005.72387 -1005.72387 -1005.70558     0.00000     0.00000     0.00000
  Local    -569.67606  -569.67606  -383.37562    -0.00000     0.00000    -0.00000
  n-local   390.63346   390.70662   389.17390    -1.97669    -0.00105     0.00631
  augment   197.77004   197.77004   200.44228    -0.00000    -0.00000     0.00000
  Kinetic  3818.58974  3823.93003  3827.73201   -13.34782     0.00278    -0.02692
  Fock        0.00000     0.00000     0.00000     0.00000     0.00000     0.00000
  Total       1.72005     1.72005     1.41058     0.00000     0.00000     0.00000
  in kB       7.65367     7.65367     6.27662     0.00000     0.00000     0.00000

 VOLUME and BASIS-vectors are now :
  energy-cutoff  :      520.00
  volume of cell :      360.07
      direct lattice vectors                 reciprocal lattice vectors
     3.904615831  3.904615831  0.000000000     0.128053571  0.128053571  0.000000000
     3.904615831 -3.904615831  0.000000000     0.128053571 -0.128053571  0.000000000
     0.000000000  0.000000000-11.808529528     0.000000000  0.000000000 -0.084684549

  length of vectors
     5.521960664  5.521960664 11.808529528     0.181095097  0.181095097  0.084684549

 FORCES acting on ions
    electron-ion (+dipol)            ewald-force                    non-local-force                 convergence-correction
   0.359E-12 -.368E-12 -.994E+00   0.251E-13 0.326E-13 0.104E+01   0.000E+00 0.000E+00 0.129E-01   0.449E-14 -.163E-13 -.540E-01
   -.283E-13 -.400E-14 -.889E+02   -.411E-14 -.355E-13 0.884E+02   0.542E-19 0.542E-19 0.478E+00   0.315E-13 0.367E-13 0.882E-01
   0.178E-12 -.201E-12 0.899E+02   -.183E-13 0.284E-13 -.894E+02   0.000E+00 0.000E+00 -.489E+00   0.202E-13 0.523E-14 -.345E-01
   -.144E-13 0.237E-15 -.994E+00   -.340E-13 -.535E-13 0.104E+01   0.610E-19 -.610E-19 0.129E-01   0.117E-13 0.173E-13 -.540E-01
   0.636E-12 -.621E-12 -.889E+02   0.169E-13 0.355E-13 0.884E+02   0.407E-19 0.542E-19 0.478E+00   -.364E-14 -.401E-13 0.882E-01
   -.674E-13 0.400E-13 0.899E+02   0.966E-14 -.284E-13 -.894E+02   -.136E-19 -.407E-19 -.489E+00   0.220E-13 0.533E-14 -.345E-01
   -.405E-12 0.670E-12 0.247E+02   0.657E-13 -.621E-14 -.241E+02   0.000E+00 0.000E+00 -.694E+00   -.179E-13 0.484E-14 -.388E-01
   0.595E-13 -.716E-13 -.189E+02   -.284E-13 -.283E-13 0.188E+02   0.000E+00 0.000E+00 0.170E-02   0.295E-13 0.217E-13 0.206E-01
   0.193E-12 -.197E-12 0.119E+00   -.284E-13 0.275E-13 -.122E+00   0.508E-20 0.169E-20 -.393E-02   0.764E-14 0.863E-14 0.118E-01
   -.159E-12 0.431E-12 -.249E+02   -.213E-13 0.548E-14 0.242E+02   0.000E+00 0.000E+00 0.692E+00   -.396E-13 -.268E-13 0.244E-01
   0.227E-12 -.224E-12 0.187E+02   -.115E-12 -.141E-13 -.187E+02   -.271E-19 0.271E-19 0.441E-02   -.137E-13 -.163E-13 -.317E-01
   0.769E-12 0.730E-12 0.189E+00   -.853E-13 -.280E-13 -.217E+00   -.678E-20 0.678E-20 0.843E-02   -.613E-13 -.354E-13 0.213E-01
   0.172E-12 -.178E-12 -.352E+02   -.426E-13 -.228E-13 0.347E+02   0.339E-20 0.339E-20 0.504E+00   0.234E-13 0.211E-14 0.602E-01
   0.166E-12 0.160E-12 -.308E+00   0.159E-13 -.363E-13 0.352E+00   0.678E-20 -.678E-20 -.351E-01   -.235E-13 -.134E-13 -.273E-01
   0.209E-12 -.195E-12 0.356E+02   -.426E-13 -.282E-13 -.352E+02   -.339E-20 0.339E-20 -.485E+00   -.191E-13 -.224E-13 -.132E-01
   0.518E-12 -.179E-12 -.845E+02   -.107E-13 0.270E-13 0.822E+02   0.000E+00 0.000E+00 0.222E+01   -.410E-13 -.206E-13 0.819E-01
   0.121E-12 -.118E-12 -.432E+00   -.532E-13 -.136E-13 0.498E+00   0.000E+00 0.000E+00 -.227E-01   0.441E-14 -.123E-13 -.468E-01
   0.306E-13 0.305E-12 0.848E+02   -.355E-14 -.278E-13 -.826E+02   0.000E+00 0.000E+00 -.217E+01   -.181E-13 -.195E-13 -.554E-01
   -.299E-09 -.896E+00 -.165E+02   -.113E-14 0.941E+00 0.162E+02   -.867E-18 -.118E+00 0.344E+00   -.409E-14 0.296E-01 0.163E-01
   0.349E-09 0.962E+00 0.164E+02   0.435E-13 -.998E+00 -.161E+02   0.867E-18 0.395E-01 -.329E+00   -.132E-13 0.212E-02 -.298E-01
   -.154E-09 -.379E+02 0.738E-01   -.799E-14 0.330E+02 -.759E-01   0.000E+00 0.485E+01 -.107E-01   0.132E-13 0.485E-01 0.130E-01
   -.299E-09 0.896E+00 -.165E+02   0.558E-13 -.941E+00 0.162E+02   0.000E+00 0.118E+00 0.344E+00   -.126E-13 -.296E-01 0.163E-01
   0.350E-09 -.962E+00 0.164E+02   -.146E-15 0.998E+00 -.161E+02   -.867E-18 -.395E-01 -.329E+00   -.547E-15 -.212E-02 -.298E-01
   -.154E-09 0.379E+02 0.738E-01   -.493E-13 -.330E+02 -.759E-01   0.000E+00 -.485E+01 -.107E-01   -.383E-13 -.485E-01 0.130E-01
   -.896E+00 0.361E-12 -.165E+02   0.941E+00 -.180E-13 0.162E+02   -.118E+00 0.000E+00 0.344E+00   0.296E-01 -.171E-13 0.163E-01
   0.962E+00 -.785E-12 0.164E+02   -.998E+00 0.128E-13 -.161E+02   0.395E-01 0.104E-17 -.329E+00   0.212E-02 -.270E-13 -.298E-01
   -.379E+02 0.248E-11 0.738E-01   0.330E+02 -.116E-13 -.759E-01   0.485E+01 0.000E+00 -.107E-01   0.485E-01 -.729E-16 0.130E-01
   0.896E+00 -.109E-11 -.165E+02   -.941E+00 0.195E-13 0.162E+02   0.118E+00 0.867E-18 0.344E+00   -.296E-01 -.173E-13 0.163E-01
   -.962E+00 0.934E-12 0.164E+02   0.998E+00 0.142E-13 -.161E+02   -.395E-01 -.276E-17 -.329E+00   -.212E-02 -.123E-13 -.298E-01
   0.379E+02 -.657E-12 0.738E-01   -.330E+02 -.158E-13 -.759E-01   -.485E+01 0.000E+00 -.107E-01   -.485E-01 -.263E-13 0.130E-01
   0.319E-11 0.437E-11 -.402E-01   -.142E-13 -.486E-13 -.533E-13   0.000E+00 -.854E-18 0.377E-01   -.808E-13 -.314E-12 0.472E-02

 POSITION                                       TOTAL-FORCE (eV/Angst)
      3.90462      0.00000     -3.93767         0.000000      0.000000      0.000015
      0.00000      0.00000     -7.92719         0.000000      0.000000      0.012175
      3.90462      0.00000    -11.75231         0.000000     -0.000000     -0.011244
      0.00000      0.00000     -3.93767         0.000000      0.000000      0.000015
      3.90462      0.00000     -7.92719         0.000000      0.000000      0.012175
      0.00000      0.00000    -11.75231         0.000000      0.000000     -0.011244
      1.95231      1.95231     -1.95602         0.000000     -0.000000     -0.055783
      1.95231     -1.95231     -5.90251         0.000000      0.000000     -0.012875
      1.95231     -1.95231     -9.84043         0.000000     -0.000000      0.004918
      1.95231      1.95231     -5.91632         0.000000     -0.000000      0.053069
      1.95231     -1.95231     -1.96985         0.000000      0.000000      0.008558
      1.95231      1.95231     -9.84045         0.000000      0.000000      0.001907
      1.95231     -1.95231     -7.85976         0.000000      0.000000      0.056536
      1.95231      1.95231     -3.93609         0.000000      0.000000     -0.018141
      1.95231     -1.95231     -0.01231         0.000000     -0.000000     -0.054622
      1.95231      1.95231     -7.87456         0.000000      0.000000     -0.038407
      1.95231     -1.95231     -3.93640         0.000000      0.000000     -0.003269
      1.95231      1.95231    -11.80628         0.000000      0.000000      0.057161
      5.85692     -0.00032     -5.89091         0.000000     -0.042941      0.009692
      1.95231      0.00037     -1.98152         0.000000      0.006077     -0.010204
      5.85692      0.03580     -9.84036         0.000000      0.031466      0.000276
      1.95231      0.00032     -5.89091         0.000000      0.042941      0.009692
      5.85692     -0.00037     -1.98152         0.000000     -0.006077     -0.010204
      1.95231     -0.03580     -9.84036         0.000000     -0.031466      0.000276
      3.90430      1.95231     -5.89091        -0.042941      0.000000      0.009692
      3.90498     -1.95231     -1.98152         0.006077      0.000000     -0.010204
      3.94041      1.95231     -9.84036         0.031466      0.000000      0.000276
      3.90494     -1.95231     -5.89091         0.042941      0.000000      0.009692
      3.90425      1.95231     -1.98152        -0.006077      0.000000     -0.010204
      3.86882     -1.95231     -9.84036        -0.031466      0.000000      0.000276
    total drift:                                0.000000      0.000000      0.002211

  FREE ENERGIE OF THE ION-ELECTRON SYSTEM (eV)
  free  energy   TOTEN  =      -232.38330987 eV

  energy  without entropy=     -232.38330987  energy(sigma->0) =     -232.38330987

 total charge

[...]

 magnetization (x)

# of ion       s       p       d       f       tot
    1        0.001   0.001   0.013   0.008   0.022
    2        0.001   0.001   0.010   0.005   0.017
    3        0.001   0.000   0.010   0.006   0.017
    4        0.001   0.001   0.013   0.007   0.022
    5        0.001   0.000   0.010   0.006   0.017
    6        0.001   0.001   0.010   0.005   0.017
    7        0.025   0.028   3.781   0.000   3.834
    8        0.025   0.026   3.814   0.000   3.865
    9        0.028   0.038   3.554   0.000   3.620
   10        0.025   0.029   3.779   0.000   3.832
   11        0.025   0.026   3.808   0.000   3.859
   12        0.009  -0.003   1.710   0.000   1.716
   13        0.008  -0.035   0.000   0.000  -0.027
   14        0.006  -0.051   0.000   0.000  -0.045
   15        0.008  -0.035   0.000   0.000  -0.027
   16        0.006   0.009   0.000   0.000   0.015
   17        0.006  -0.025   0.000   0.000  -0.019
   18        0.006   0.010   0.000   0.000   0.016
   19        0.007  -0.034   0.000   0.000  -0.027
   20        0.007  -0.037   0.000   0.000  -0.029
   21        0.006  -0.008   0.000   0.000  -0.002
   22        0.007  -0.036   0.000   0.000  -0.029
   23        0.007  -0.036   0.000   0.000  -0.029
   24        0.006  -0.008   0.000   0.000  -0.002
   25        0.004  -0.038   0.000   0.000  -0.034
   26        0.004  -0.041   0.000   0.000  -0.037
   27        0.004  -0.002   0.000   0.000   0.002
   28        0.004  -0.041   0.000   0.000  -0.036
   29        0.004  -0.040   0.000   0.000  -0.036
   30        0.004  -0.002   0.000   0.000   0.002
tot          0.244  -0.299  20.510   0.038  20.493

 BZINTS: Fermi energy:  8.133531;219.000000 electrons
         Band energy:-409.421085;  BLOECHL correction: -0.091818