 vasp.5.4.4.18Apr17-6-g9f103f2a35 (build Oct 03 2018 13:58:34) complex

 executed on             LinuxIFC date 2019.06.04  02:10:11

 INCAR:
 POTCAR:    PAW_PBE La 06Sep2000
 POTCAR:    PAW_PBE Mn 06Sep2000
 POTCAR:    PAW_PBE Ni 02Aug2007
 POTCAR:    PAW_PBE O 08Apr2002

 POTCAR:    PAW_PBE La 06Sep2000
   VRHFIN =La : [core=Kr4d]

   TITEL  = PAW_PBE La 06Sep2000
   POMASS =  138.900; ZVAL   =   11.000    mass and valenz
   ENMAX  =  219.292; ENMIN  =  164.469 eV

 POTCAR:    PAW_PBE Mn 06Sep2000
   VRHFIN =Mn: d6 s1

   TITEL  = PAW_PBE Mn 06Sep2000
   POMASS =   54.938; ZVAL   =    7.000    mass and valenz
   ENMAX  =  269.864; ENMIN  =  202.398 eV

 POTCAR:    PAW_PBE Ni 02Aug2007
   VRHFIN =Ni:

   TITEL  = PAW_PBE Ni 02Aug2007
   POMASS =   58.690; ZVAL   =   10.000    mass and valenz
   ENMAX  =  269.532; ENMIN  =  202.149 eV

 POTCAR:    PAW_PBE O 08Apr2002
   VRHFIN =O: s2p4

   TITEL  = PAW_PBE O 08Apr2002
   POMASS =   16.000; ZVAL   =    6.000    mass and valenz
   ENMAX  =  400.000; ENMIN  =  300.000 eV

 Optimization of the real space projectors (new method)

 maximal supplied QI-value         = 13.42
 optimisation between [QCUT,QGAM] = [ 11.67, 23.35] = [ 38.16,152.62] Ry
 Optimized for a Real-space Cutoff    1.63 Angstroem

   l    n(q)    QCUT    max X(q) W(low)/X(q) W(high)/X(q)  e(spline)
   0     11    11.673    13.882    0.27E-04    0.79E-05    0.11E-06
   0     11    11.673    12.184    0.39E-04    0.13E-04    0.19E-06
   1     11    11.673     4.523    0.73E-05    0.76E-05    0.12E-06
   1     11    11.673     4.424    0.87E-05    0.13E-04    0.19E-06
   2     10    11.673    52.481    0.65E-04    0.36E-04    0.18E-06
   2     10    11.673    38.501    0.61E-04    0.33E-04    0.17E-06
   3     10    11.673    65.631    0.17E-03    0.14E-03    0.37E-06
   3     10    11.673    56.854    0.17E-03    0.14E-03    0.37E-06
 Optimization of the real space projectors (new method)

[...]

   l    n(q)    QCUT    max X(q) W(low)/X(q) W(high)/X(q)  e(spline)
   2      9    11.539    60.317    0.19E-03    0.47E-04    0.16E-06
   2      9    11.539    55.921    0.19E-03    0.48E-04    0.16E-06
   0     10    11.539    51.690    0.80E-04    0.50E-04    0.24E-06
   0     10    11.539    30.015    0.73E-04    0.45E-04    0.22E-06
   1     10    11.539    18.849    0.87E-04    0.16E-03    0.71E-07
   1     10    11.539    14.624    0.73E-04    0.13E-03    0.64E-07
 Optimization of the real space projectors (new method)

 maximal supplied QI-value         = 24.76
 optimisation between [QCUT,QGAM] = [ 11.64, 23.27] = [ 37.91,151.63] Ry
 Optimized for a Real-space Cutoff    1.14 Angstroem

   l    n(q)    QCUT    max X(q) W(low)/X(q) W(high)/X(q)  e(spline)
   0      8    11.635    20.381    0.10E-03    0.33E-03    0.24E-06
   0      8    11.635    15.268    0.11E-03    0.35E-03    0.26E-06
   1      7    11.635     5.964    0.24E-03    0.31E-03    0.30E-06
   1      7    11.635     5.382    0.22E-03    0.25E-03    0.26E-06
  PAW_PBE La 06Sep2000                  :
  PAW_PBE Mn 06Sep2000                  :
  PAW_PBE Ni 02Aug2007                  :
  PAW_PBE O 08Apr2002                   :

 POSCAR: SCEL6_6_1_1_0_4_1/6
  positions in direct lattice
  velocities in cartesian coordinates
 exchange correlation table for  LEXCH =        8
   RHO(1)=    0.500       N(1)  =     2000
   RHO(2)=  100.500       N(2)  =     4000

 ion  position               nearest neighbor table
   1  0.500  0.338  0.838-  22 2.69  29 2.69  23 2.70  30 2.70  18 2.73  17 2.74  17 2.74  16 2.74
                            27 2.78  20 2.78  28 2.78  21 2.78  12 3.32  11 3.32  11 3.32  10 3.32
   2  0.000  0.665  0.671-  22 2.69  29 2.69  17 2.70  28 2.72  21 2.72  16 2.74  16 2.74  27 2.74
                            20 2.74  19 2.77  26 2.77  15 2.77  11 3.30   8 3.33  10 3.33  10 3.33
   3  0.500  0.000  0.500-  19 2.73  26 2.73  20 2.73  27 2.73  25 2.73  21 2.73  24 2.73  28 2.73
                            14 2.73  16 2.73  15 2.73  15 2.73  10 3.35  12 3.35   9 3.35   9 3.35
   4  0.000  0.335  0.329-  23 2.69  30 2.69  13 2.70  25 2.72  24 2.72  14 2.74  14 2.74  19 2.74
                            26 2.74  20 2.77  27 2.77  15 2.77  11 3.30   7 3.33  12 3.33  12 3.33
   5  0.500  0.662  0.162-  23 2.69  30 2.69  29 2.70  22 2.70  18 2.73  13 2.74  13 2.74  14 2.74
                            26 2.78  19 2.78  24 2.78  25 2.78  10 3.32  11 3.32  11 3.32  12 3.32
   6  0.000  0.000  0.000-  18 2.73  18 2.73  23 2.74  29 2.74  30 2.74  22 2.74  13 2.74  17 2.74
                            28 2.74  21 2.74  24 2.74  25 2.74  10 3.35  10 3.35  12 3.35  12 3.35
   7  0.000  0.832  0.333-  13 1.87  19 1.90  26 1.90  25 1.90  24 1.90  15 1.94   4 3.33   6 3.35
                             3 3.35   3 3.35   4 3.37   5 3.38   5 3.38   2 3.39
   8  0.000  0.168  0.667-  17 1.87  20 1.90  27 1.90  21 1.90  28 1.90  15 1.94   2 3.33   6 3.35
                             3 3.35   3 3.35   2 3.37   1 3.38   1 3.38   4 3.39
   9  0.500  0.500  0.500-  14 1.94  16 1.94  19 1.97  26 1.97  20 1.97  27 1.97   3 3.35   3 3.35
                             2 3.36   2 3.36   4 3.36   4 3.36   5 3.38   1 3.38
  10  0.500  0.834  0.833-  16 1.93  18 1.93  22 1.96  29 1.96  28 1.97  21 1.97   5 3.32   1 3.32
                             2 3.33   2 3.33   3 3.35   6 3.35   6 3.35   1 3.38
  11  0.000  0.500  0.000-  22 1.91  23 1.91  29 1.91  30 1.91  13 1.99  17 1.99   4 3.30   2 3.30
                             1 3.32   5 3.32   1 3.32   5 3.32   6 3.35   6 3.35
  12  0.500  0.166  0.167-  14 1.93  18 1.93  23 1.96  30 1.96  25 1.97  24 1.97   1 3.32   5 3.32
                             4 3.33   4 3.33   3 3.35   6 3.35   6 3.35   5 3.38
  13  0.000  0.671  0.171-   7 1.87  11 1.99   4 2.70   6 2.74   5 2.74   5 2.74
  14  0.500  0.332  0.333-  12 1.93   9 1.94   3 2.73   4 2.74   4 2.74   5 2.74
  15  0.000  0.000  0.500-   7 1.94   8 1.94   3 2.73   3 2.73   2 2.77   4 2.77
  16  0.500  0.668  0.667-  10 1.93   9 1.94   3 2.73   2 2.74   2 2.74   1 2.74
  17  0.000  0.329  0.829-   8 1.87  11 1.99   2 2.70   6 2.74   1 2.74   1 2.74
  18  0.500  0.000  0.000-  10 1.93  12 1.93   1 2.73   5 2.73   6 2.73   6 2.73
  19  0.755  0.670  0.416-   7 1.90   9 1.97   3 2.73   4 2.74   2 2.77   5 2.78
  20  0.245  0.330  0.584-   8 1.90   9 1.97   3 2.73   2 2.74   4 2.77   1 2.78
  21  0.755  0.002  0.748-   8 1.90  10 1.97   2 2.72   3 2.73   6 2.74   1 2.78
  22  0.246  0.664  0.918-  11 1.91  10 1.96   1 2.69   2 2.69   5 2.70   6 2.74
  23  0.754  0.336  0.082-  11 1.91  12 1.96   5 2.69   4 2.69   1 2.70   6 2.74
  24  0.245  0.998  0.252-   7 1.90  12 1.97   4 2.72   3 2.73   6 2.74   5 2.78
  25  0.755  0.998  0.252-   7 1.90  12 1.97   4 2.72   3 2.73   6 2.74   5 2.78
  26  0.245  0.670  0.416-   7 1.90   9 1.97   3 2.73   4 2.74   2 2.77   5 2.78
  27  0.755  0.330  0.584-   8 1.90   9 1.97   3 2.73   2 2.74   4 2.77   1 2.78
  28  0.245  0.002  0.748-   8 1.90  10 1.97   2 2.72   3 2.73   6 2.74   1 2.78
  29  0.754  0.664  0.918-  11 1.91  10 1.96   1 2.69   2 2.69   5 2.70   6 2.74
  30  0.246  0.336  0.082-  11 1.91  12 1.96   5 2.69   4 2.69   1 2.70   6 2.74

  LATTYP: Found a simple monoclinic cell.
 ALAT       =    11.5902855776
 B/A-ratio  =     0.4719390359
 C/A-ratio  =     1.4144846924
 COS(beta)  =    -0.9427036259

  Lattice vectors:

 A1 = (   0.0009249763,  -0.0009249763, -11.5902855038)
 A2 = (  -3.8678091819,  -3.8678091819,   0.0000000000)
 A3 = (  -3.8688572820,   3.8688572820,  15.4543312229)

Analysis of symmetry for initial positions (statically):
 Subroutine PRICEL returns:
 Original cell was already a primitive cell.

 Routine SETGRP: Setting up the symmetry group for a
 simple monoclinic supercell.

 Subroutine GETGRP returns: Found  4 space group operations
 (whereof  4 operations were pure point group operations)
 out of a pool of  4 trial point group operations.

The static configuration has the point symmetry C_2h.

Analysis of symmetry for dynamics (positions and initial velocities):
 Subroutine PRICEL returns:
 Original cell was already a primitive cell.

[...]

The dynamic configuration has the point symmetry C_2h.

Analysis of structural, dynamic, and magnetic symmetry:
 Subroutine PRICEL returns:
 Original cell was already a primitive cell.

 Routine SETGRP: Setting up the symmetry group for a
 simple monoclinic supercell.

 Subroutine GETGRP returns: Found  4 space group operations
 (whereof  4 operations were pure point group operations)
 out of a pool of  4 trial point group operations.

The magnetic configuration has the point symmetry C_2h.

 Subroutine INISYM returns: Found  4 space group operations
 (whereof  4 operations are pure point group operations),
 and found     1 'primitive' translations

 KPOINTS: Automatic mesh

Automatic generation of k-mesh.
 generate k-points for:    4    3    2
Space group operators:
 irot       det(A)        alpha          n_x          n_y          n_z        tau_x        tau_y        tau_z
    1     1.000000     0.000000     1.000000     0.000000     0.000000     0.000000     0.000000     0.000000
    2    -1.000000     0.000000     1.000000     0.000000     0.000000     0.000000     0.000000     0.000000
    3     1.000000   179.999999     0.707107     0.707107     0.000000     0.000000     0.000000     0.000000
    4    -1.000000   179.999999     0.707107     0.707107     0.000000     0.000000     0.000000     0.000000

 Subroutine IBZKPT returns following result:

 Found     12 irreducible k-points:

 Following reciprocal coordinates:
            Coordinates               Weight
  0.000000  0.000000  0.000000      1.000000
  0.250000  0.000000  0.000000      2.000000
  0.500000  0.000000  0.000000      1.000000
  0.000000  0.333333 -0.000000      2.000000
  0.250000  0.333333 -0.000000      4.000000
  0.500000  0.333333 -0.000000      2.000000
  0.000000  0.000000  0.500000      1.000000
  0.250000  0.000000  0.500000      2.000000
  0.500000  0.000000  0.500000      1.000000
  0.000000  0.333333  0.500000      2.000000
  0.250000  0.333333  0.500000      4.000000
  0.500000  0.333333  0.500000      2.000000

 Following cartesian coordinates:
            Coordinates               Weight
  0.000000  0.000000  0.000000      1.000000
  0.032318  0.032318  0.000000      2.000000
  0.064636  0.064636  0.000000      1.000000
 -0.028726  0.028726  0.028755      2.000000
  0.003592  0.061044  0.028755      4.000000
  0.035910  0.093362  0.028755      2.000000
  0.021550 -0.021550  0.043143      1.000000
  0.053868  0.010768  0.043143      2.000000
  0.086186  0.043086  0.043143      1.000000
 -0.007176  0.007176  0.071898      2.000000
  0.025142  0.039494  0.071898      4.000000
  0.057460  0.071812  0.071898      2.000000

 TETIRR: Found     72 inequivalent tetrahedra from      144

 SYSTEM =  final
 POSCAR =  SCEL6_6_1_1_0_4_1/6

 Startparameter for this run:
   NWRITE =      2    write-flag & timer
   PREC   = accura    normal or accurate (medium, high low for compatibility)
   ISTART =      0    job   : 0-new  1-cont  2-samecut
   ICHARG =      1    charge: 1-file 2-atom 10-const
   ISPIN  =      2    spin polarized calculation?
[...]
     30      -7.2139      1.00000
     31      -7.2076      1.00000
     32      -7.1964      1.00000
     33      -7.1785      1.00000
     34      -6.9690      1.00000
     35      -6.9509      1.00000
     36      -6.9342      1.00000
     37      -6.8718      1.00000
     38      -6.8500      1.00000
     39      -6.7153      1.00000
     40      -6.7087      1.00000
     41      -6.5914      1.00000
     42      -6.5771      1.00000
     43       0.3677      1.00000
     44       0.3761      1.00000
     45       0.6685      1.00000
     46       0.7550      1.00000
     47       0.7589      1.00000
     48       0.7836      1.00000
     49       0.9603      1.00000
     50       1.0502      1.00000
     51       1.3451      1.00000
     52       1.4111      1.00000
     53       1.5766      1.00000
     54       1.7556      1.00000
     55       1.8342      1.00000
     56       1.8374      1.00000
     57       1.8596      1.00000
     58       1.8635      1.00000
     59       1.8764      1.00000
     60       1.9209      1.00000
[...]
    132      11.0891      0.00000
    133      11.1357      0.00000
    134      11.1458      0.00000
    135      11.1669      0.00000
    136      11.2201      0.00000
    137      11.2420      0.00000
    138      11.2745      0.00000
    139      11.2871      0.00000
    140      11.3018      0.00000
    141      11.3299      0.00000
    142      11.3410      0.00000
    143      11.3696      0.00000
    144      11.3943      0.00000
    145      11.4207      0.00000
    146      11.4333      0.00000

[...]

 spin component 2

[...]

 k-point    12 :       0.5000    0.3333    0.5000
  band No.  band energies     occupation
      1     -23.6384      1.00000
      2     -23.6296      1.00000
      3     -23.6044      1.00000
      4     -23.5966      1.00000
      5     -23.5781      1.00000
      6     -23.5715      1.00000
      7     -11.2377      1.00000
      8     -10.9649      1.00000
      9     -10.7570      1.00000
     10     -10.5705      1.00000
     11     -10.5430      1.00000
     12     -10.3908      1.00000
     13     -10.1308      1.00000
     14      -9.9698      1.00000
     15      -9.8304      1.00000
     16      -9.6439      1.00000
     17      -9.6044      1.00000
     18      -9.5850      1.00000
     19      -9.5509      1.00000
     20      -9.5204      1.00000
     21      -9.4882      1.00000
     22      -9.4585      1.00000
     23      -9.3326      1.00000
     24      -9.0629      1.00000
     25      -7.2215      1.00000
     26      -7.1790      1.00000
     27      -7.1526      1.00000
     28      -7.1266      1.00000
     29      -7.1215      1.00000
     30      -7.1086      1.00000
     31      -7.0998      1.00000
     32      -7.0574      1.00000
     33      -7.0438      1.00000
     34      -7.0183      1.00000
     35      -6.8848      1.00000
     36      -6.8300      1.00000
     37      -6.7458      1.00000
     38      -6.6877      1.00000
     39      -6.6354      1.00000
     40      -6.5756      1.00000
     41      -6.3947      1.00000
     42      -6.3371      1.00000
     43       1.7890      1.00000
     44       1.8518      1.00000
     45       1.8788      1.00000
     46       1.9278      1.00000
     47       2.1233      1.00000
     48       2.1293      1.00000
     49       2.5491      1.00000
     50       2.5758      1.00000
     51       2.7102      1.00000
     52       2.7107      1.00000
     53       2.7780      1.00000
     54       2.8191      1.00000
     55       2.8301      1.00000
     56       2.8940      1.00000
     57       2.9640      1.00000
     58       3.0641      1.00000
     59       3.0724      1.00000
     60       3.1236      1.00000
[...]
    132      11.2938      0.00000
    133      11.3087      0.00000
    134      11.3197      0.00000
    135      11.3301      0.00000
    136      11.3328      0.00000
    137      11.3421      0.00000
    138      11.3476      0.00000
    139      11.3567      0.00000
    140      11.3672      0.00000
    141      11.3887      0.00000
    142      11.3941      0.00000
    143      11.4212      0.00000
    144      11.4464      0.00000
    145      11.4787      0.00000
    146      11.4919      0.00000

 soft charge-density along one line, spin component           1
         0         1         2         3         4         5         6         7         8         9
 total charge-density along one line

 soft charge-density along one line, spin component           2
         0         1         2         3         4         5         6         7         8         9
 total charge-density along one line

------------------------ aborting loop because EDIFF is reached ----------------------------------------

 total charge

# of ion       s       p       d       f       tot
    1        2.000   5.700   0.494   0.192   8.386
    2        2.000   5.701   0.495   0.193   8.388
    3        2.000   5.701   0.494   0.193   8.387
    4        2.000   5.701   0.495   0.193   8.388
    5        2.000   5.700   0.494   0.192   8.386
    6        2.000   5.700   0.491   0.191   8.381
    7        0.361   0.578   4.869   0.000   5.808
    8        0.361   0.578   4.869   0.000   5.808
    9        0.397   0.583   8.310   0.000   9.290
   10        0.407   0.600   8.309   0.000   9.316
   11        0.430   0.647   8.331   0.000   9.408
   12        0.407   0.600   8.309   0.000   9.316
   13        1.565   3.459   0.000   0.000   5.024
   14        1.560   3.436   0.000   0.000   4.996
   15        1.562   3.476   0.000   0.000   5.038
   16        1.560   3.436   0.000   0.000   4.996
   17        1.565   3.459   0.000   0.000   5.024
   18        1.560   3.436   0.000   0.000   4.996
   19        1.562   3.461   0.000   0.000   5.023
   20        1.562   3.461   0.000   0.000   5.023
   21        1.562   3.461   0.000   0.000   5.024
   22        1.561   3.446   0.000   0.000   5.007
   23        1.561   3.446   0.000   0.000   5.007
   24        1.562   3.461   0.000   0.000   5.024
   25        1.562   3.455   0.000   0.000   5.016
   26        1.561   3.453   0.000   0.000   5.014
   27        1.561   3.453   0.000   0.000   5.014
   28        1.562   3.455   0.000   0.000   5.016
   29        1.560   3.438   0.000   0.000   4.998
   30        1.560   3.438   0.000   0.000   4.998
tot         42.471  99.919  45.958   1.153 189.501

 magnetization (x)

[...]

  FORCE on cell =-STRESS in cart. coord.  units (eV):
  Direction    XX          YY          ZZ          XY          YZ          ZX
  Alpha Z   990.82382   990.82382   990.82382
  Ewald   -5321.83715 -5321.83715 -5326.01053     8.30659     3.62370    -3.62370
  Hartree  1233.34630  1233.34630  1224.68182     8.33582     4.07122    -4.07122
  E(xc)   -1066.86755 -1066.86755 -1066.79847     0.00280    -0.00502     0.00502
  Local    -760.45668  -760.45668  -742.89135   -17.10992    -7.38466     7.38466
  n-local   428.75147   428.98199   430.16057    -0.08851     0.32281     0.14079
  augment   635.23227   635.23227   633.68361     0.08803    -0.04322     0.04315
  Kinetic  3859.82724  3861.76579  3856.67669     0.58361    -1.09865    -0.18606
  Fock        0.00000     0.00000     0.00000     0.00000     0.00000     0.00000
  Total      -0.09574    -0.09574     0.32616     0.11765    -0.07564     0.07564
  in kB      -0.44235    -0.44235     1.50697     0.54359    -0.34950     0.34950

 VOLUME and BASIS-vectors are now :
  energy-cutoff  :      520.00
  volume of cell :      346.76
      direct lattice vectors                 reciprocal lattice vectors
     3.867809182  3.867809182  0.000000000     0.129272148  0.129272148  0.000000000
    -3.867932306  3.867932306  3.864045719    -0.086178675  0.086178675  0.086265396
     3.867007329 -3.867007329  7.726239785     0.043099664 -0.043099664  0.086286031

  length of vectors
     5.469908202  6.697212104  9.465847695     0.182818425  0.149315929  0.105642990

 FORCES acting on ions
    electron-ion (+dipol)            ewald-force                    non-local-force                 convergence-correction
   0.486E+01 -.486E+01 0.667E+02   -.488E+01 0.488E+01 -.661E+02   0.147E-01 -.147E-01 -.555E+00   0.369E-03 -.369E-03 0.202E-02
   0.304E+02 -.304E+02 0.410E+02   -.302E+02 0.302E+02 -.407E+02   -.190E+00 0.190E+00 -.289E+00   0.220E-02 -.220E-02 0.216E-02
   -.540E-12 0.529E-12 0.865E-12   -.179E-11 0.190E-11 0.253E-11   0.000E+00 -.108E-18 0.000E+00   0.166E-12 -.214E-12 0.292E-12
   -.304E+02 0.304E+02 -.410E+02   0.302E+02 -.302E+02 0.407E+02   0.190E+00 -.190E+00 0.289E+00   -.220E-02 0.220E-02 -.216E-02
   -.486E+01 0.486E+01 -.667E+02   0.488E+01 -.488E+01 0.661E+02   -.147E-01 0.147E-01 0.555E+00   -.369E-03 0.369E-03 -.202E-02
   -.249E-12 0.208E-12 -.933E-12   0.480E-13 -.107E-12 -.668E-11   -.434E-18 -.434E-18 0.000E+00   -.121E-12 0.215E-12 -.229E-12
   -.481E+01 0.481E+01 -.295E+02   0.486E+01 -.486E+01 0.290E+02   -.568E-01 0.568E-01 0.486E+00   -.298E-03 0.298E-03 -.451E-02
   0.481E+01 -.481E+01 0.295E+02   -.486E+01 0.486E+01 -.290E+02   0.568E-01 -.568E-01 -.486E+00   0.298E-03 -.298E-03 0.451E-02
   -.726E-11 0.864E-11 -.351E-11   0.261E-11 -.265E-11 -.266E-11   0.000E+00 0.000E+00 0.000E+00   0.798E-13 -.163E-12 0.416E-12
   0.259E+02 -.259E+02 0.837E+01   -.258E+02 0.258E+02 -.846E+01   -.172E+00 0.172E+00 0.883E-01   0.217E-02 -.217E-02 -.667E-03
   -.867E-12 0.895E-12 -.985E-12   -.750E-11 0.724E-11 -.603E-11   0.000E+00 0.000E+00 -.169E-20   -.961E-13 0.139E-12 -.291E-12
   -.259E+02 0.259E+02 -.837E+01   0.258E+02 -.258E+02 0.846E+01   0.172E+00 -.172E+00 -.883E-01   -.217E-02 0.217E-02 0.667E-03
   -.112E+01 0.112E+01 -.510E+02   0.896E+00 -.896E+00 0.445E+02   0.216E+00 -.216E+00 0.642E+01   -.815E-03 0.815E-03 -.159E-02
   -.966E+01 0.966E+01 -.189E+02   0.968E+01 -.968E+01 0.195E+02   -.390E-01 0.390E-01 -.572E+00   -.116E-02 0.116E-02 -.304E-02
   0.928E-13 -.820E-13 0.595E-12   -.480E-11 0.488E-11 0.324E-11   -.339E-20 0.339E-20 -.678E-20   0.152E-12 -.121E-12 0.239E-12
   0.966E+01 -.966E+01 0.189E+02   -.968E+01 0.968E+01 -.195E+02   0.390E-01 -.390E-01 0.572E+00   0.116E-02 -.116E-02 0.304E-02
   0.112E+01 -.112E+01 0.510E+02   -.896E+00 0.896E+00 -.445E+02   -.216E+00 0.216E+00 -.642E+01   0.815E-03 -.815E-03 0.159E-02
   -.478E-11 0.512E-11 -.284E-11   -.391E-13 -.178E-13 -.192E-11   0.339E-20 -.339E-20 0.000E+00   -.115E-12 0.472E-13 -.947E-13
   -.132E+01 -.337E+02 -.111E+02   0.135E+01 0.288E+02 0.111E+02   -.356E-01 0.492E+01 0.427E-01   0.423E-03 0.230E-02 -.154E-02
   0.132E+01 0.337E+02 0.111E+02   -.135E+01 -.288E+02 -.111E+02   0.356E-01 -.492E+01 -.427E-01   -.423E-03 -.230E-02 0.154E-02
   0.121E+02 -.456E+02 0.124E+02   -.122E+02 0.410E+02 -.123E+02   0.192E+00 0.462E+01 -.145E+00   0.197E-02 0.234E-03 0.238E-02
   0.104E+02 -.210E+02 0.125E+01   -.107E+02 0.229E+02 -.111E+01   0.261E+00 -.187E+01 -.132E+00   -.104E-02 -.262E-02 0.725E-03
   -.104E+02 0.210E+02 -.125E+01   0.107E+02 -.229E+02 0.111E+01   -.261E+00 0.187E+01 0.132E+00   0.104E-02 0.262E-02 -.725E-03
   -.121E+02 0.456E+02 -.124E+02   0.122E+02 -.410E+02 0.123E+02   -.192E+00 -.462E+01 0.145E+00   -.197E-02 -.234E-03 -.238E-02
   -.456E+02 0.121E+02 -.124E+02   0.410E+02 -.122E+02 0.123E+02   0.462E+01 0.192E+00 0.145E+00   0.234E-03 0.197E-02 -.238E-02
   0.337E+02 0.132E+01 -.111E+02   -.288E+02 -.135E+01 0.111E+02   -.492E+01 0.356E-01 0.427E-01   -.230E-02 -.423E-03 -.154E-02
   -.337E+02 -.132E+01 0.111E+02   0.288E+02 0.135E+01 -.111E+02   0.492E+01 -.356E-01 -.427E-01   0.230E-02 0.423E-03 0.154E-02
   0.456E+02 -.121E+02 0.124E+02   -.410E+02 0.122E+02 -.123E+02   -.462E+01 -.192E+00 -.145E+00   -.234E-03 -.197E-02 0.238E-02
   0.210E+02 -.104E+02 0.125E+01   -.229E+02 0.107E+02 -.111E+01   0.187E+01 -.261E+00 -.132E+00   0.262E-02 0.104E-02 0.725E-03
   -.210E+02 0.104E+02 -.125E+01   0.229E+02 -.107E+02 0.111E+01   -.187E+01 0.261E+00 0.132E+00   -.262E-02 -.104E-02 -.725E-03
   -.658E-10 0.732E-10 -.114E-09   0.426E-13 0.622E-13 -.130E-12   0.000E+00 -.888E-15 0.833E-15   -.180E-12 -.179E-12 -.989E-13

 POSITION                                       TOTAL-FORCE (eV/Angst)
      3.86790     -0.00010      7.78007         0.000722     -0.000722      0.025370
      0.02344     -0.02344      7.75463         0.035446     -0.035446      0.007558
      3.86741      0.00040      3.86312        -0.000000     -0.000000     -0.000000
     -0.02437      0.02437      3.83565        -0.035446      0.035446     -0.007558
     -0.00102      3.86883      3.81021        -0.000722      0.000722     -0.025370
      0.00000      0.00000      0.00000        -0.000000     -0.000000     -0.000000
     -1.93141      1.93141      5.79090         0.000404     -0.000404      0.026004
      1.93049     -1.93049      5.79938        -0.000404      0.000404     -0.026004
      1.93344      1.93437      5.79514        -0.000000     -0.000000     -0.000000
      1.93203      1.93578      9.65999        -0.004383      0.004383     -0.006156
     -1.93397      1.93397      1.93202        -0.000000     -0.000000     -0.000000
      1.93486      1.93295      1.93029         0.004383     -0.004383      0.006156
     -1.93297      1.93297      3.91815        -0.004100      0.004100     -0.022646
      1.93564      1.93217      3.85635        -0.022438      0.022438     -0.003882
      1.93350     -1.93350      3.86312        -0.000000     -0.000000     -0.000000
      1.93125      1.93656      7.73394         0.022438     -0.022438      0.003882
      1.93205     -1.93205      7.67214         0.004100     -0.004100      0.022646
      1.93390      1.93390      0.00000        -0.000000     -0.000000     -0.000000
      1.93337      3.90381      5.80153        -0.011072     -0.008867      0.017859
      1.93352     -0.03508      5.78876         0.011072      0.008867     -0.017859
      5.80381      0.03587      5.78635         0.017810     -0.000873     -0.016392
      1.93342     -0.02794      9.65560         0.026611      0.023748      0.000611
      1.93347      3.89667      1.93468        -0.026611     -0.023748     -0.000611
     -1.93693      3.83286      5.80393        -0.017810      0.000873      0.016392
      0.03495      5.80474      5.80393        -0.000873      0.017810      0.016392
     -0.03600      1.93444      5.80153         0.008867      0.011072      0.017859
      3.90289      1.93429      5.78876        -0.008867     -0.011072     -0.017859
      3.83194     -1.93600      5.78635         0.000873     -0.017810     -0.016392
      3.89575      1.93439      9.65560        -0.023748     -0.026611      0.000611
     -0.02886      1.93434      1.93468         0.023748      0.026611     -0.000611
    total drift:                               -0.000000      0.000000     -0.000000

  FREE ENERGIE OF THE ION-ELECTRON SYSTEM (eV)
  free  energy   TOTEN  =      -213.97623539 eV

  energy  without entropy=     -213.97623539  energy(sigma->0) =     -213.97623539

 total charge

[...]

 magnetization (x)

# of ion       s       p       d       f       tot
    1        0.000   0.000   0.006   0.002   0.009
    2        0.001   0.001   0.007   0.003   0.011
    3        0.001   0.001   0.008   0.003   0.013
    4        0.001   0.001   0.007   0.003   0.011
    5        0.000   0.000   0.006   0.002   0.009
    6        0.000   0.001   0.006   0.003   0.010
    7        0.025   0.032   3.196   0.000   3.252
    8        0.025   0.032   3.196   0.000   3.252
    9        0.007   0.000   1.566   0.000   1.573
   10        0.012   0.005   1.510   0.000   1.528
   11        0.017   0.007   1.390   0.000   1.413
   12        0.012   0.005   1.510   0.000   1.528
   13        0.006  -0.035   0.000   0.000  -0.029
   14        0.005  -0.075   0.000   0.000  -0.070
   15        0.002  -0.016   0.000   0.000  -0.014
   16        0.005  -0.075   0.000   0.000  -0.070
   17        0.006  -0.035   0.000   0.000  -0.029
   18        0.005  -0.076   0.000   0.000  -0.071
   19        0.005  -0.019   0.000   0.000  -0.015
   20        0.005  -0.019   0.000   0.000  -0.015
   21        0.005  -0.019   0.000   0.000  -0.014
   22        0.006  -0.060   0.000   0.000  -0.054
   23        0.006  -0.060   0.000   0.000  -0.054
   24        0.005  -0.018   0.000   0.000  -0.014
   25        0.004  -0.026   0.000   0.000  -0.022
   26        0.004  -0.028   0.000   0.000  -0.024
   27        0.004  -0.028   0.000   0.000  -0.024
   28        0.004  -0.026   0.000   0.000  -0.022
   29        0.005  -0.069   0.000   0.000  -0.064
   30        0.005  -0.069   0.000   0.000  -0.064
tot          0.186  -0.668  12.410   0.017  11.945

 BZINTS: Fermi energy:  7.444686;228.000000 electrons
         Band energy:-288.263238;  BLOECHL correction: -0.030348