 vasp.5.4.4.18Apr17-6-g9f103f2a35 (build Oct 03 2018 13:58:34) complex

 executed on             LinuxIFC date 2019.06.04  00:35:22

 INCAR:
 POTCAR:    PAW_PBE La 06Sep2000
 POTCAR:    PAW_PBE Mn 06Sep2000
 POTCAR:    PAW_PBE Ni 02Aug2007
 POTCAR:    PAW_PBE O 08Apr2002

 POTCAR:    PAW_PBE La 06Sep2000
   VRHFIN =La : [core=Kr4d]

   TITEL  = PAW_PBE La 06Sep2000
   POMASS =  138.900; ZVAL   =   11.000    mass and valenz
   ENMAX  =  219.292; ENMIN  =  164.469 eV

 POTCAR:    PAW_PBE Mn 06Sep2000
   VRHFIN =Mn: d6 s1

   TITEL  = PAW_PBE Mn 06Sep2000
   POMASS =   54.938; ZVAL   =    7.000    mass and valenz
   ENMAX  =  269.864; ENMIN  =  202.398 eV

 POTCAR:    PAW_PBE Ni 02Aug2007
   VRHFIN =Ni:

   TITEL  = PAW_PBE Ni 02Aug2007
   POMASS =   58.690; ZVAL   =   10.000    mass and valenz
   ENMAX  =  269.532; ENMIN  =  202.149 eV

 POTCAR:    PAW_PBE O 08Apr2002
   VRHFIN =O: s2p4

   TITEL  = PAW_PBE O 08Apr2002
   POMASS =   16.000; ZVAL   =    6.000    mass and valenz
   ENMAX  =  400.000; ENMIN  =  300.000 eV

 Optimization of the real space projectors (new method)

 maximal supplied QI-value         = 13.42
 optimisation between [QCUT,QGAM] = [ 11.67, 23.35] = [ 38.16,152.62] Ry
 Optimized for a Real-space Cutoff    1.63 Angstroem

   l    n(q)    QCUT    max X(q) W(low)/X(q) W(high)/X(q)  e(spline)
   0     11    11.673    13.882    0.27E-04    0.79E-05    0.11E-06
   0     11    11.673    12.184    0.39E-04    0.13E-04    0.19E-06
   1     11    11.673     4.523    0.73E-05    0.76E-05    0.12E-06
   1     11    11.673     4.424    0.87E-05    0.13E-04    0.19E-06
   2     10    11.673    52.481    0.65E-04    0.36E-04    0.18E-06
   2     10    11.673    38.501    0.61E-04    0.33E-04    0.17E-06
   3     10    11.673    65.631    0.17E-03    0.14E-03    0.37E-06
   3     10    11.673    56.854    0.17E-03    0.14E-03    0.37E-06
 Optimization of the real space projectors (new method)

[...]

   l    n(q)    QCUT    max X(q) W(low)/X(q) W(high)/X(q)  e(spline)
   2      9    11.539    60.317    0.19E-03    0.47E-04    0.16E-06
   2      9    11.539    55.921    0.19E-03    0.48E-04    0.16E-06
   0     10    11.539    51.690    0.80E-04    0.50E-04    0.24E-06
   0     10    11.539    30.015    0.73E-04    0.45E-04    0.22E-06
   1     10    11.539    18.849    0.87E-04    0.16E-03    0.71E-07
   1     10    11.539    14.624    0.73E-04    0.13E-03    0.64E-07
 Optimization of the real space projectors (new method)

 maximal supplied QI-value         = 24.76
 optimisation between [QCUT,QGAM] = [ 11.64, 23.27] = [ 37.91,151.63] Ry
 Optimized for a Real-space Cutoff    1.14 Angstroem

   l    n(q)    QCUT    max X(q) W(low)/X(q) W(high)/X(q)  e(spline)
   0      8    11.635    20.381    0.10E-03    0.33E-03    0.24E-06
   0      8    11.635    15.268    0.11E-03    0.35E-03    0.26E-06
   1      7    11.635     5.964    0.24E-03    0.31E-03    0.30E-06
   1      7    11.635     5.382    0.22E-03    0.25E-03    0.26E-06
  PAW_PBE La 06Sep2000                  :
  PAW_PBE Mn 06Sep2000                  :
  PAW_PBE Ni 02Aug2007                  :
  PAW_PBE O 08Apr2002                   :

 POSCAR: SCEL5_1_1_5_0_0_0/3
  positions in direct lattice
  velocities in cartesian coordinates
 exchange correlation table for  LEXCH =        8
   RHO(1)=    0.500       N(1)  =     2000
   RHO(2)=  100.500       N(2)  =     4000

 ion  position               nearest neighbor table
   1  0.000  0.000  0.204-  19 2.69  24 2.69  24 2.69  19 2.69  14 2.74  14 2.74  14 2.74  14 2.74
                             9 3.31   9 3.31   9 3.31   9 3.31
   2  0.000  0.000  0.396-  19 2.69  24 2.69  24 2.69  19 2.69  13 2.74  13 2.74  13 2.74  13 2.74
                             9 3.31   9 3.31   9 3.31   9 3.31
   3  0.000  0.000  0.588-  18 2.56  23 2.56  23 2.56  18 2.56  12 2.75  12 2.75  12 2.75  12 2.75
                             8 3.25   8 3.25   8 3.25   8 3.25
   4  0.000  0.000  0.800-  17 2.69  22 2.69  22 2.69  17 2.69  21 2.69  21 2.69  16 2.69  16 2.69
                            11 2.74  11 2.74  11 2.74  11 2.74   6 3.37   6 3.37   6 3.37   6 3.37
   5  0.000  0.000  0.012-  20 2.56  25 2.56  25 2.56  20 2.56  15 2.75  15 2.75  15 2.75  15 2.75
                            10 3.25  10 3.25  10 3.25  10 3.25
   6  0.500  0.500  0.699-  12 1.87  17 1.94  22 1.94  17 1.94  22 1.94  11 1.96   4 3.37   4 3.37
                             4 3.37   4 3.37
   7  0.500  0.500  0.901-  15 1.87  16 1.94  21 1.94  16 1.94  21 1.94  11 1.96   4 3.37   4 3.37
                             4 3.37   4 3.37
   8  0.500  0.500  0.498-  18 1.94  23 1.94  18 1.94  23 1.94  13 1.97  12 2.04   3 3.25   3 3.25
                             3 3.25   3 3.25
   9  0.500  0.500  0.300-  14 1.89  13 1.89  19 1.94  24 1.94  19 1.94  24 1.94   1 3.31   1 3.31
                             1 3.31   1 3.31   2 3.31   2 3.31   2 3.31   2 3.31
  10  0.500  0.500  0.102-  20 1.94  25 1.94  20 1.94  25 1.94  14 1.97  15 2.04   5 3.25   5 3.25
                             5 3.25   5 3.25
  11  0.500  0.500  0.800-   6 1.96   7 1.96   4 2.74   4 2.74   4 2.74   4 2.74
  12  0.500  0.500  0.603-   6 1.87   8 2.04   3 2.75   3 2.75   3 2.75   3 2.75
  13  0.500  0.500  0.397-   9 1.89   8 1.97   2 2.74   2 2.74   2 2.74   2 2.74
  14  0.500  0.500  0.203-   9 1.89  10 1.97   1 2.74   1 2.74   1 2.74   1 2.74
  15  0.500  0.500  0.997-   7 1.87  10 2.04   5 2.75   5 2.75   5 2.75   5 2.75
  16  0.500  0.000  0.896-   7 1.94   7 1.94   4 2.69   4 2.69
  17  0.500  0.000  0.704-   6 1.94   6 1.94   4 2.69   4 2.69
  18  0.500  0.000  0.502-   8 1.94   8 1.94   3 2.56   3 2.56
  19  0.500  0.000  0.300-   9 1.94   9 1.94   1 2.69   1 2.69   2 2.69   2 2.69
  20  0.500  0.000  0.098-  10 1.94  10 1.94   5 2.56   5 2.56
  21  0.000  0.500  0.896-   7 1.94   7 1.94   4 2.69   4 2.69
  22  0.000  0.500  0.704-   6 1.94   6 1.94   4 2.69   4 2.69
  23  0.000  0.500  0.502-   8 1.94   8 1.94   3 2.56   3 2.56
  24  0.000  0.500  0.300-   9 1.94   9 1.94   1 2.69   1 2.69   2 2.69   2 2.69
  25  0.000  0.500  0.098-  10 1.94  10 1.94   5 2.56   5 2.56

  LATTYP: Found a simple tetragonal cell.
 ALAT       =     3.8730972560
 C/A-ratio  =     5.0274259920

  Lattice vectors:

 A1 = (   3.8730972560,   0.0000000000,   0.0000000000)
 A2 = (   0.0000000000,   3.8730972560,   0.0000000000)
 A3 = (   0.0000000000,   0.0000000000,  19.4717098142)

Analysis of symmetry for initial positions (statically):
 Subroutine PRICEL returns:
 Original cell was already a primitive cell.

 Routine SETGRP: Setting up the symmetry group for a
 simple tetragonal supercell.

 Subroutine GETGRP returns: Found 16 space group operations
 (whereof  8 operations were pure point group operations)
 out of a pool of 16 trial point group operations.

The static configuration has the point symmetry C_4v.
 The point group associated with its full space group is D_4h.

Analysis of symmetry for dynamics (positions and initial velocities):
 Subroutine PRICEL returns:
 Original cell was already a primitive cell.

[...]

The dynamic configuration has the point symmetry C_4v.
 The point group associated with its full space group is D_4h.

Analysis of structural, dynamic, and magnetic symmetry:
 Subroutine PRICEL returns:
 Original cell was already a primitive cell.

 Routine SETGRP: Setting up the symmetry group for a
 simple tetragonal supercell.

 Subroutine GETGRP returns: Found 16 space group operations
 (whereof  8 operations were pure point group operations)
 out of a pool of 16 trial point group operations.

The magnetic configuration has the point symmetry C_4v.
 The point group associated with its full space group is D_4h.

 Subroutine INISYM returns: Found 16 space group operations
 (whereof  8 operations are pure point group operations),
 and found     1 'primitive' translations

 KPOINTS: Automatic mesh

Automatic generation of k-mesh.
 generate k-points for:    5    5    1
Space group operators:
 irot       det(A)        alpha          n_x          n_y          n_z        tau_x        tau_y        tau_z
    1     1.000000     0.000001     1.000000     0.000000     0.000000     0.000000     0.000000     0.000000
    2     1.000000    90.000000     0.000000     0.000000    -1.000000     0.000000     0.000000     0.000000
    3     1.000000   179.999999     0.000000     0.000000     1.000000     0.000000     0.000000     0.000000
    4     1.000000    90.000000     0.000000     0.000000     1.000000     0.000000     0.000000     0.000000
    5    -1.000000   180.000000     0.000000     1.000000     0.000000     0.000000     0.000000     0.000000
    6    -1.000000   180.000000     0.707107     0.707107     0.000000     0.000000     0.000000     0.000000
    7    -1.000000   180.000000     1.000000     0.000000     0.000000     0.000000     0.000000     0.000000
    8    -1.000000   180.000000     0.707107    -0.707107     0.000000     0.000000     0.000000     0.000000
    9    -1.000000     0.000001     1.000000     0.000000     0.000000     0.000000     0.000000     0.600000
   10    -1.000000    90.000000     0.000000     0.000000    -1.000000     0.000000     0.000000     0.600000
   11    -1.000000   179.999999     0.000000     0.000000     1.000000     0.000000     0.000000     0.600000
   12    -1.000000    90.000000     0.000000     0.000000     1.000000     0.000000     0.000000     0.600000
   13     1.000000   180.000000     0.000000     1.000000     0.000000     0.000000     0.000000     0.600000
   14     1.000000   180.000000     0.707107     0.707107     0.000000     0.000000     0.000000     0.600000
   15     1.000000   180.000000     1.000000     0.000000     0.000000     0.000000     0.000000     0.600000
   16     1.000000   180.000000     0.707107    -0.707107     0.000000     0.000000     0.000000     0.600000

 Subroutine IBZKPT returns following result:

 Found      6 irreducible k-points:

 Following reciprocal coordinates:
            Coordinates               Weight
  0.000000  0.000000  0.000000      1.000000
  0.200000  0.000000  0.000000      4.000000
  0.400000  0.000000  0.000000      4.000000
  0.200000  0.200000  0.000000      4.000000
  0.400000  0.200000  0.000000      8.000000
  0.400000  0.400000  0.000000      4.000000

 Following cartesian coordinates:
            Coordinates               Weight
  0.000000  0.000000  0.000000      1.000000
  0.051638  0.000000  0.000000      4.000000
  0.103277  0.000000  0.000000      4.000000
  0.051638  0.051638  0.000000      4.000000
  0.103277  0.051638  0.000000      8.000000
  0.103277  0.103277  0.000000      4.000000

 TETIRR: Found     31 inequivalent tetrahedra from      150

 SYSTEM =  final
 POSCAR =  SCEL5_1_1_5_0_0_0/3

 Startparameter for this run:
   NWRITE =      2    write-flag & timer
   PREC   = accura    normal or accurate (medium, high low for compatibility)
   ISTART =      0    job   : 0-new  1-cont  2-samecut
   ICHARG =      1    charge: 1-file 2-atom 10-const
   ISPIN  =      2    spin polarized calculation?
   LNONCOLLINEAR =      F non collinear calculations
   LSORBIT =      F    spin-orbit coupling
   INIWAV =      1    electr: 0-lowe 1-rand  2-diag
[...]
       1 -95.2088       2 -95.2088       3 -95.2962       4 -95.4059       5 -95.2962
       6 -43.1681       7 -43.1681       8 -83.7263       9 -83.8344      10 -83.7263
      11 -67.2006      12 -67.0928      13 -66.5623      14 -66.5623      15 -67.0928
      16 -67.2627      17 -67.2627      18 -66.6696      19 -66.6450      20 -66.6696
      21 -67.2627      22 -67.2627      23 -66.6696      24 -66.6450      25 -66.6696

 E-fermi :   7.6148     XC(G=0): -11.7243     alpha+bet :-16.5661

[...]

 k-point     1 :       0.0000    0.0000    0.0000
  band No.  band energies     occupation
      1     -23.9419      1.00000
      2     -23.8285      1.00000
      3     -23.8282      1.00000
      4     -23.6972      1.00000
      5     -23.6503      1.00000
      6     -11.4293      1.00000
      7     -11.2239      1.00000
      8     -11.0301      1.00000
      9     -10.8967      1.00000
     10     -10.7131      1.00000
     11      -9.9321      1.00000
     12      -9.8926      1.00000
     13      -9.8905      1.00000
     14      -9.8585      1.00000
     15      -9.8022      1.00000
     16      -9.4168      1.00000
     17      -9.4149      1.00000
     18      -9.3634      1.00000
     19      -9.3191      1.00000
     20      -9.3081      1.00000
     21      -7.4808      1.00000
     22      -7.4808      1.00000
     23      -7.3462      1.00000
     24      -7.3462      1.00000
     25      -7.3452      1.00000
     26      -7.3452      1.00000
     27      -7.2602      1.00000
     28      -7.1677      1.00000
     29      -7.1677      1.00000
     30      -7.0905      1.00000
     31      -7.0905      1.00000
     32      -6.9623      1.00000
     33      -6.8959      1.00000
     34      -6.5672      1.00000
     35      -6.4381      1.00000
     36       0.5836      1.00000
     37       0.8286      1.00000
     38       1.8521      1.00000
     39       1.9414      1.00000
     40       2.0616      1.00000
     41       2.0616      1.00000
     42       2.2412      1.00000
     43       2.2412      1.00000
     44       2.3762      1.00000
     45       2.3762      1.00000
     46       2.4755      1.00000
     47       2.4755      1.00000
     48       2.6044      1.00000
     49       2.6044      1.00000
     50       2.6708      1.00000
     51       2.6741      1.00000
     52       2.6851      1.00000
     53       2.8520      1.00000
     54       2.8651      1.00000
     55       2.8715      1.00000
     56       2.8716      1.00000
     57       2.9177      1.00000
     58       2.9177      1.00000
     59       2.9649      1.00000
     60       3.1064      1.00000
[...]
    108      10.6641      0.00000
    109      10.7201      0.00000
    110      10.8061      0.00000
    111      10.8744      0.00000
    112      10.9375      0.00000
    113      11.0459      0.00000
    114      11.1247      0.00000
    115      11.1638      0.00000
    116      11.1827      0.00000
    117      11.2079      0.00000
    118      11.2664      0.00000
    119      11.2909      0.00000
    120      11.3178      0.00000
    121      11.3297      0.00000
    122      11.3773      0.00000

[...]

 spin component 2

[...]

 k-point     6 :       0.4000    0.4000    0.0000
  band No.  band energies     occupation
      1     -23.8200      1.00000
      2     -23.7121      1.00000
      3     -23.7121      1.00000
      4     -23.5883      1.00000
      5     -23.5510      1.00000
      6     -10.8148      1.00000
      7     -10.5151      1.00000
      8     -10.4378      1.00000
      9     -10.4301      1.00000
     10     -10.1725      1.00000
     11     -10.1710      1.00000
     12     -10.1638      1.00000
     13     -10.0897      1.00000
     14     -10.0269      1.00000
     15      -9.9192      1.00000
     16      -9.8487      1.00000
     17      -9.7985      1.00000
     18      -9.7786      1.00000
     19      -9.5025      1.00000
     20      -9.4051      1.00000
     21      -7.7773      1.00000
     22      -7.6643      1.00000
     23      -7.6563      1.00000
     24      -7.5494      1.00000
     25      -7.5340      1.00000
     26      -7.4286      1.00000
     27      -7.4259      1.00000
     28      -7.2893      1.00000
     29      -7.2119      1.00000
     30      -7.0489      1.00000
     31      -7.0380      1.00000
     32      -7.0156      1.00000
     33      -6.8355      1.00000
     34      -6.7527      1.00000
     35      -6.6559      1.00000
     36       1.0413      1.00000
     37       1.1402      1.00000
     38       1.5236      1.00000
     39       1.5486      1.00000
     40       1.7921      1.00000
     41       1.9525      1.00000
     42       2.1747      1.00000
     43       2.3369      1.00000
     44       2.4254      1.00000
     45       2.4945      1.00000
     46       2.6800      1.00000
     47       2.7175      1.00000
     48       2.7304      1.00000
     49       2.7415      1.00000
     50       2.7570      1.00000
     51       2.8513      1.00000
     52       2.8680      1.00000
     53       3.0369      1.00000
     54       3.2783      1.00000
     55       3.4065      1.00000
     56       3.5519      1.00000
     57       3.5574      1.00000
     58       3.5967      1.00000
     59       3.6832      1.00000
     60       3.9407      1.00000
[...]
    108      11.1617      0.00000
    109      11.1768      0.00000
    110      11.1865      0.00000
    111      11.2128      0.00000
    112      11.2596      0.00000
    113      11.2677      0.00000
    114      11.2835      0.00000
    115      11.3094      0.00000
    116      11.3180      0.00000
    117      11.3359      0.00000
    118      11.3469      0.00000
    119      11.3626      0.00000
    120      11.3828      0.00000
    121      11.4240      0.00000
    122      11.4538      0.00000

 soft charge-density along one line, spin component           1
         0         1         2         3         4         5         6         7         8         9
 total charge-density along one line

 soft charge-density along one line, spin component           2
         0         1         2         3         4         5         6         7         8         9
 total charge-density along one line

------------------------ aborting loop because EDIFF is reached ----------------------------------------

 total charge

# of ion       s       p       d       f       tot
    1        2.000   5.697   0.486   0.187   8.371
    2        2.000   5.697   0.486   0.187   8.371
    3        2.005   5.696   0.525   0.199   8.425
    4        2.002   5.705   0.511   0.200   8.418
    5        2.005   5.696   0.525   0.199   8.425
    6        0.336   0.511   4.863   0.000   5.710
    7        0.336   0.511   4.863   0.000   5.710
    8        0.410   0.599   8.316   0.000   9.326
    9        0.438   0.671   8.327   0.000   9.436
   10        0.410   0.599   8.316   0.000   9.326
   11        1.562   3.469   0.000   0.000   5.031
   12        1.564   3.445   0.000   0.000   5.009
   13        1.560   3.435   0.000   0.000   4.996
   14        1.560   3.435   0.000   0.000   4.996
   15        1.564   3.445   0.000   0.000   5.009
   16        1.559   3.521   0.000   0.000   5.080
   17        1.559   3.521   0.000   0.000   5.080
   18        1.557   3.509   0.000   0.000   5.066
   19        1.560   3.522   0.000   0.000   5.082
   20        1.557   3.509   0.000   0.000   5.066
   21        1.571   3.385   0.000   0.000   4.956
   22        1.571   3.385   0.000   0.000   4.956
   23        1.562   3.400   0.000   0.000   4.962
   24        1.565   3.362   0.000   0.000   4.927
   25        1.562   3.400   0.000   0.000   4.962
tot         35.378  83.126  37.220   0.972 156.696

 magnetization (x)

[...]

  FORCE on cell =-STRESS in cart. coord.  units (eV):
  Direction    XX          YY          ZZ          XY          YZ          ZX
  Alpha Z   818.56931   818.56931   818.56931
  Ewald   -4079.25338 -4079.25338 -4728.46547    -0.00000     0.00000    -0.00000
  Hartree  1284.78607  1284.78607   685.97362    -0.00000    -0.00000    -0.00000
  E(xc)    -882.12565  -882.12565  -882.39830    -0.00000    -0.00000     0.00000
  Local   -1189.48116 -1189.48116    64.10788     0.00000     0.00000    -0.00000
  n-local   356.97841   349.36663   353.91949    -2.24500     0.00002    -0.00112
  augment   479.76232   479.76232   478.19540    -0.00000    -0.00000     0.00000
  Kinetic  3171.82062  3257.92447  3210.55639    -8.62128     0.00029     0.00065
  Fock        0.00000     0.00000     0.00000     0.00000     0.00000     0.00000
  Total       0.30258     0.30258     0.45831     0.00000     0.00000     0.00000
  in kB       1.65970     1.65970     2.51392     0.00000     0.00000     0.00000

 VOLUME and BASIS-vectors are now :
  energy-cutoff  :      520.00
  volume of cell :      292.09
      direct lattice vectors                 reciprocal lattice vectors
     3.873097256  0.000000000  0.000000000     0.258191296  0.000000000  0.000000000
     0.000000000  3.873097256  0.000000000     0.000000000  0.258191296  0.000000000
     0.000000000  0.000000000 19.471709814     0.000000000  0.000000000  0.051356558

  length of vectors
     3.873097256  3.873097256 19.471709814     0.258191296  0.258191296  0.051356558

 FORCES acting on ions
    electron-ion (+dipol)            ewald-force                    non-local-force                 convergence-correction
   0.755E-15 -.462E-13 0.149E+03   0.211E-13 0.166E-13 -.147E+03   0.000E+00 -.136E-19 -.861E+00   -.118E-13 0.926E-14 -.198E+00
   -.434E-14 0.183E-13 -.149E+03   0.236E-14 0.136E-13 0.147E+03   0.000E+00 0.000E+00 0.861E+00   -.465E-14 -.382E-14 0.198E+00
   -.123E-13 0.356E-13 -.360E+03   -.153E-13 0.110E-13 0.358E+03   0.000E+00 0.542E-19 0.248E+01   -.206E-14 0.354E-14 -.102E+00
   -.110E-13 -.141E-13 -.212E-11   0.179E-13 0.120E-14 0.757E-10   0.000E+00 0.000E+00 -.217E-18   -.534E-14 0.108E-13 0.117E-11
   -.208E-15 -.765E-13 0.360E+03   0.593E-14 0.429E-14 -.358E+03   0.000E+00 0.542E-19 -.248E+01   -.196E-13 0.159E-13 0.102E+00
   0.624E-13 0.196E-11 -.708E+02   -.112E-13 -.185E-13 0.700E+02   0.000E+00 0.424E-21 0.734E+00   0.295E-13 0.155E-13 -.426E-01
   0.491E-13 0.997E-12 0.708E+02   -.111E-13 -.158E-13 -.700E+02   0.000E+00 -.847E-21 -.734E+00   0.371E-13 -.283E-15 0.426E-01
   0.291E-12 0.865E-12 -.175E+03   0.195E-13 -.625E-14 0.174E+03   0.000E+00 -.424E-21 0.177E+01   0.572E-13 0.381E-13 0.914E-01
   0.269E-12 0.158E-11 -.131E-10   -.182E-13 -.823E-14 0.109E-09   0.000E+00 0.000E+00 0.678E-20   0.768E-13 0.143E-13 -.318E-11
   0.322E-12 0.963E-12 0.175E+03   -.826E-15 0.850E-14 -.174E+03   0.000E+00 0.000E+00 -.177E+01   0.809E-13 -.765E-14 -.914E-01
   0.116E-12 0.159E-11 -.903E-11   -.197E-13 0.139E-14 0.285E-10   0.000E+00 -.212E-21 -.203E-19   0.469E-13 -.159E-13 0.775E-12
   0.128E-12 0.418E-12 -.175E+03   0.135E-13 0.340E-14 0.169E+03   0.000E+00 -.424E-21 0.690E+01   0.341E-13 -.206E-13 -.118E+00
   0.118E-12 0.172E-11 -.936E+02   -.144E-13 0.106E-13 0.959E+02   0.000E+00 0.169E-20 -.224E+01   0.420E-13 -.197E-13 0.132E+00
   0.108E-12 0.411E-12 0.936E+02   -.138E-13 0.117E-13 -.959E+02   0.000E+00 0.000E+00 0.224E+01   0.407E-13 -.140E-13 -.132E+00
   0.109E-12 0.116E-11 0.175E+03   0.124E-13 -.357E-14 -.169E+03   0.000E+00 0.000E+00 -.690E+01   0.482E-13 -.140E-13 0.118E+00
   0.126E-12 -.365E-14 0.465E+02   -.139E-13 0.182E-13 -.459E+02   0.169E-20 -.339E-20 -.686E+00   0.410E-13 0.281E-13 0.257E-01
   0.124E-12 0.257E-13 -.465E+02   -.178E-13 0.157E-13 0.459E+02   0.000E+00 0.339E-20 0.686E+00   0.440E-13 0.135E-14 -.257E-01
   0.122E-12 0.294E-13 -.102E+03   -.619E-14 -.499E-14 0.996E+02   0.000E+00 -.339E-20 0.190E+01   0.362E-13 0.158E-13 0.454E-01
   0.120E-12 0.194E-13 -.288E-11   -.125E-13 0.947E-14 0.439E-10   0.000E+00 0.000E+00 -.762E-20   0.417E-13 0.316E-13 -.184E-11
   0.114E-12 0.294E-13 0.102E+03   -.121E-13 -.788E-14 -.996E+02   0.000E+00 0.339E-20 -.190E+01   0.487E-13 0.517E-13 -.454E-01
   -.104E-13 0.150E-12 0.465E+02   0.254E-13 0.247E-14 -.459E+02   0.000E+00 0.000E+00 -.686E+00   -.206E-13 -.215E-13 0.257E-01
   -.132E-13 0.242E-12 -.465E+02   0.214E-13 -.259E-14 0.459E+02   0.000E+00 0.339E-20 0.686E+00   -.110E-13 -.198E-13 -.257E-01
   -.376E-14 -.279E-12 -.102E+03   -.428E-14 -.621E-14 0.996E+02   0.000E+00 -.339E-20 0.190E+01   -.279E-14 -.912E-14 0.454E-01
   -.791E-14 -.985E-13 -.548E-11   0.278E-14 -.130E-13 0.383E-10   -.847E-21 0.000E+00 -.678E-20   -.174E-13 -.219E-13 -.182E-11
   -.125E-13 0.917E-13 0.102E+03   -.336E-15 -.573E-14 -.996E+02   0.169E-20 0.000E+00 -.190E+01   -.230E-13 -.251E-13 -.454E-01
   0.210E-11 0.118E-10 -.123E-08   -.294E-13 0.356E-13 -.853E-13   0.254E-20 0.951E-19 0.222E-14   0.587E-12 0.424E-13 -.136E-11

 POSITION                                       TOTAL-FORCE (eV/Angst)
      0.00000      0.00000      3.97499         0.000000     -0.000000      0.087898
      0.00000      0.00000      7.70804        -0.000000     -0.000000     -0.087898
      0.00000      0.00000     11.45072         0.000000     -0.000000     -0.031317
      0.00000      0.00000     15.57737         0.000000     -0.000000     -0.000000
      0.00000      0.00000      0.23230         0.000000      0.000000      0.031317
      1.93655      1.93655     13.61631         0.000000     -0.000000     -0.047752
      1.93655      1.93655     17.53843         0.000000      0.000000      0.047752
      1.93655      1.93655      9.70315         0.000000     -0.000000     -0.041619
      1.93655      1.93655      5.84151         0.000000      0.000000     -0.000000
      1.93655      1.93655      1.97988         0.000000     -0.000000      0.041619
      1.93655      1.93655     15.57737         0.000000      0.000000     -0.000000
      1.93655      1.93655     11.74468         0.000000     -0.000000      0.025633
      1.93655      1.93655      7.73581         0.000000      0.000000      0.175298
      1.93655      1.93655      3.94722         0.000000     -0.000000     -0.175298
      1.93655      1.93655     19.41006         0.000000      0.000000     -0.025633
      1.93655      0.00000     17.45030         0.000000     -0.000000     -0.018250
      1.93655      0.00000     13.70444         0.000000     -0.000000      0.018250
      1.93655      0.00000      9.77840         0.000000     -0.000000      0.013869
      1.93655      0.00000      5.84151        -0.000000     -0.000000     -0.000000
      1.93655      0.00000      1.90463         0.000000     -0.000000     -0.013869
      0.00000      1.93655     17.45030         0.000000      0.000000     -0.018250
      0.00000      1.93655     13.70444         0.000000     -0.000000      0.018250
      0.00000      1.93655      9.77840         0.000000     -0.000000      0.013869
      0.00000      1.93655      5.84151         0.000000     -0.000000     -0.000000
      0.00000      1.93655      1.90463         0.000000      0.000000     -0.013869
    total drift:                                0.000000      0.000000     -0.000000

  FREE ENERGIE OF THE ION-ELECTRON SYSTEM (eV)
  free  energy   TOTEN  =      -180.06360154 eV

  energy  without entropy=     -180.06360154  energy(sigma->0) =     -180.06360154

 total charge

[...]

 magnetization (x)

# of ion       s       p       d       f       tot
    1        0.001  -0.001   0.005   0.002   0.006
    2        0.001  -0.001   0.005   0.002   0.006
    3        0.001   0.000   0.008   0.005   0.013
    4        0.001   0.001   0.015   0.006   0.024
    5        0.001   0.000   0.008   0.005   0.013
    6        0.023   0.017   3.460   0.000   3.501
    7        0.023   0.017   3.460   0.000   3.501
    8        0.017   0.011   1.555   0.000   1.583
    9        0.019   0.019   1.327   0.000   1.364
   10        0.017   0.011   1.555   0.000   1.583
   11        0.001  -0.032   0.000   0.000  -0.031
   12        0.005  -0.043   0.000   0.000  -0.038
   13        0.006  -0.068   0.000   0.000  -0.063
   14        0.006  -0.068   0.000   0.000  -0.063
   15        0.005  -0.043   0.000   0.000  -0.038
   16        0.009  -0.076   0.000   0.000  -0.067
   17        0.009  -0.075   0.000   0.000  -0.067
   18        0.011  -0.029   0.000   0.000  -0.019
   19        0.012  -0.030   0.000   0.000  -0.018
   20        0.011  -0.030   0.000   0.000  -0.019
   21       -0.000  -0.042   0.000   0.000  -0.043
   22       -0.000  -0.042   0.000   0.000  -0.043
   23        0.002  -0.049   0.000   0.000  -0.047
   24        0.001  -0.093   0.000   0.000  -0.092
   25        0.002  -0.049   0.000   0.000  -0.047
tot          0.180  -0.694  11.397   0.019  10.902

 BZINTS: Fermi energy:  7.614781;189.000000 electrons
         Band energy:-265.320456;  BLOECHL correction: -0.192280