 vasp.5.4.4.18Apr17-6-g9f103f2a35 (build Oct 03 2018 13:58:34) complex

 executed on             LinuxIFC date 2019.06.04  01:29:35

 INCAR:
 POTCAR:    PAW_PBE La 06Sep2000
 POTCAR:    PAW_PBE Mn 06Sep2000
 POTCAR:    PAW_PBE Ni 02Aug2007
 POTCAR:    PAW_PBE O 08Apr2002

 POTCAR:    PAW_PBE La 06Sep2000
   VRHFIN =La : [core=Kr4d]

   TITEL  = PAW_PBE La 06Sep2000
   POMASS =  138.900; ZVAL   =   11.000    mass and valenz
   ENMAX  =  219.292; ENMIN  =  164.469 eV

 POTCAR:    PAW_PBE Mn 06Sep2000
   VRHFIN =Mn: d6 s1

   TITEL  = PAW_PBE Mn 06Sep2000
   POMASS =   54.938; ZVAL   =    7.000    mass and valenz
   ENMAX  =  269.864; ENMIN  =  202.398 eV

 POTCAR:    PAW_PBE Ni 02Aug2007
   VRHFIN =Ni:

   TITEL  = PAW_PBE Ni 02Aug2007
   POMASS =   58.690; ZVAL   =   10.000    mass and valenz
   ENMAX  =  269.532; ENMIN  =  202.149 eV

 POTCAR:    PAW_PBE O 08Apr2002
   VRHFIN =O: s2p4

   TITEL  = PAW_PBE O 08Apr2002
   POMASS =   16.000; ZVAL   =    6.000    mass and valenz
   ENMAX  =  400.000; ENMIN  =  300.000 eV

 Optimization of the real space projectors (new method)

 maximal supplied QI-value         = 13.42
 optimisation between [QCUT,QGAM] = [ 11.67, 23.35] = [ 38.16,152.62] Ry
 Optimized for a Real-space Cutoff    1.63 Angstroem

   l    n(q)    QCUT    max X(q) W(low)/X(q) W(high)/X(q)  e(spline)
   0     11    11.673    13.882    0.27E-04    0.79E-05    0.11E-06
   0     11    11.673    12.184    0.39E-04    0.13E-04    0.19E-06
   1     11    11.673     4.523    0.73E-05    0.76E-05    0.12E-06
   1     11    11.673     4.424    0.87E-05    0.13E-04    0.19E-06
   2     10    11.673    52.481    0.65E-04    0.36E-04    0.18E-06
   2     10    11.673    38.501    0.61E-04    0.33E-04    0.17E-06
   3     10    11.673    65.631    0.17E-03    0.14E-03    0.37E-06
   3     10    11.673    56.854    0.17E-03    0.14E-03    0.37E-06
 Optimization of the real space projectors (new method)

[...]

   l    n(q)    QCUT    max X(q) W(low)/X(q) W(high)/X(q)  e(spline)
   2      9    11.539    60.317    0.19E-03    0.47E-04    0.16E-06
   2      9    11.539    55.921    0.19E-03    0.48E-04    0.16E-06
   0     10    11.539    51.690    0.80E-04    0.50E-04    0.24E-06
   0     10    11.539    30.015    0.73E-04    0.45E-04    0.22E-06
   1     10    11.539    18.849    0.87E-04    0.16E-03    0.71E-07
   1     10    11.539    14.624    0.73E-04    0.13E-03    0.64E-07
 Optimization of the real space projectors (new method)

 maximal supplied QI-value         = 24.76
 optimisation between [QCUT,QGAM] = [ 11.64, 23.27] = [ 37.91,151.63] Ry
 Optimized for a Real-space Cutoff    1.14 Angstroem

   l    n(q)    QCUT    max X(q) W(low)/X(q) W(high)/X(q)  e(spline)
   0      8    11.635    20.381    0.10E-03    0.33E-03    0.24E-06
   0      8    11.635    15.268    0.11E-03    0.35E-03    0.26E-06
   1      7    11.635     5.964    0.24E-03    0.31E-03    0.30E-06
   1      7    11.635     5.382    0.22E-03    0.25E-03    0.26E-06
  PAW_PBE La 06Sep2000                  :
  PAW_PBE Mn 06Sep2000                  :
  PAW_PBE Ni 02Aug2007                  :
  PAW_PBE O 08Apr2002                   :

 POSCAR: SCEL5_5_1_1_0_3_1/2
  positions in direct lattice
  velocities in cartesian coordinates
 exchange correlation table for  LEXCH =        8
   RHO(1)=    0.500       N(1)  =     2000
   RHO(2)=  100.500       N(2)  =     4000

 ion  position               nearest neighbor table
   1  0.807  0.205  0.614-  25 2.65  18 2.65  12 2.70  20 2.71  22 2.71  14 2.76  14 2.76  24 2.78
                            17 2.78  11 2.82   9 3.28  10 3.31  10 3.31   6 3.37   6 3.37   8 3.42
   2  0.593  0.395  0.186-  18 2.65  25 2.65  15 2.70  16 2.71  23 2.71  13 2.76  13 2.76  19 2.78
                            21 2.78  11 2.82  10 3.28   9 3.31   9 3.31   7 3.37   7 3.37   8 3.42
   3  0.403  0.594  0.806-  18 2.69  25 2.69  16 2.72  23 2.72  14 2.75  12 2.76  12 2.76  15 2.77
                            17 2.78  24 2.78  22 2.82  20 2.82  10 3.32   9 3.33   9 3.33   7 3.34
   4  0.200  0.800  0.400-  23 2.74  16 2.74  22 2.74  20 2.74  24 2.74  17 2.74  21 2.74  19 2.74
                            13 2.74  14 2.74  11 2.76  11 2.76   9 3.35  10 3.35   8 3.37   8 3.37
   5  0.997  0.006  0.994-  18 2.69  25 2.69  20 2.72  22 2.72  13 2.75  15 2.76  15 2.76  12 2.77
                            19 2.78  21 2.78  23 2.82  16 2.82   9 3.32  10 3.33  10 3.33   6 3.34
   6  0.800  0.700  0.601-  12 1.88  20 1.91  22 1.91  24 1.92  17 1.92  11 1.94   5 3.34   1 3.37
                             4 3.37   4 3.37   1 3.37   3 3.41   3 3.41
   7  0.600  0.900  0.199-  15 1.88  16 1.91  23 1.91  19 1.92  21 1.92  11 1.94   3 3.34   2 3.37
                             4 3.37   4 3.37   2 3.37   5 3.41   5 3.41
   8  0.200  0.300  0.400-  13 1.89  14 1.89  19 1.99  21 1.99  24 1.99  17 1.99   4 3.37   4 3.37
                             5 3.39   3 3.39   1 3.42   2 3.42   2 3.42   1 3.42
   9  0.001  0.502  0.002-  25 1.96  18 1.96  23 1.98  16 1.98  13 1.98  12 1.99   1 3.28   2 3.31
                             2 3.31   5 3.32   3 3.33   3 3.33   4 3.35
  10  0.399  0.098  0.798-  18 1.96  25 1.96  22 1.98  20 1.98  14 1.98  15 1.99   2 3.28   1 3.31
                             1 3.31   3 3.32   5 3.33   5 3.33   4 3.35
  11  0.700  0.800  0.400-   7 1.94   6 1.94   4 2.76   4 2.76   2 2.82   1 2.82
  12  0.898  0.603  0.796-   6 1.88   9 1.99   1 2.70   3 2.76   3 2.76   5 2.77
  13  0.103  0.399  0.206-   8 1.89   9 1.98   4 2.74   5 2.75   2 2.76   2 2.76
  14  0.297  0.201  0.594-   8 1.89  10 1.98   4 2.74   3 2.75   1 2.76   1 2.76
  15  0.502  0.997  0.004-   7 1.88  10 1.99   2 2.70   5 2.76   5 2.76   3 2.77
  16  0.796  0.703  0.103-   7 1.91   9 1.98   2 2.71   3 2.72   4 2.74   5 2.82
  17  0.998  0.504  0.502-   6 1.92   8 1.99   4 2.74   3 2.78   1 2.78
  18  0.200  0.300  0.900-  10 1.96   9 1.96   1 2.65   2 2.65   5 2.69   3 2.69
  19  0.402  0.096  0.298-   7 1.92   8 1.99   4 2.74   5 2.78   2 2.78
  20  0.604  0.897  0.697-   6 1.91  10 1.98   1 2.71   5 2.72   4 2.74   3 2.82
  21  0.895  0.096  0.298-   7 1.92   8 1.99   4 2.74   5 2.78   2 2.78
  22  0.093  0.897  0.697-   6 1.91  10 1.98   1 2.71   5 2.72   4 2.74   3 2.82
  23  0.307  0.703  0.103-   7 1.91   9 1.98   2 2.71   3 2.72   4 2.74   5 2.82
  24  0.505  0.504  0.502-   6 1.92   8 1.99   4 2.74   3 2.78   1 2.78
  25  0.700  0.300  0.900-  10 1.96   9 1.96   1 2.65   2 2.65   5 2.69   3 2.69

  LATTYP: Found a base centered monoclinic cell.
 ALAT       =    16.4369605879
 B/A-ratio  =     0.3353942169
 C/A-ratio  =     0.9745930885
 COS(beta)  =    -0.8667576004

  Lattice vectors:

 A1 = (  -3.9007495243,   0.0025677569,  -7.7411546583)
 A2 = (  -0.0025677569,   3.9007495243,  -7.7411546583)
 A3 = (   7.8015213849,  -7.8015213849,  11.6143034413)

Analysis of symmetry for initial positions (statically):
 Subroutine PRICEL returns:
 Original cell was already a primitive cell.

 Routine SETGRP: Setting up the symmetry group for a
 base centered monoclinic supercell.

 Subroutine GETGRP returns: Found  4 space group operations
 (whereof  2 operations were pure point group operations)
 out of a pool of  4 trial point group operations.

The static configuration has the point symmetry C_1h.
 The point group associated with its full space group is C_2h.

Analysis of symmetry for dynamics (positions and initial velocities):
 Subroutine PRICEL returns:
 Original cell was already a primitive cell.

[...]

The dynamic configuration has the point symmetry C_1h.
 The point group associated with its full space group is C_2h.

Analysis of structural, dynamic, and magnetic symmetry:
 Subroutine PRICEL returns:
 Original cell was already a primitive cell.

 Routine SETGRP: Setting up the symmetry group for a
 base centered monoclinic supercell.

 Subroutine GETGRP returns: Found  4 space group operations
 (whereof  2 operations were pure point group operations)
 out of a pool of  4 trial point group operations.

The magnetic configuration has the point symmetry C_1h.
 The point group associated with its full space group is C_2h.

 Subroutine INISYM returns: Found  4 space group operations
 (whereof  2 operations are pure point group operations),
 and found     1 'primitive' translations

 KPOINTS: Automatic mesh

Automatic generation of k-mesh.
 generate k-points for:    4    3    3
Space group operators:
 irot       det(A)        alpha          n_x          n_y          n_z        tau_x        tau_y        tau_z
    1     1.000000     0.000001     1.000000     0.000000     0.000000     0.000000     0.000000     0.000000
    2    -1.000000   179.999999     0.707107     0.707107     0.000000     0.000000     0.000000     0.000000
    3    -1.000000     0.000001     1.000000     0.000000     0.000000     0.400000    -0.400000     0.800000
    4     1.000000   179.999999     0.707107     0.707107     0.000000     0.400000    -0.400000     0.800000

 Subroutine IBZKPT returns following result:

 Found     19 irreducible k-points:

 Following reciprocal coordinates:
            Coordinates               Weight
  0.000000  0.000000  0.000000      1.000000
  0.250000  0.000000 -0.000000      2.000000
  0.500000  0.000000 -0.000000      1.000000
  0.000000  0.333333  0.000000      2.000000
  0.250000  0.333333 -0.000000      2.000000
  0.500000  0.333333 -0.000000      2.000000
 -0.250000  0.333333  0.000000      2.000000
  0.000000  0.000000  0.333333      2.000000
  0.250000  0.000000  0.333333      2.000000
  0.500000  0.000000  0.333333      2.000000
 -0.250000  0.000000  0.333333      2.000000
  0.000000  0.333333  0.333333      2.000000
  0.250000  0.333333  0.333333      2.000000
  0.500000  0.333333  0.333333      2.000000
 -0.250000  0.333333  0.333333      2.000000
  0.000000 -0.333333  0.333333      2.000000
  0.250000 -0.333333  0.333333      2.000000
  0.500000 -0.333333  0.333333      2.000000
 -0.250000 -0.333333  0.333333      2.000000

 Following cartesian coordinates:
            Coordinates               Weight
  0.000000  0.000000  0.000000      1.000000
 -0.038474 -0.025658 -0.012916      2.000000
 -0.076949 -0.051316 -0.025833      1.000000
 -0.034199  0.034199  0.017244      2.000000
 -0.072674  0.008541  0.004328      2.000000
 -0.111148 -0.017117 -0.008588      2.000000
  0.004275  0.059857  0.030161      2.000000
 -0.017088  0.017088 -0.034443      2.000000
 -0.055563 -0.008570 -0.047360      2.000000
 -0.094037 -0.034228 -0.060276      2.000000
  0.021386  0.042746 -0.021527      2.000000
 -0.051288  0.051288 -0.017199      2.000000
 -0.089762  0.025630 -0.030115      2.000000
 -0.128236 -0.000029 -0.043032      2.000000
 -0.012813  0.076946 -0.004283      2.000000
  0.017111 -0.017111 -0.051688      2.000000
 -0.021363 -0.042769 -0.064604      2.000000
 -0.059838 -0.068427 -0.077520      2.000000
  0.055585  0.008547 -0.038771      2.000000

 TETIRR: Found    106 inequivalent tetrahedra from      216

 SYSTEM =  final
 POSCAR =  SCEL5_5_1_1_0_3_1/2

 Startparameter for this run:
   NWRITE =      2    write-flag & timer
   PREC   = accura    normal or accurate (medium, high low for compatibility)
[...]
       1 -95.5465       2 -95.5464       3 -95.5808       4 -95.6160       5 -95.5809
       6 -43.2070       7 -43.2070       8 -42.5243       9 -83.5726      10 -83.5726
      11 -67.1207      12 -67.0659      13 -66.9026      14 -66.9026      15 -67.0659
      16 -66.9705      17 -67.0735      18 -66.4772      19 -67.0735      20 -66.9705
      21 -67.0735      22 -66.9705      23 -66.9705      24 -67.0735      25 -66.4772

 E-fermi :   7.8775     XC(G=0): -11.6954     alpha+bet :-16.4177

[...]

 k-point     1 :       0.0000    0.0000    0.0000
  band No.  band energies     occupation
      1     -24.0867      1.00000
      2     -24.0141      1.00000
      3     -23.9787      1.00000
      4     -23.9567      1.00000
      5     -23.9406      1.00000
      6     -11.0071      1.00000
      7     -11.0060      1.00000
      8     -10.8148      1.00000
      9     -10.5557      1.00000
     10     -10.5196      1.00000
     11     -10.1908      1.00000
     12     -10.1600      1.00000
     13     -10.1229      1.00000
     14     -10.0506      1.00000
     15      -9.8738      1.00000
     16      -9.8573      1.00000
     17      -9.7895      1.00000
     18      -9.7627      1.00000
     19      -9.6853      1.00000
     20      -9.5161      1.00000
     21      -7.7629      1.00000
     22      -7.7144      1.00000
     23      -7.6397      1.00000
     24      -7.6229      1.00000
     25      -7.5987      1.00000
     26      -7.5895      1.00000
     27      -7.5663      1.00000
     28      -7.4478      1.00000
     29      -7.3144      1.00000
     30      -7.2778      1.00000
     31      -7.2596      1.00000
     32      -7.2435      1.00000
     33      -7.1838      1.00000
     34      -7.0537      1.00000
     35      -6.9088      1.00000
     36       0.3219      1.00000
     37       0.3911      1.00000
     38       0.5453      1.00000
     39       1.0098      1.00000
     40       1.1411      1.00000
     41       1.1677      1.00000
     42       1.3622      1.00000
     43       1.4017      1.00000
     44       1.4412      1.00000
     45       1.5999      1.00000
     46       1.6633      1.00000
     47       1.7127      1.00000
     48       1.7692      1.00000
     49       1.8247      1.00000
     50       1.9870      1.00000
     51       2.0655      1.00000
     52       2.0757      1.00000
     53       2.1208      1.00000
     54       2.1503      1.00000
     55       2.2164      1.00000
     56       2.3436      1.00000
     57       2.6058      1.00000
     58       2.7443      1.00000
     59       2.8147      1.00000
     60       2.8492      1.00000
[...]
    106      10.4467      0.00000
    107      10.6769      0.00000
    108      10.7146      0.00000
    109      10.7434      0.00000
    110      10.7768      0.00000
    111      10.8057      0.00000
    112      10.8655      0.00000
    113      10.8770      0.00000
    114      10.8979      0.00000
    115      10.9001      0.00000
    116      10.9249      0.00000
    117      10.9549      0.00000
    118      10.9727      0.00000
    119      10.9962      0.00000
    120      11.0350      0.00000

[...]

 spin component 2

[...]

 k-point    19 :      -0.2500   -0.3333    0.3333
  band No.  band energies     occupation
      1     -24.0462      1.00000
      2     -24.0122      1.00000
      3     -23.9933      1.00000
      4     -23.9608      1.00000
      5     -23.9261      1.00000
      6     -11.1830      1.00000
      7     -11.0851      1.00000
      8     -10.9365      1.00000
      9     -10.8178      1.00000
     10     -10.3468      1.00000
     11     -10.1137      1.00000
     12     -10.0530      1.00000
     13      -9.9727      1.00000
     14      -9.8710      1.00000
     15      -9.8577      1.00000
     16      -9.8204      1.00000
     17      -9.6814      1.00000
     18      -9.5975      1.00000
     19      -9.4864      1.00000
     20      -9.2886      1.00000
     21      -7.8642      1.00000
     22      -7.7671      1.00000
     23      -7.6476      1.00000
     24      -7.5139      1.00000
     25      -7.4912      1.00000
     26      -7.4364      1.00000
     27      -7.4106      1.00000
     28      -7.3876      1.00000
     29      -7.3041      1.00000
     30      -7.2889      1.00000
     31      -7.1926      1.00000
     32      -7.1513      1.00000
     33      -7.0315      1.00000
     34      -6.8913      1.00000
     35      -6.7912      1.00000
     36       1.3941      1.00000
     37       1.9509      1.00000
     38       2.0975      1.00000
     39       2.2916      1.00000
     40       2.5330      1.00000
     41       2.5831      1.00000
     42       2.6501      1.00000
     43       2.6729      1.00000
     44       2.8285      1.00000
     45       2.9214      1.00000
     46       3.0033      1.00000
     47       3.0534      1.00000
     48       3.1288      1.00000
     49       3.1807      1.00000
     50       3.1998      1.00000
     51       3.2755      1.00000
     52       3.3305      1.00000
     53       3.3466      1.00000
     54       3.4855      1.00000
     55       3.5089      1.00000
     56       3.5599      1.00000
     57       3.7933      1.00000
     58       3.8901      1.00000
     59       3.9455      1.00000
     60       4.1230      1.00000
[...]
    106      10.9025      0.00000
    107      10.9074      0.00000
    108      10.9263      0.00000
    109      10.9378      0.00000
    110      10.9512      0.00000
    111      10.9681      0.00000
    112      10.9852      0.00000
    113      11.0028      0.00000
    114      11.0162      0.00000
    115      11.0224      0.00000
    116      11.0398      0.00000
    117      11.0757      0.00000
    118      11.1025      0.00000
    119      11.1210      0.00000
    120      11.1327      0.00000

 soft charge-density along one line, spin component           1
         0         1         2         3         4         5         6         7         8         9
 total charge-density along one line

 soft charge-density along one line, spin component           2
         0         1         2         3         4         5         6         7         8         9
 total charge-density along one line

------------------------ aborting loop because EDIFF is reached ----------------------------------------

 total charge

# of ion       s       p       d       f       tot
    1        2.000   5.697   0.493   0.190   8.381
    2        2.000   5.697   0.493   0.191   8.381
    3        1.999   5.697   0.488   0.189   8.374
    4        1.999   5.699   0.484   0.190   8.372
    5        2.000   5.697   0.488   0.189   8.374
    6        0.352   0.560   4.863   0.000   5.775
    7        0.352   0.560   4.863   0.000   5.775
    8        0.317   0.490   4.888   0.000   5.695
    9        0.391   0.564   8.330   0.000   9.285
   10        0.391   0.564   8.330   0.000   9.285
   11        1.561   3.468   0.000   0.000   5.029
   12        1.563   3.454   0.000   0.000   5.017
   13        1.560   3.464   0.000   0.000   5.024
   14        1.560   3.464   0.000   0.000   5.024
   15        1.563   3.454   0.000   0.000   5.017
   16        1.561   3.457   0.000   0.000   5.018
   17        1.564   3.459   0.000   0.000   5.023
   18        1.555   3.462   0.000   0.000   5.017
   19        1.564   3.459   0.000   0.000   5.023
   20        1.561   3.457   0.000   0.000   5.018
   21        1.563   3.459   0.000   0.000   5.023
   22        1.561   3.456   0.000   0.000   5.017
   23        1.561   3.456   0.000   0.000   5.017
   24        1.563   3.459   0.000   0.000   5.023
   25        1.555   3.463   0.000   0.000   5.019
tot         35.219  83.119  33.719   0.949 153.006

 magnetization (x)

[...]

  FORCE on cell =-STRESS in cart. coord.  units (eV):
  Direction    XX          YY          ZZ          XY          YZ          ZX
  Alpha Z   817.64007   817.64007   817.64007
  Ewald   -4223.49739 -4223.49739 -4250.97083    15.81103    11.14645   -11.14645
  Hartree   947.15410   947.15410   895.89752    14.99760    10.68391   -10.68391
  E(xc)    -861.79723  -861.79722  -861.83273     0.00040    -0.00901     0.00900
  Local    -558.49683  -558.49655  -470.22056   -31.63571   -21.60288    21.60238
  n-local   339.69011   339.68683   341.50379    -0.17291     0.13566    -0.13098
  augment   336.43445   336.43410   333.07009     0.09737     0.01820    -0.01751
  Kinetic  3203.51021  3203.64177  3195.73428     1.02841    -0.38770     0.36761
  Fock        0.00000     0.00000     0.00000     0.00000     0.00000     0.00000
  Total       0.70160     0.70160     0.82162     0.12651    -0.00830     0.00830
  in kB       3.82184     3.82184     4.47562     0.68913    -0.04524     0.04524

 VOLUME and BASIS-vectors are now :
  energy-cutoff  :      520.00
  volume of cell :      294.12
      direct lattice vectors                 reciprocal lattice vectors
    -3.898181767 -3.898181767  0.000000000    -0.153897409 -0.102632445 -0.051665198
    -3.898204104  3.898204104  3.868005875    -0.102598089  0.102598089  0.051732966
    -0.002567757  3.900749524 -7.741154658    -0.051264963  0.051264963 -0.103330397

  length of vectors
     5.512861524  6.734497748  8.668409825     0.192060209  0.154042317  0.126227429

 FORCES acting on ions
    electron-ion (+dipol)            ewald-force                    non-local-force                 convergence-correction
   -.359E+02 0.359E+02 -.996E+02   0.355E+02 -.355E+02 0.986E+02   0.385E+00 -.385E+00 0.934E+00   -.107E-01 0.107E-01 -.140E-01
   0.359E+02 -.359E+02 0.996E+02   -.355E+02 0.355E+02 -.986E+02   -.385E+00 0.385E+00 -.934E+00   0.107E-01 -.107E-01 0.140E-01
   0.284E+01 -.284E+01 -.656E+02   -.264E+01 0.264E+01 0.649E+02   -.184E+00 0.184E+00 0.662E+00   0.296E-02 -.296E-02 -.103E-01
   0.116E-04 0.308E-05 -.197E-04   0.298E-11 0.303E-11 0.450E-10   0.676E-19 0.542E-19 0.000E+00   0.100E-05 0.174E-05 -.934E-06
   -.284E+01 0.284E+01 0.656E+02   0.264E+01 -.264E+01 -.649E+02   0.184E+00 -.184E+00 -.662E+00   -.296E-02 0.296E-02 0.103E-01
   -.201E+02 0.201E+02 -.283E+02   0.200E+02 -.200E+02 0.279E+02   0.133E+00 -.133E+00 0.442E+00   0.442E-03 -.442E-03 -.118E-01
   0.201E+02 -.201E+02 0.283E+02   -.200E+02 0.200E+02 -.279E+02   -.133E+00 0.133E+00 -.442E+00   -.442E-03 0.442E-03 0.118E-01
   -.252E-04 -.794E-05 0.389E-04   0.676E-11 0.798E-12 0.465E-11   -.232E-20 0.678E-20 0.136E-19   0.169E-06 -.928E-07 -.613E-07
   0.333E+02 -.333E+02 0.762E+01   -.320E+02 0.320E+02 -.808E+01   -.128E+01 0.128E+01 0.443E+00   0.711E-03 -.711E-03 0.353E-02
   -.333E+02 0.333E+02 -.762E+01   0.320E+02 -.320E+02 0.808E+01   0.128E+01 -.128E+01 -.443E+00   -.711E-03 0.711E-03 -.353E-02
   -.241E-04 -.422E-04 0.143E-04   -.206E-11 -.866E-11 0.356E-10   -.752E-19 -.407E-19 0.000E+00   0.656E-09 -.572E-07 0.294E-06
   0.243E+01 -.243E+01 -.447E+02   -.267E+01 0.267E+01 0.387E+02   0.224E+00 -.224E+00 0.605E+01   -.591E-03 0.591E-03 -.437E-01
   0.106E+02 -.106E+02 0.649E+02   -.106E+02 0.106E+02 -.597E+02   -.205E-01 0.205E-01 -.524E+01   0.366E-02 -.366E-02 0.243E-01
   -.106E+02 0.106E+02 -.649E+02   0.106E+02 -.106E+02 0.597E+02   0.205E-01 -.205E-01 0.524E+01   -.366E-02 0.366E-02 -.243E-01
   -.243E+01 0.243E+01 0.447E+02   0.267E+01 -.267E+01 -.387E+02   -.224E+00 0.224E+00 -.605E+01   0.591E-03 -.591E-03 0.437E-01
   0.227E+02 -.440E+02 0.106E+02   -.232E+02 0.393E+02 -.105E+02   0.590E+00 0.477E+01 -.162E+00   0.292E-02 -.437E-01 0.541E-02
   -.135E+02 0.209E+02 -.125E+02   0.140E+02 -.233E+02 0.127E+02   -.511E+00 0.244E+01 -.265E+00   -.547E-03 -.265E-01 -.478E-02
   -.138E-04 -.514E-04 0.217E-04   -.188E-10 0.350E-10 0.131E-10   -.110E-18 0.610E-19 0.136E-19   -.117E-06 0.982E-07 0.201E-07
   0.135E+02 -.209E+02 0.125E+02   -.140E+02 0.233E+02 -.127E+02   0.511E+00 -.244E+01 0.265E+00   0.547E-03 0.265E-01 0.478E-02
   -.227E+02 0.440E+02 -.106E+02   0.232E+02 -.393E+02 0.105E+02   -.590E+00 -.477E+01 0.162E+00   -.292E-02 0.437E-01 -.541E-02
   0.209E+02 -.135E+02 0.125E+02   -.233E+02 0.140E+02 -.127E+02   0.244E+01 -.511E+00 0.265E+00   -.265E-01 -.547E-03 0.478E-02
   -.440E+02 0.227E+02 -.106E+02   0.393E+02 -.232E+02 0.105E+02   0.477E+01 0.590E+00 0.162E+00   -.437E-01 0.292E-02 -.541E-02
   0.440E+02 -.227E+02 0.106E+02   -.393E+02 0.232E+02 -.105E+02   -.477E+01 -.590E+00 -.162E+00   0.437E-01 -.292E-02 0.541E-02
   -.209E+02 0.135E+02 -.125E+02   0.233E+02 -.140E+02 0.127E+02   -.244E+01 0.511E+00 -.265E+00   0.265E-01 0.547E-03 -.478E-02
   0.408E-05 -.537E-04 0.136E-04   -.121E-10 0.156E-10 -.255E-11   -.274E-19 -.271E-19 0.000E+00   -.121E-06 0.121E-06 -.445E-09
   -.972E-04 -.303E-03 0.268E-03   0.183E-13 -.261E-13 -.159E-13   -.888E-15 0.222E-15 0.888E-15   0.329E-05 0.378E-05 -.688E-06

 POSITION                                       TOTAL-FORCE (eV/Angst)
     -3.94650      0.04832     -3.96084        -0.028799      0.028799     -0.071937
     -3.85193     -0.04625      0.08871         0.028799     -0.028799      0.071937
     -3.88611      3.88611     -3.94104         0.020212     -0.020212     -0.055888
     -3.89923      3.89923     -0.00206        -0.000000     -0.000000      0.000000
     -3.91489      0.01671     -7.67224        -0.020212      0.020212      0.055888
     -5.85139      1.95321     -1.94189        -0.019950      0.019950      0.032223
     -5.84525      1.94706      1.93778         0.019950     -0.019950     -0.032223
     -1.95012      1.95012     -1.93606        -0.000000     -0.000000      0.000000
     -1.96189      1.96189      1.92824        -0.002485      0.002485     -0.016163
     -1.93836      1.93836     -5.80036         0.002485     -0.002485      0.016163
     -5.84832      1.95014     -0.00206        -0.000000     -0.000000      0.000000
     -5.85322      1.95504     -3.82518        -0.007058      0.007058     -0.007578
     -1.95910      1.95910     -0.05038        -0.007510      0.007510     -0.001026
     -1.94115      1.94115     -3.82174         0.007510     -0.007510      0.001026
     -5.84341      1.94523      3.82107         0.007058     -0.007058      0.007578
     -5.84362      0.04051      1.92154         0.026601      0.010410     -0.020278
     -5.85633      0.03733     -1.93898        -0.043417      0.006774     -0.041209
     -1.95141      3.90050     -5.80664        -0.000000     -0.000000      0.000000
     -1.94210     -0.03526     -1.93314         0.043417     -0.006774      0.041209
     -5.85302      3.85976     -1.92565        -0.026601     -0.010410      0.020278
     -3.86292     -1.95608     -1.93314         0.006774     -0.043417      0.041209
     -3.85976      5.85302     -1.92565         0.010410      0.026601      0.020278
     -3.93869      1.94544      1.92154        -0.010410     -0.026601     -0.020278
     -3.93551      1.95815     -1.93898        -0.006774      0.043417     -0.041209
     -3.90050      1.95141     -5.80664        -0.000000     -0.000000      0.000000
    total drift:                               -0.000094     -0.000299      0.000267

  FREE ENERGIE OF THE ION-ELECTRON SYSTEM (eV)
  free  energy   TOTEN  =      -186.93761273 eV

  energy  without entropy=     -186.93761273  energy(sigma->0) =     -186.93761273

 total charge

[...]

 magnetization (x)

# of ion       s       p       d       f       tot
    1        0.000   0.001   0.007   0.004   0.012
    2        0.000   0.001   0.007   0.004   0.012
    3        0.000   0.001   0.007   0.003   0.012
    4        0.001   0.001   0.010   0.005   0.017
    5        0.000   0.001   0.007   0.003   0.012
    6        0.023   0.030   3.298   0.000   3.351
    7        0.023   0.030   3.298   0.000   3.351
    8        0.020   0.027   3.666   0.000   3.713
    9        0.010   0.002   1.690   0.000   1.701
   10        0.010   0.002   1.690   0.000   1.701
   11        0.002  -0.012   0.000   0.000  -0.010
   12        0.005  -0.035   0.000   0.000  -0.030
   13        0.005  -0.007   0.000   0.000  -0.003
   14        0.005  -0.007   0.000   0.000  -0.003
   15        0.005  -0.035   0.000   0.000  -0.030
   16        0.005  -0.018   0.000   0.000  -0.014
   17        0.005  -0.024   0.000   0.000  -0.020
   18        0.007   0.036   0.000   0.000   0.043
   19        0.005  -0.024   0.000   0.000  -0.020
   20        0.005  -0.018   0.000   0.000  -0.014
   21        0.004  -0.024   0.000   0.000  -0.020
   22        0.005  -0.020   0.000   0.000  -0.015
   23        0.005  -0.020   0.000   0.000  -0.015
   24        0.004  -0.024   0.000   0.000  -0.020
   25        0.007   0.038   0.000   0.000   0.045
tot          0.159  -0.097  13.681   0.019  13.762

 BZINTS: Fermi energy:  7.877472;186.000000 electrons
         Band energy:-290.572934;  BLOECHL correction: -0.001597