 vasp.5.4.4.18Apr17-6-g9f103f2a35 (build Oct 03 2018 13:58:34) complex

 executed on             LinuxIFC date 2019.06.04  01:28:28

 INCAR:
 POTCAR:    PAW_PBE La 06Sep2000
 POTCAR:    PAW_PBE Mn 06Sep2000
 POTCAR:    PAW_PBE Ni 02Aug2007
 POTCAR:    PAW_PBE O 08Apr2002

 POTCAR:    PAW_PBE La 06Sep2000
   VRHFIN =La : [core=Kr4d]

   TITEL  = PAW_PBE La 06Sep2000
   POMASS =  138.900; ZVAL   =   11.000    mass and valenz
   ENMAX  =  219.292; ENMIN  =  164.469 eV

 POTCAR:    PAW_PBE Mn 06Sep2000
   VRHFIN =Mn: d6 s1

   TITEL  = PAW_PBE Mn 06Sep2000
   POMASS =   54.938; ZVAL   =    7.000    mass and valenz
   ENMAX  =  269.864; ENMIN  =  202.398 eV

 POTCAR:    PAW_PBE Ni 02Aug2007
   VRHFIN =Ni:

   TITEL  = PAW_PBE Ni 02Aug2007
   POMASS =   58.690; ZVAL   =   10.000    mass and valenz
   ENMAX  =  269.532; ENMIN  =  202.149 eV

 POTCAR:    PAW_PBE O 08Apr2002
   VRHFIN =O: s2p4

   TITEL  = PAW_PBE O 08Apr2002
   POMASS =   16.000; ZVAL   =    6.000    mass and valenz
   ENMAX  =  400.000; ENMIN  =  300.000 eV

 Optimization of the real space projectors (new method)

 maximal supplied QI-value         = 13.42
 optimisation between [QCUT,QGAM] = [ 11.67, 23.35] = [ 38.16,152.62] Ry
 Optimized for a Real-space Cutoff    1.63 Angstroem

   l    n(q)    QCUT    max X(q) W(low)/X(q) W(high)/X(q)  e(spline)
   0     11    11.673    13.882    0.27E-04    0.79E-05    0.11E-06
   0     11    11.673    12.184    0.39E-04    0.13E-04    0.19E-06
   1     11    11.673     4.523    0.73E-05    0.76E-05    0.12E-06
   1     11    11.673     4.424    0.87E-05    0.13E-04    0.19E-06
   2     10    11.673    52.481    0.65E-04    0.36E-04    0.18E-06
   2     10    11.673    38.501    0.61E-04    0.33E-04    0.17E-06
   3     10    11.673    65.631    0.17E-03    0.14E-03    0.37E-06
   3     10    11.673    56.854    0.17E-03    0.14E-03    0.37E-06
 Optimization of the real space projectors (new method)

[...]

   l    n(q)    QCUT    max X(q) W(low)/X(q) W(high)/X(q)  e(spline)
   2      9    11.539    60.317    0.19E-03    0.47E-04    0.16E-06
   2      9    11.539    55.921    0.19E-03    0.48E-04    0.16E-06
   0     10    11.539    51.690    0.80E-04    0.50E-04    0.24E-06
   0     10    11.539    30.015    0.73E-04    0.45E-04    0.22E-06
   1     10    11.539    18.849    0.87E-04    0.16E-03    0.71E-07
   1     10    11.539    14.624    0.73E-04    0.13E-03    0.64E-07
 Optimization of the real space projectors (new method)

 maximal supplied QI-value         = 24.76
 optimisation between [QCUT,QGAM] = [ 11.64, 23.27] = [ 37.91,151.63] Ry
 Optimized for a Real-space Cutoff    1.14 Angstroem

   l    n(q)    QCUT    max X(q) W(low)/X(q) W(high)/X(q)  e(spline)
   0      8    11.635    20.381    0.10E-03    0.33E-03    0.24E-06
   0      8    11.635    15.268    0.11E-03    0.35E-03    0.26E-06
   1      7    11.635     5.964    0.24E-03    0.31E-03    0.30E-06
   1      7    11.635     5.382    0.22E-03    0.25E-03    0.26E-06
  PAW_PBE La 06Sep2000                  :
  PAW_PBE Mn 06Sep2000                  :
  PAW_PBE Ni 02Aug2007                  :
  PAW_PBE O 08Apr2002                   :

 POSCAR: SCEL4_1_1_4_0_0_0/0
  positions in direct lattice
  velocities in cartesian coordinates
 exchange correlation table for  LEXCH =        8
   RHO(1)=    0.500       N(1)  =     2000
   RHO(2)=  100.500       N(2)  =     4000

 ion  position               nearest neighbor table
   1  0.000  0.000  0.240-  16 2.66  20 2.66  20 2.66  16 2.66  11 2.77  11 2.77  11 2.77  11 2.77
                             8 3.30   8 3.30   8 3.30   8 3.30   4 3.62
   2  0.000  0.000  0.497-  15 2.70  19 2.70  19 2.70  15 2.70  10 2.76  10 2.76  10 2.76  10 2.76
                            18 2.81  14 2.81  18 2.81  14 2.81   5 3.37   5 3.37   5 3.37   5 3.37
   3  0.000  0.000  0.753-  13 2.70  17 2.70  17 2.70  13 2.70   9 2.76   9 2.76   9 2.76   9 2.76
                            14 2.81  18 2.81  14 2.81  18 2.81   7 3.37   7 3.37   7 3.37   7 3.37
   4  0.000  0.000  0.010-  16 2.66  20 2.66  20 2.66  16 2.66  12 2.77  12 2.77  12 2.77  12 2.77
                             8 3.30   8 3.30   8 3.30   8 3.30   1 3.62
   5  0.500  0.500  0.374-  11 1.90  10 1.93  15 1.95  19 1.95  15 1.95  19 1.95   2 3.37   2 3.37
                             2 3.37   2 3.37
   6  0.500  0.500  0.625-  14 1.95  18 1.95  14 1.95  18 1.95   9 2.03  10 2.03   2 3.42   3 3.42
                             2 3.42   2 3.42   3 3.42   3 3.42   2 3.42   3 3.42
   7  0.500  0.500  0.876-  12 1.90   9 1.93  13 1.95  17 1.95  13 1.95  17 1.95   3 3.37   3 3.37
                             3 3.37   3 3.37
   8  0.500  0.500  0.125-  16 1.95  20 1.95  16 1.95  20 1.95  11 2.02  12 2.02   1 3.30   4 3.30
                             1 3.30   1 3.30   4 3.30   4 3.30   1 3.30   4 3.30
   9  0.500  0.500  0.754-   7 1.93   6 2.03   3 2.76   3 2.76   3 2.76   3 2.76
  10  0.500  0.500  0.496-   5 1.93   6 2.03   2 2.76   2 2.76   2 2.76   2 2.76
  11  0.500  0.500  0.253-   5 1.90   8 2.02   1 2.77   1 2.77   1 2.77   1 2.77
  12  0.500  0.500  0.997-   7 1.90   8 2.02   4 2.77   4 2.77   4 2.77   4 2.77
  13  0.500  0.000  0.872-   7 1.95   7 1.95   3 2.70   3 2.70
  14  0.500  0.000  0.625-   6 1.95   6 1.95   2 2.81   3 2.81   2 2.81   3 2.81
  15  0.500  0.000  0.378-   5 1.95   5 1.95   2 2.70   2 2.70
  16  0.500  0.000  0.125-   8 1.95   8 1.95   1 2.66   4 2.66   1 2.66   4 2.66
  17  0.000  0.500  0.872-   7 1.95   7 1.95   3 2.70   3 2.70
  18  0.000  0.500  0.625-   6 1.95   6 1.95   2 2.81   2 2.81   3 2.81   3 2.81
  19  0.000  0.500  0.378-   5 1.95   5 1.95   2 2.70   2 2.70
  20  0.000  0.500  0.125-   8 1.95   8 1.95   1 2.66   1 2.66   4 2.66   4 2.66

  LATTYP: Found a simple tetragonal cell.
 ALAT       =     3.9025722298
 C/A-ratio  =     4.0404495582

  Lattice vectors:

 A1 = (   3.9025722298,   0.0000000000,   0.0000000000)
 A2 = (   0.0000000000,   3.9025722298,   0.0000000000)
 A3 = (   0.0000000000,   0.0000000000,  15.7681462417)

Analysis of symmetry for initial positions (statically):
 Subroutine PRICEL returns:
 Original cell was already a primitive cell.

 Routine SETGRP: Setting up the symmetry group for a
 simple tetragonal supercell.

 Subroutine GETGRP returns: Found 16 space group operations
 (whereof  8 operations were pure point group operations)
 out of a pool of 16 trial point group operations.

The static configuration has the point symmetry C_4v.
 The point group associated with its full space group is D_4h.

Analysis of symmetry for dynamics (positions and initial velocities):
 Subroutine PRICEL returns:
 Original cell was already a primitive cell.

[...]

The dynamic configuration has the point symmetry C_4v.
 The point group associated with its full space group is D_4h.

Analysis of structural, dynamic, and magnetic symmetry:
 Subroutine PRICEL returns:
 Original cell was already a primitive cell.

 Routine SETGRP: Setting up the symmetry group for a
 simple tetragonal supercell.

 Subroutine GETGRP returns: Found 16 space group operations
 (whereof  8 operations were pure point group operations)
 out of a pool of 16 trial point group operations.

The magnetic configuration has the point symmetry C_4v.
 The point group associated with its full space group is D_4h.

 Subroutine INISYM returns: Found 16 space group operations
 (whereof  8 operations are pure point group operations),
 and found     1 'primitive' translations

 KPOINTS: Automatic mesh

Automatic generation of k-mesh.
 generate k-points for:    5    5    1
Space group operators:
 irot       det(A)        alpha          n_x          n_y          n_z        tau_x        tau_y        tau_z
    1     1.000000     0.000000     1.000000     0.000000     0.000000     0.000000     0.000000     0.000000
    2     1.000000    90.000000     0.000000     0.000000    -1.000000     0.000000     0.000000     0.000000
    3     1.000000   179.999999     0.000000     0.000000     1.000000     0.000000     0.000000     0.000000
    4     1.000000    90.000000     0.000000     0.000000     1.000000     0.000000     0.000000     0.000000
    5    -1.000000   180.000000     0.000000     1.000000     0.000000     0.000000     0.000000     0.000000
    6    -1.000000   180.000000     0.707107     0.707107     0.000000     0.000000     0.000000     0.000000
    7    -1.000000   180.000000     1.000000     0.000000     0.000000     0.000000     0.000000     0.000000
    8    -1.000000   180.000000     0.707107    -0.707107     0.000000     0.000000     0.000000     0.000000
    9    -1.000000     0.000000     1.000000     0.000000     0.000000     0.000000     0.000000     0.250000
   10    -1.000000    90.000000     0.000000     0.000000    -1.000000     0.000000     0.000000     0.250000
   11    -1.000000   179.999999     0.000000     0.000000     1.000000     0.000000     0.000000     0.250000
   12    -1.000000    90.000000     0.000000     0.000000     1.000000     0.000000     0.000000     0.250000
   13     1.000000   180.000000     0.000000     1.000000     0.000000     0.000000     0.000000     0.250000
   14     1.000000   180.000000     0.707107     0.707107     0.000000     0.000000     0.000000     0.250000
   15     1.000000   180.000000     1.000000     0.000000     0.000000     0.000000     0.000000     0.250000
   16     1.000000   180.000000     0.707107    -0.707107     0.000000     0.000000     0.000000     0.250000

 Subroutine IBZKPT returns following result:

 Found      6 irreducible k-points:

 Following reciprocal coordinates:
            Coordinates               Weight
  0.000000  0.000000  0.000000      1.000000
  0.200000  0.000000  0.000000      4.000000
  0.400000  0.000000  0.000000      4.000000
  0.200000  0.200000  0.000000      4.000000
  0.400000  0.200000  0.000000      8.000000
  0.400000  0.400000  0.000000      4.000000

 Following cartesian coordinates:
            Coordinates               Weight
  0.000000  0.000000  0.000000      1.000000
  0.051248  0.000000  0.000000      4.000000
  0.102497  0.000000  0.000000      4.000000
  0.051248  0.051248  0.000000      4.000000
  0.102497  0.051248  0.000000      8.000000
  0.102497  0.102497  0.000000      4.000000

 TETIRR: Found     31 inequivalent tetrahedra from      150

 SYSTEM =  final
 POSCAR =  SCEL4_1_1_4_0_0_0/0

 Startparameter for this run:
   NWRITE =      2    write-flag & timer
   PREC   = accura    normal or accurate (medium, high low for compatibility)
   ISTART =      0    job   : 0-new  1-cont  2-samecut
   ICHARG =      1    charge: 1-file 2-atom 10-const
   ISPIN  =      2    spin polarized calculation?
   LNONCOLLINEAR =      F non collinear calculations
   LSORBIT =      F    spin-orbit coupling
   INIWAV =      1    electr: 0-lowe 1-rand  2-diag
   LASPH  =      F    aspherical Exc in radial PAW
   METAGGA=      F    non-selfconsistent MetaGGA calc.

 Electronic Relaxation 1
   ENCUT  =  520.0 eV  38.22 Ry    6.18 a.u.   7.26  7.26 29.32*2*pi/ulx,y,z
   ENINI  =  520.0     initial cutoff
   ENAUG  =  605.4 eV  augmentation charge cutoff
   NELM   =    100;   NELMIN=  2; NELMDL= -5     # of ELM steps
[...]

[...]

--------------------------------------- Iteration      1(  21)  ---------------------------------------

atom =   1  type =  1  l = 0

[...]

  o =  0.7874  v =  0.0000  1.0000      0.0000  0.0000
  o =  0.7926  v =  1.0000  0.0000      0.0000  0.0000
atom =  20  type =  4  l = 0

 onsite density matrix

[...]

  0.7825

 occupancies and eigenvectors

  o =  0.7825  v =  0.0000  1.0000      0.0000  0.0000
  o =  0.7893  v =  1.0000  0.0000      0.0000  0.0000
 BZINTS: Fermi energy:  7.795887;147.000000 electrons
         Band energy:-269.528310;  BLOECHL correction: -0.156928

 eigenvalue-minimisations  :  2274
 total energy-change (2. order) :-0.3311850E-03  (-0.5515872E-03)
 number of electron     147.0000025 magnetization      12.9958826
 augmentation part       16.4535423 magnetization       9.3399271

 Free energy of the ion-electron system (eV)
  alpha Z        PSCENC =       643.37929022
  Ewald energy   TEWEN  =     -9791.59853279
  -Hartree energ DENC   =     -2174.30930565
  -exchange      EXHF   =         0.00000000
  -V(xc)+E(xc)   XCENC  =       471.98131916
  PAW double counting   =     11837.71608245   -11850.64661294
  entropy T*S    EENTRO =         0.00000000
  eigenvalues    EBANDS =      -269.52830972
  atomic energy  EATOM  =     10980.12334246
  Solvation  Ediel_sol  =         0.00000000
  free energy    TOTEN  =      -152.88272681 eV

  energy without entropy =     -152.88272681  energy(sigma->0) =     -152.88272681

 average (electrostatic) potential at core
  the test charge radii are     1.1480  1.0210  0.9791  0.7215
  (the norm of the test charge is              1.0000)
       1 -95.9096       2 -95.9753       3 -95.9753       4 -95.9096       5 -42.9050
       6 -42.4498       7 -42.9050       8 -83.7021       9 -67.2735      10 -67.2735
      11 -67.0399      12 -67.0399      13 -67.3022      14 -67.3399      15 -67.3022
      16 -66.8858      17 -67.3022      18 -67.3399      19 -67.3022      20 -66.8858

 E-fermi :   7.7959     XC(G=0): -11.5782     alpha+bet :-16.0610

[...]

 k-point     1 :       0.0000    0.0000    0.0000
  band No.  band energies     occupation
      1     -24.4571      1.00000
      2     -24.4365      1.00000
      3     -24.3942      1.00000
      4     -24.3330      1.00000
      5     -11.5682      1.00000
      6     -11.3511      1.00000
      7     -11.2769      1.00000
      8     -11.1019      1.00000
      9     -10.0589      1.00000
     10     -10.0136      1.00000
     11      -9.9681      1.00000
     12      -9.9498      1.00000
     13      -9.9332      1.00000
     14      -9.8771      1.00000
     15      -9.8584      1.00000
     16      -9.7030      1.00000
     17      -7.9644      1.00000
     18      -7.9644      1.00000
     19      -7.9274      1.00000
     20      -7.9274      1.00000
     21      -7.9069      1.00000
     22      -7.8749      1.00000
     23      -7.8749      1.00000
     24      -7.7773      1.00000
     25      -7.7773      1.00000
     26      -7.4980      1.00000
     27      -7.4060      1.00000
     28      -7.0914      1.00000
     29       0.5970      1.00000
     30       1.5478      1.00000
     31       1.9196      1.00000
     32       2.1947      1.00000
     33       2.1947      1.00000
     34       2.3214      1.00000
     35       2.3214      1.00000
     36       2.4911      1.00000
     37       2.4911      1.00000
     38       2.5461      1.00000
     39       2.6275      1.00000
     40       2.7692      1.00000
     41       2.7692      1.00000
     42       3.0064      1.00000
     43       3.0064      1.00000
     44       3.0282      1.00000
     45       3.0282      1.00000
     46       3.0385      1.00000
     47       3.0393      1.00000
     48       3.0505      1.00000
     49       3.0678      1.00000
     50       3.0678      1.00000
     51       3.1060      1.00000
     52       3.1060      1.00000
     53       3.1333      1.00000
     54       3.8821      1.00000
     55       3.9406      1.00000
     56       3.9680      1.00000
     57       4.3753      1.00000
     58       4.4336      1.00000
     59       4.6455      1.00000
     60       4.7065      1.00000
[...]
     82       6.5602      1.15242
     83       7.8830      0.00000
     84       8.0267      0.00000
     85       9.7042      0.00000
     86       9.8154      0.00000
     87      10.1566      0.00000
     88      10.2655      0.00000
     89      10.2938      0.00000
     90      10.3830      0.00000
     91      10.5018      0.00000
     92      10.5419      0.00000
     93      10.6107      0.00000
     94      10.6450      0.00000
     95      10.7147      0.00000
     96      10.7262      0.00000

[...]

 spin component 2

[...]

 k-point     6 :       0.4000    0.4000    0.0000
  band No.  band energies     occupation
      1     -24.3506      1.00000
      2     -24.3354      1.00000
      3     -24.2936      1.00000
      4     -24.2430      1.00000
      5     -10.8908      1.00000
      6     -10.6984      1.00000
      7     -10.6018      1.00000
      8     -10.5585      1.00000
      9     -10.3518      1.00000
     10     -10.2968      1.00000
     11     -10.2793      1.00000
     12     -10.0955      1.00000
     13     -10.0732      1.00000
     14     -10.0311      1.00000
     15      -9.9575      1.00000
     16      -9.8083      1.00000
     17      -8.3098      1.00000
     18      -8.2894      1.00000
     19      -8.1157      1.00000
     20      -8.0903      1.00000
     21      -8.0693      1.00000
     22      -7.9311      1.00000
     23      -7.8005      1.00000
     24      -7.7405      1.00000
     25      -7.6741      1.00000
     26      -7.6591      1.00000
     27      -7.3946      1.00000
     28      -7.2979      1.00000
     29       1.0189      1.00000
     30       1.3917      1.00000
     31       1.4299      1.00000
     32       1.7094      1.00000
     33       1.9889      1.00000
     34       2.4888      1.00000
     35       2.5764      1.00000
     36       2.6888      1.00000
     37       2.8746      1.00000
     38       3.0250      1.00000
     39       3.0351      1.00000
     40       3.0481      1.00000
     41       3.1747      1.00000
     42       3.2354      1.00000
     43       3.2674      1.00000
     44       3.3314      1.00000
     45       3.5129      1.00000
     46       3.5188      1.00000
     47       3.5470      1.00000
     48       3.5581      1.00000
     49       3.6726      1.00000
     50       4.0291      1.00000
     51       4.1183      1.00000
     52       4.3144      1.00000
     53       4.8735      1.00000
     54       5.0954      1.00000
     55       5.3813      1.00000
     56       5.5137      1.00000
     57       5.6941      1.00000
     58       5.8032      1.00000
     59       5.8581      1.00000
     60       5.9651      1.00000
[...]
     82      10.5538      0.00000
     83      10.5640      0.00000
     84      10.5662      0.00000
     85      10.6024      0.00000
     86      10.6040      0.00000
     87      10.6052      0.00000
     88      10.6191      0.00000
     89      10.6214      0.00000
     90      10.6593      0.00000
     91      10.7047      0.00000
     92      10.7333      0.00000
     93      10.7567      0.00000
     94      10.7729      0.00000
     95      10.7875      0.00000
     96      11.1011      0.00000

 soft charge-density along one line, spin component           1
         0         1         2         3         4         5         6         7         8         9
 total charge-density along one line

 soft charge-density along one line, spin component           2
         0         1         2         3         4         5         6         7         8         9
 total charge-density along one line

------------------------ aborting loop because EDIFF is reached ----------------------------------------

 total charge

# of ion       s       p       d       f       tot
    1        2.000   5.693   0.482   0.185   8.360
    2        2.000   5.697   0.485   0.188   8.370
    3        2.000   5.697   0.485   0.188   8.370
    4        2.000   5.693   0.482   0.185   8.360
    5        0.330   0.505   4.870   0.000   5.705
    6        0.302   0.444   4.896   0.000   5.642
    7        0.330   0.505   4.870   0.000   5.705
    8        0.401   0.578   8.332   0.000   9.312
    9        1.564   3.456   0.000   0.000   5.019
   10        1.564   3.456   0.000   0.000   5.019
   11        1.560   3.450   0.000   0.000   5.010
   12        1.560   3.450   0.000   0.000   5.010
   13        1.560   3.520   0.000   0.000   5.080
   14        1.556   3.530   0.000   0.000   5.086
   15        1.560   3.520   0.000   0.000   5.080
   16        1.555   3.498   0.000   0.000   5.053
   17        1.569   3.386   0.000   0.000   4.955
   18        1.567   3.384   0.000   0.000   4.951
   19        1.569   3.386   0.000   0.000   4.955
   20        1.558   3.425   0.000   0.000   4.984
tot         28.107  66.274  24.901   0.746 120.028

 magnetization (x)

[...]

  FORCE on cell =-STRESS in cart. coord.  units (eV):
  Direction    XX          YY          ZZ          XY          YZ          ZX
  Alpha Z   643.37929   643.37929   643.37929
  Ewald   -3165.65081 -3165.65081 -3460.32592     0.00000    -0.00000     0.00000
  Hartree   808.75789   808.75789   556.41758    -0.00000    -0.00000    -0.00000
  E(xc)    -676.93494  -676.93494  -677.09565     0.00000     0.00000     0.00000
  Local    -605.94226  -605.94226   -61.03089     0.00000    -0.00000    -0.00000
  n-local   266.98214   261.85506   264.00912    -1.60791    -0.00026     0.00144
  augment   180.08743   180.08743   180.51284    -0.00000    -0.00000    -0.00000
  Kinetic  2517.21704  2586.65699  2553.82675    -7.83826     0.00129    -0.00300
  Fock        0.00000     0.00000     0.00000     0.00000     0.00000     0.00000
  Total       0.05221     0.05221    -0.30687     0.00000     0.00000    -0.00000
  in kB       0.34835     0.34835    -2.04729     0.00000     0.00000    -0.00000

 VOLUME and BASIS-vectors are now :
  energy-cutoff  :      520.00
  volume of cell :      240.15
      direct lattice vectors                 reciprocal lattice vectors
     3.902572230  0.000000000  0.000000000     0.256241253  0.000000000  0.000000000
     0.000000000  3.902572230  0.000000000     0.000000000  0.256241253  0.000000000
     0.000000000  0.000000000 15.768146242     0.000000000  0.000000000  0.063418996

  length of vectors
     3.902572230  3.902572230 15.768146242     0.256241253  0.256241253  0.063418996

 FORCES acting on ions
    electron-ion (+dipol)            ewald-force                    non-local-force                 convergence-correction
   -.674E-14 0.260E-13 -.216E+03   0.442E-15 0.114E-13 0.214E+03   0.542E-19 -.136E-19 0.151E+01   0.919E-14 -.599E-14 -.140E+00
   -.115E-14 -.129E-13 -.979E+02   -.555E-14 -.202E-13 0.972E+02   0.271E-19 0.000E+00 0.680E+00   -.730E-14 0.383E-14 -.157E+00
   -.800E-15 -.184E-13 0.979E+02   -.126E-13 -.743E-14 -.972E+02   -.542E-19 0.000E+00 -.680E+00   0.527E-14 0.857E-14 0.157E+00
   -.124E-13 -.337E-13 0.216E+03   0.961E-14 0.116E-13 -.214E+03   -.542E-19 0.000E+00 -.151E+01   0.320E-14 0.109E-13 0.140E+00
   0.497E-13 0.106E-12 -.602E+02   -.459E-14 -.301E-14 0.598E+02   -.169E-20 0.339E-20 0.489E+00   0.144E-13 0.204E-13 -.144E+00
   0.459E-13 0.107E-11 -.722E-12   0.888E-14 0.425E-14 0.137E-12   0.000E+00 -.847E-21 -.169E-20   0.113E-13 0.124E-13 0.370E-12
   0.654E-13 0.345E-12 0.602E+02   -.836E-14 -.265E-14 -.598E+02   0.000E+00 -.339E-20 -.489E+00   0.190E-13 0.998E-14 0.144E+00
   0.316E-12 0.403E-11 0.120E-11   0.137E-13 -.432E-14 0.568E-13   0.000E+00 0.000E+00 0.000E+00   0.555E-13 0.297E-13 -.471E-12
   0.111E-12 0.289E-12 0.665E+02   -.532E-14 0.690E-14 -.700E+02   0.000E+00 0.000E+00 0.331E+01   0.274E-13 -.224E-13 0.102E+00
   0.107E-12 0.270E-12 -.665E+02   -.192E-14 0.505E-14 0.700E+02   0.000E+00 -.169E-20 -.331E+01   0.142E-13 -.282E-14 -.102E+00
   0.111E-12 -.281E-16 -.117E+03   -.765E-14 0.706E-14 0.112E+03   0.000E+00 0.000E+00 0.543E+01   0.237E-13 -.111E-13 -.775E-01
   0.126E-12 0.130E-11 0.117E+03   -.880E-14 -.466E-14 -.112E+03   0.000E+00 0.847E-21 -.543E+01   0.143E-13 -.186E-13 0.775E-01
   0.124E-12 -.874E-13 0.473E+02   -.577E-14 0.868E-14 -.465E+02   0.000E+00 0.000E+00 -.900E+00   0.340E-13 0.168E-13 0.133E+00
   0.115E-12 0.115E-13 -.408E-12   -.631E-14 0.997E-15 0.107E-12   0.000E+00 0.000E+00 -.136E-19   0.385E-13 0.209E-13 0.326E-12
   0.111E-12 0.947E-13 -.473E+02   -.687E-14 -.142E-14 0.465E+02   0.000E+00 0.000E+00 0.900E+00   0.321E-13 0.137E-13 -.133E+00
   0.121E-12 0.167E-13 -.146E-12   -.128E-13 -.548E-15 -.284E-13   0.000E+00 0.169E-20 0.203E-19   0.323E-13 0.301E-13 -.300E-12
   -.594E-14 0.124E-12 0.473E+02   0.207E-13 0.408E-14 -.465E+02   0.000E+00 0.000E+00 -.900E+00   -.580E-14 -.210E-13 0.133E+00
   -.272E-14 0.171E-12 0.656E-12   0.104E-13 0.292E-15 0.136E-12   0.678E-20 0.000E+00 -.678E-20   0.929E-15 -.113E-13 0.342E-12
   0.234E-14 0.838E-13 -.473E+02   0.187E-13 0.192E-14 0.465E+02   0.000E+00 0.000E+00 0.900E+00   0.450E-15 -.531E-14 -.133E+00
   -.452E-14 0.140E-12 0.706E-14   -.375E-14 -.142E-13 -.284E-13   0.000E+00 0.000E+00 0.678E-20   -.438E-14 -.160E-13 -.269E-12
   0.137E-11 0.793E-11 0.705E-11   -.792E-14 0.386E-14 -.568E-13   -.220E-19 -.136E-19 0.133E-14   0.318E-12 0.627E-13 -.171E-12

 POSITION                                       TOTAL-FORCE (eV/Angst)
      0.00000      0.00000      3.78330         0.000000     -0.000000     -0.083201
      0.00000      0.00000      7.83137         0.000000     -0.000000     -0.102224
      0.00000      0.00000     11.87881         0.000000      0.000000      0.102224
      0.00000      0.00000      0.15874         0.000000     -0.000000      0.083201
      1.95129      1.95129      5.89661         0.000000      0.000000     -0.073536
      1.95129      1.95129      9.85509         0.000000      0.000000     -0.000000
      1.95129      1.95129     13.81357         0.000000     -0.000000      0.073536
      1.95129      1.95129      1.97102         0.000000      0.000000     -0.000000
      1.95129      1.95129     11.88606         0.000000     -0.000000     -0.081213
      1.95129      1.95129      7.82412         0.000000      0.000000      0.081213
      1.95129      1.95129      3.99325         0.000000      0.000000      0.010587
      1.95129      1.95129     15.71694         0.000000     -0.000000     -0.010587
      1.95129      0.00000     13.74623         0.000000     -0.000000     -0.008433
      1.95129      0.00000      9.85509         0.000000     -0.000000     -0.000000
      1.95129      0.00000      5.96395         0.000000      0.000000      0.008433
      1.95129      0.00000      1.97102         0.000000     -0.000000     -0.000000
      0.00000      1.95129     13.74623        -0.000000     -0.000000     -0.008433
      0.00000      1.95129      9.85509         0.000000     -0.000000     -0.000000
      0.00000      1.95129      5.96395         0.000000     -0.000000      0.008433
      0.00000      1.95129      1.97102         0.000000      0.000000     -0.000000
    total drift:                                0.000000      0.000000      0.000000

  FREE ENERGIE OF THE ION-ELECTRON SYSTEM (eV)
  free  energy   TOTEN  =      -152.88272681 eV

  energy  without entropy=     -152.88272681  energy(sigma->0) =     -152.88272681

 total charge

[...]

 magnetization (x)

# of ion       s       p       d       f       tot
    1        0.000   0.000   0.006   0.004   0.010
    2        0.001   0.001   0.013   0.007   0.021
    3        0.001   0.001   0.013   0.007   0.021
    4        0.000   0.000   0.006   0.004   0.010
    5        0.025   0.027   3.593   0.000   3.645
    6        0.023   0.020   3.867   0.000   3.910
    7        0.025   0.027   3.593   0.000   3.645
    8        0.016   0.010   1.678   0.000   1.705
    9        0.006  -0.032   0.000   0.000  -0.025
   10        0.006  -0.031   0.000   0.000  -0.025
   11        0.006  -0.001   0.000   0.000   0.005
   12        0.006  -0.001   0.000   0.000   0.005
   13        0.010  -0.053   0.000   0.000  -0.043
   14        0.007  -0.043   0.000   0.000  -0.036
   15        0.010  -0.053   0.000   0.000  -0.043
   16        0.011   0.001   0.000   0.000   0.012
   17        0.000  -0.034   0.000   0.000  -0.034
   18       -0.000  -0.044   0.000   0.000  -0.044
   19        0.000  -0.034   0.000   0.000  -0.034
   20        0.002   0.016   0.000   0.000   0.019
tot          0.157  -0.222  12.767   0.021  12.722

 BZINTS: Fermi energy:  7.795887;147.000000 electrons
         Band energy:-269.528310;  BLOECHL correction: -0.156928