 vasp.5.4.4.18Apr17-6-g9f103f2a35 (build Oct 03 2018 13:58:34) complex

 executed on             LinuxIFC date 2019.06.04  01:26:44

 INCAR:
 POTCAR:    PAW_PBE La 06Sep2000
 POTCAR:    PAW_PBE Mn 06Sep2000
 POTCAR:    PAW_PBE Ni 02Aug2007
 POTCAR:    PAW_PBE O 08Apr2002

 POTCAR:    PAW_PBE La 06Sep2000
   VRHFIN =La : [core=Kr4d]

   TITEL  = PAW_PBE La 06Sep2000
   POMASS =  138.900; ZVAL   =   11.000    mass and valenz
   ENMAX  =  219.292; ENMIN  =  164.469 eV

 POTCAR:    PAW_PBE Mn 06Sep2000
   VRHFIN =Mn: d6 s1

   TITEL  = PAW_PBE Mn 06Sep2000
   POMASS =   54.938; ZVAL   =    7.000    mass and valenz
   ENMAX  =  269.864; ENMIN  =  202.398 eV

 POTCAR:    PAW_PBE Ni 02Aug2007
   VRHFIN =Ni:

   TITEL  = PAW_PBE Ni 02Aug2007
   POMASS =   58.690; ZVAL   =   10.000    mass and valenz
   ENMAX  =  269.532; ENMIN  =  202.149 eV

 POTCAR:    PAW_PBE O 08Apr2002
   VRHFIN =O: s2p4

   TITEL  = PAW_PBE O 08Apr2002
   POMASS =   16.000; ZVAL   =    6.000    mass and valenz
   ENMAX  =  400.000; ENMIN  =  300.000 eV

 Optimization of the real space projectors (new method)

 maximal supplied QI-value         = 13.42
 optimisation between [QCUT,QGAM] = [ 11.67, 23.35] = [ 38.16,152.62] Ry
 Optimized for a Real-space Cutoff    1.63 Angstroem

   l    n(q)    QCUT    max X(q) W(low)/X(q) W(high)/X(q)  e(spline)
   0     11    11.673    13.882    0.27E-04    0.79E-05    0.11E-06
   0     11    11.673    12.184    0.39E-04    0.13E-04    0.19E-06
   1     11    11.673     4.523    0.73E-05    0.76E-05    0.12E-06
   1     11    11.673     4.424    0.87E-05    0.13E-04    0.19E-06
   2     10    11.673    52.481    0.65E-04    0.36E-04    0.18E-06
   2     10    11.673    38.501    0.61E-04    0.33E-04    0.17E-06
   3     10    11.673    65.631    0.17E-03    0.14E-03    0.37E-06
   3     10    11.673    56.854    0.17E-03    0.14E-03    0.37E-06
 Optimization of the real space projectors (new method)

[...]

   l    n(q)    QCUT    max X(q) W(low)/X(q) W(high)/X(q)  e(spline)
   2      9    11.539    60.317    0.19E-03    0.47E-04    0.16E-06
   2      9    11.539    55.921    0.19E-03    0.48E-04    0.16E-06
   0     10    11.539    51.690    0.80E-04    0.50E-04    0.24E-06
   0     10    11.539    30.015    0.73E-04    0.45E-04    0.22E-06
   1     10    11.539    18.849    0.87E-04    0.16E-03    0.71E-07
   1     10    11.539    14.624    0.73E-04    0.13E-03    0.64E-07
 Optimization of the real space projectors (new method)

 maximal supplied QI-value         = 24.76
 optimisation between [QCUT,QGAM] = [ 11.64, 23.27] = [ 37.91,151.63] Ry
 Optimized for a Real-space Cutoff    1.14 Angstroem

   l    n(q)    QCUT    max X(q) W(low)/X(q) W(high)/X(q)  e(spline)
   0      8    11.635    20.381    0.10E-03    0.33E-03    0.24E-06
   0      8    11.635    15.268    0.11E-03    0.35E-03    0.26E-06
   1      7    11.635     5.964    0.24E-03    0.31E-03    0.30E-06
   1      7    11.635     5.382    0.22E-03    0.25E-03    0.26E-06
  PAW_PBE La 06Sep2000                  :
  PAW_PBE Mn 06Sep2000                  :
  PAW_PBE Ni 02Aug2007                  :
  PAW_PBE O 08Apr2002                   :

 POSCAR: SCEL4_1_4_1_1_0_0/1
  positions in direct lattice
  velocities in cartesian coordinates
 exchange correlation table for  LEXCH =        8
   RHO(1)=    0.500       N(1)  =     2000
   RHO(2)=  100.500       N(2)  =     4000

 ion  position               nearest neighbor table
   1  0.000  0.500  0.236-  20 2.62  16 2.67  11 2.67  11 2.67  16 2.67  19 2.76  19 2.76   7 3.26
                             7 3.26   8 3.37   8 3.37   8 3.37   8 3.37   4 3.67   4 3.67
   2  0.000  0.000  0.489-  19 2.60  15 2.67  10 2.67  10 2.67  15 2.67  18 2.75  18 2.75   9 2.81
                             9 2.81  14 2.81  14 2.81   8 3.25   8 3.25   5 3.37   5 3.37   5 3.37
   3  0.000  0.500  0.761-  20 2.60  13 2.67  12 2.67  12 2.67  13 2.67  17 2.75  17 2.75   9 2.81
                            14 2.81   9 2.81  14 2.81   7 3.25   7 3.25   6 3.37   6 3.37   6 3.37
   4  0.000  0.000  0.014-  19 2.62  16 2.67  11 2.67  11 2.67  16 2.67  20 2.76  20 2.76   8 3.26
                             8 3.26   7 3.37   7 3.37   7 3.37   7 3.37   1 3.67   1 3.67
   5  0.500  0.500  0.500-  10 1.89  15 1.89  18 1.94  18 1.94  14 1.94   9 1.94   2 3.37   2 3.37
                             2 3.37   2 3.37
   6  0.500  0.000  0.750-  12 1.89  13 1.89  17 1.94  17 1.94   9 1.94  14 1.94   3 3.37   3 3.37
                             3 3.37   3 3.37
   7  0.500  0.500  0.998-  20 1.94  20 1.94  11 1.96  16 1.96  13 1.98  12 1.98   3 3.25   3 3.25
                             1 3.26   1 3.26   4 3.37   4 3.37   4 3.37   4 3.37
   8  0.500  0.000  0.252-  19 1.94  19 1.94  11 1.96  16 1.96  15 1.98  10 1.98   2 3.25   2 3.25
                             4 3.26   4 3.26   1 3.37   1 3.37   1 3.37   1 3.37
   9  0.500  0.750  0.625-   5 1.94   6 1.94   2 2.81   3 2.81   2 2.81   3 2.81
  10  0.500  0.253  0.380-   5 1.89   8 1.98   2 2.67   2 2.67
  11  0.500  0.750  0.125-   7 1.96   8 1.96   1 2.67   4 2.67   1 2.67   4 2.67
  12  0.500  0.247  0.870-   6 1.89   7 1.98   3 2.67   3 2.67
  13  0.500  0.753  0.870-   6 1.89   7 1.98   3 2.67   3 2.67
  14  0.500  0.250  0.625-   5 1.94   6 1.94   2 2.81   3 2.81   2 2.81   3 2.81
  15  0.500  0.747  0.380-   5 1.89   8 1.98   2 2.67   2 2.67
  16  0.500  0.250  0.125-   7 1.96   8 1.96   1 2.67   4 2.67   1 2.67   4 2.67
  17  0.000  0.000  0.748-   6 1.94   6 1.94   3 2.75   3 2.75
  18  0.000  0.500  0.502-   5 1.94   5 1.94   2 2.75   2 2.75
  19  0.000  0.000  0.253-   8 1.94   8 1.94   2 2.60   4 2.62   1 2.76   1 2.76
  20  0.000  0.500  0.997-   7 1.94   7 1.94   3 2.60   1 2.62   4 2.76   4 2.76

  LATTYP: Found a simple orthorhombic cell.
 ALAT       =     3.8811244185
 B/A-ratio  =     1.4163679813
 C/A-ratio  =     2.8359837433

  Lattice vectors:

 A1 = (   3.8811244185,   0.0000000000,   0.0000000000)
 A2 = (   0.0000000000,   3.8870369398,   3.8870369398)
 A3 = (   0.0000000000,  -7.7829869895,   7.7829869895)

Analysis of symmetry for initial positions (statically):
 Subroutine PRICEL returns:
 Original cell was already a primitive cell.

 Routine SETGRP: Setting up the symmetry group for a
 simple orthorhombic supercell.

 Subroutine GETGRP returns: Found  8 space group operations
 (whereof  4 operations were pure point group operations)
 out of a pool of  8 trial point group operations.

The static configuration has the point symmetry C_2v.
 The point group associated with its full space group is D_2h.

Analysis of symmetry for dynamics (positions and initial velocities):
 Subroutine PRICEL returns:
 Original cell was already a primitive cell.

[...]

The dynamic configuration has the point symmetry C_2v.
 The point group associated with its full space group is D_2h.

Analysis of structural, dynamic, and magnetic symmetry:
 Subroutine PRICEL returns:
 Original cell was already a primitive cell.

 Routine SETGRP: Setting up the symmetry group for a
 simple orthorhombic supercell.

 Subroutine GETGRP returns: Found  8 space group operations
 (whereof  4 operations were pure point group operations)
 out of a pool of  8 trial point group operations.

The magnetic configuration has the point symmetry C_2v.
 The point group associated with its full space group is D_2h.

 Subroutine INISYM returns: Found  8 space group operations
 (whereof  4 operations are pure point group operations),
 and found     1 'primitive' translations

 KPOINTS: Automatic mesh

Automatic generation of k-mesh.
 generate k-points for:    5    4    2
Space group operators:
 irot       det(A)        alpha          n_x          n_y          n_z        tau_x        tau_y        tau_z
    1     1.000000     0.000000     1.000000     0.000000     0.000000     0.000000     0.000000     0.000000
    2     1.000000   180.000000     0.000000    -0.707107     0.707107     0.000000     0.000000     0.000000
    3    -1.000000   180.000000     0.000000     0.707107     0.707107     0.000000     0.000000     0.000000
    4    -1.000000   180.000000     1.000000     0.000000     0.000000     0.000000     0.000000     0.000000
    5    -1.000000     0.000000     1.000000     0.000000     0.000000     0.000000     0.500000     0.250000
    6    -1.000000   180.000000     0.000000    -0.707107     0.707107     0.000000     0.500000     0.250000
    7     1.000000   180.000000     0.000000     0.707107     0.707107     0.000000     0.500000     0.250000
    8     1.000000   180.000000     1.000000     0.000000     0.000000     0.000000     0.500000     0.250000

 Subroutine IBZKPT returns following result:

 Found     18 irreducible k-points:

 Following reciprocal coordinates:
            Coordinates               Weight
  0.000000  0.000000  0.000000      1.000000
  0.200000  0.000000  0.000000      2.000000
  0.400000  0.000000  0.000000      2.000000
  0.000000  0.250000  0.000000      2.000000
  0.200000  0.250000  0.000000      4.000000
  0.400000  0.250000  0.000000      4.000000
  0.000000  0.500000  0.000000      1.000000
  0.200000  0.500000  0.000000      2.000000
  0.400000  0.500000  0.000000      2.000000
  0.000000  0.000000  0.500000      1.000000
  0.200000  0.000000  0.500000      2.000000
  0.400000  0.000000  0.500000      2.000000
  0.000000  0.250000  0.500000      2.000000
  0.200000  0.250000  0.500000      4.000000
  0.400000  0.250000  0.500000      4.000000
  0.000000  0.500000  0.500000      1.000000
  0.200000  0.500000  0.500000      2.000000
  0.400000  0.500000  0.500000      2.000000

 Following cartesian coordinates:
            Coordinates               Weight
  0.000000  0.000000  0.000000      1.000000
  0.051531  0.000000  0.000000      2.000000
  0.103063  0.000000  0.000000      2.000000
  0.000000  0.032158  0.032158      2.000000
  0.051531  0.032158  0.032158      4.000000
  0.103063  0.032158  0.032158      4.000000
  0.000000  0.064316  0.064316      1.000000
  0.051531  0.064316  0.064316      2.000000
  0.103063  0.064316  0.064316      2.000000
  0.000000 -0.032121  0.032121      1.000000
  0.051531 -0.032121  0.032121      2.000000
  0.103063 -0.032121  0.032121      2.000000
  0.000000  0.000037  0.064280      2.000000
  0.051531  0.000037  0.064280      4.000000
  0.103063  0.000037  0.064280      4.000000
  0.000000  0.032195  0.096438      1.000000
  0.051531  0.032195  0.096438      2.000000
  0.103063  0.032195  0.096438      2.000000

 TETIRR: Found    120 inequivalent tetrahedra from      240

 SYSTEM =  final
 POSCAR =  SCEL4_1_4_1_1_0_0/1

 Startparameter for this run:
   NWRITE =      2    write-flag & timer
   PREC   = accura    normal or accurate (medium, high low for compatibility)
   ISTART =      0    job   : 0-new  1-cont  2-samecut
   ICHARG =      1    charge: 1-file 2-atom 10-const
   ISPIN  =      2    spin polarized calculation?
   LNONCOLLINEAR =      F non collinear calculations
   LSORBIT =      F    spin-orbit coupling
   INIWAV =      1    electr: 0-lowe 1-rand  2-diag
   LASPH  =      F    aspherical Exc in radial PAW
   METAGGA=      F    non-selfconsistent MetaGGA calc.

 Electronic Relaxation 1
[...]
  0.5884  0.5884

[...]

--------------------------------------- Iteration      1(  18)  ---------------------------------------

atom =   1  type =  1  l = 0

[...]

  o =  0.7835  v =  0.0000  1.0000      0.0000  0.0000
  o =  0.7897  v =  1.0000  0.0000      0.0000  0.0000
atom =  20  type =  4  l = 0

 onsite density matrix

[...]

  0.7835

 occupancies and eigenvectors

  o =  0.7835  v =  0.0000  1.0000      0.0000  0.0000
  o =  0.7897  v =  1.0000  0.0000      0.0000  0.0000
 BZINTS: Fermi energy:  7.614239;150.000000 electrons
         Band energy:-224.544558;  BLOECHL correction: -0.113438

 eigenvalue-minimisations  :  7229
 total energy-change (2. order) :-0.5833278E-03  (-0.7339095E-03)
 number of electron     150.0000029 magnetization       9.9951458
 augmentation part       19.3356681 magnetization       7.5677469

 Free energy of the ion-electron system (eV)
  alpha Z        PSCENC =       653.58285626
  Ewald energy   TEWEN  =    -10273.17827588
  -Hartree energ DENC   =     -2376.20570924
  -exchange      EXHF   =         0.00000000
  -V(xc)+E(xc)   XCENC  =       511.62521632
  PAW double counting   =     12453.70444849   -12532.87478790
  entropy T*S    EENTRO =         0.00000000
  eigenvalues    EBANDS =      -224.54455848
  atomic energy  EATOM  =     11641.04254247
  Solvation  Ediel_sol  =         0.00000000
  free energy    TOTEN  =      -146.84826796 eV

  energy without entropy =     -146.84826796  energy(sigma->0) =     -146.84826796

 average (electrostatic) potential at core
  the test charge radii are     1.1480  1.0210  0.9791  0.7215
  (the norm of the test charge is              1.0000)
       1 -95.4544       2 -95.4644       3 -95.4644       4 -95.4544       5 -43.1300
       6 -43.1300       7 -83.6876       8 -83.6876       9 -67.0500      10 -67.0296
      11 -66.5862      12 -67.0296      13 -67.0296      14 -67.0500      15 -67.0296
      16 -66.5862      17 -67.1741      18 -67.1741      19 -66.7054      20 -66.7054

 E-fermi :   7.6142     XC(G=0): -11.7020     alpha+bet :-16.4676

[...]

 k-point     1 :       0.0000    0.0000    0.0000
  band No.  band energies     occupation
      1     -23.9826      1.00000
      2     -23.9255      1.00000
      3     -23.9237      1.00000
      4     -23.8440      1.00000
      5     -11.0452      1.00000
      6     -11.0010      1.00000
      7     -10.8011      1.00000
      8     -10.3592      1.00000
      9     -10.3055      1.00000
     10     -10.2065      1.00000
     11     -10.1061      1.00000
     12      -9.9911      1.00000
     13      -9.7668      1.00000
     14      -9.6781      1.00000
     15      -9.6716      1.00000
     16      -9.4910      1.00000
     17      -7.4993      1.00000
     18      -7.4950      1.00000
     19      -7.4480      1.00000
     20      -7.3979      1.00000
     21      -7.3919      1.00000
     22      -7.2298      1.00000
     23      -7.1986      1.00000
     24      -7.1597      1.00000
     25      -7.0479      1.00000
     26      -6.9702      1.00000
     27      -6.9287      1.00000
     28      -6.9230      1.00000
     29       0.3183      1.00000
     30       0.5613      1.00000
     31       0.9199      1.00000
     32       1.2050      1.00000
     33       1.4633      1.00000
     34       1.6408      1.00000
     35       1.8483      1.00000
     36       1.8680      1.00000
     37       1.8710      1.00000
     38       1.8867      1.00000
     39       2.0445      1.00000
     40       2.2475      1.00000
     41       2.3034      1.00000
     42       2.3170      1.00000
     43       2.3433      1.00000
     44       2.7422      1.00000
     45       2.7544      1.00000
     46       2.7561      1.00000
     47       3.2446      1.00000
     48       3.2491      1.00000
     49       3.2690      1.00000
     50       3.3724      1.00000
     51       3.5673      1.00000
     52       3.6566      1.00000
     53       3.9683      1.00000
     54       4.0229      1.00000
     55       4.1590      1.00000
     56       4.7033      1.00000
     57       4.8772      1.00000
     58       5.0970      1.00000
     59       5.1037      1.00000
     60       5.1239      1.00000
[...]
     84      10.1499      0.00000
     85      10.1765      0.00000
     86      10.7305      0.00000
     87      10.7727      0.00000
     88      10.7897      0.00000
     89      10.8019      0.00000
     90      10.8377      0.00000
     91      10.9270      0.00000
     92      10.9956      0.00000
     93      11.0375      0.00000
     94      11.0523      0.00000
     95      11.0847      0.00000
     96      11.0962      0.00000
     97      11.1514      0.00000
     98      11.1775      0.00000

[...]

 spin component 2

[...]

 k-point    18 :       0.4000    0.5000    0.5000
  band No.  band energies     occupation
      1     -23.8700      1.00000
      2     -23.8700      1.00000
      3     -23.8522      1.00000
      4     -23.8522      1.00000
      5     -10.7069      1.00000
      6     -10.7069      1.00000
      7     -10.6061      1.00000
      8     -10.6061      1.00000
      9     -10.2662      1.00000
     10     -10.2662      1.00000
     11     -10.1565      1.00000
     12     -10.1565      1.00000
     13      -9.8376      1.00000
     14      -9.8376      1.00000
     15      -9.6097      1.00000
     16      -9.6097      1.00000
     17      -7.5666      1.00000
     18      -7.5666      1.00000
     19      -7.3303      1.00000
     20      -7.3303      1.00000
     21      -7.1865      1.00000
     22      -7.1865      1.00000
     23      -7.0904      1.00000
     24      -7.0904      1.00000
     25      -7.0123      1.00000
     26      -7.0123      1.00000
     27      -6.8885      1.00000
     28      -6.8885      1.00000
     29       1.6756      1.00000
     30       1.6756      1.00000
     31       1.8538      1.00000
     32       1.8538      1.00000
     33       2.0446      1.00000
     34       2.0446      1.00000
     35       2.3896      1.00000
     36       2.3896      1.00000
     37       2.8194      1.00000
     38       2.8194      1.00000
     39       2.9935      1.00000
     40       2.9936      1.00000
     41       3.0472      1.00000
     42       3.0472      1.00000
     43       3.4424      1.00000
     44       3.4424      1.00000
     45       3.5624      1.00000
     46       3.5624      1.00000
     47       3.9017      1.00000
     48       3.9017      1.00000
     49       4.1038      1.00000
     50       4.1038      1.00000
     51       4.2959      1.00000
     52       4.2959      1.00000
     53       5.2411      1.00000
     54       5.2411      1.00000
     55       5.3230      1.00000
     56       5.3230      1.00000
     57       5.6251      1.00000
     58       5.6251      1.00000
     59       5.6805      1.00000
     60       5.6805      1.00000
[...]
     84      10.9867      0.00000
     85      10.9934      0.00000
     86      11.0259      0.00000
     87      11.0328      0.00000
     88      11.0410      0.00000
     89      11.0526      0.00000
     90      11.0676      0.00000
     91      11.0748      0.00000
     92      11.0786      0.00000
     93      11.0870      0.00000
     94      11.0911      0.00000
     95      11.1186      0.00000
     96      11.1371      0.00000
     97      11.1657      0.00000
     98      11.1833      0.00000

 soft charge-density along one line, spin component           1
         0         1         2         3         4         5         6         7         8         9
 total charge-density along one line

 soft charge-density along one line, spin component           2
         0         1         2         3         4         5         6         7         8         9
 total charge-density along one line

------------------------ aborting loop because EDIFF is reached ----------------------------------------

 total charge

# of ion       s       p       d       f       tot
    1        2.001   5.696   0.494   0.189   8.380
    2        2.001   5.700   0.498   0.195   8.394
    3        2.001   5.700   0.498   0.195   8.394
    4        2.001   5.696   0.494   0.189   8.380
    5        0.340   0.525   4.861   0.000   5.726
    6        0.340   0.525   4.862   0.000   5.727
    7        0.407   0.595   8.327   0.000   9.328
    8        0.406   0.595   8.326   0.000   9.327
    9        1.562   3.459   0.000   0.000   5.021
   10        1.563   3.450   0.000   0.000   5.014
   11        1.558   3.455   0.000   0.000   5.013
   12        1.563   3.450   0.000   0.000   5.014
   13        1.563   3.450   0.000   0.000   5.014
   14        1.562   3.459   0.000   0.000   5.021
   15        1.563   3.450   0.000   0.000   5.014
   16        1.558   3.454   0.000   0.000   5.012
   17        1.566   3.447   0.000   0.000   5.012
   18        1.566   3.447   0.000   0.000   5.012
   19        1.558   3.456   0.000   0.000   5.015
   20        1.558   3.458   0.000   0.000   5.016
tot         28.236  66.467  28.361   0.768 123.832

 magnetization (x)

[...]

  FORCE on cell =-STRESS in cart. coord.  units (eV):
  Direction    XX          YY          ZZ          XY          YZ          ZX
  Alpha Z   653.58286   653.58286   653.58286
  Ewald   -3336.46162 -3468.37348 -3468.37348    -0.00000    39.08376    -0.00000
  Hartree   866.40312   754.51048   754.51048     0.00000    43.48124    -0.00000
  E(xc)    -697.39749  -697.55532  -697.55532     0.00000    -0.04702    -0.00000
  Local    -654.42910  -411.04755  -411.04755    -0.00000   -82.09822    -0.00000
  n-local   277.42135   277.37239   277.37136    -0.29810     0.57884    -0.29783
  augment   325.76756   325.98366   325.98366     0.00000     0.00634    -0.00000
  Kinetic  2564.67733  2565.06150  2565.14842     0.45779    -1.17873     0.45857
  Fock        0.00000     0.00000     0.00000     0.00000     0.00000     0.00000
  Total      -0.43600    -0.42252    -0.42252     0.00000    -0.17358     0.00000
  in kB      -2.97469    -2.88276    -2.88276     0.00000    -1.18428     0.00000

 VOLUME and BASIS-vectors are now :
  energy-cutoff  :      520.00
  volume of cell :      234.83
      direct lattice vectors                 reciprocal lattice vectors
     3.881124418  0.000000000  0.000000000     0.257657290  0.000000000  0.000000000
     0.000000000  3.887036940  3.887036940     0.000000000  0.128632685  0.128632685
     0.000000000 -7.782986990  7.782986990     0.000000000 -0.064242687  0.064242687

  length of vectors
     3.881124418  5.497100358 11.006805756     0.257657290  0.181914088  0.090852880

 FORCES acting on ions
    electron-ion (+dipol)            ewald-force                    non-local-force                 convergence-correction
   -.509E-14 0.999E+02 -.999E+02   -.262E-13 -.989E+02 0.989E+02   0.000E+00 -.104E+01 0.104E+01   0.549E-14 -.105E+00 0.105E+00
   -.563E-14 0.991E+02 -.991E+02   0.117E-14 -.982E+02 0.982E+02   0.000E+00 -.825E+00 0.825E+00   0.196E-13 -.114E+00 0.114E+00
   -.566E-14 -.991E+02 0.991E+02   -.335E-13 0.982E+02 -.982E+02   0.000E+00 0.825E+00 -.825E+00   0.550E-14 0.114E+00 -.114E+00
   -.140E-15 -.999E+02 0.999E+02   0.385E-14 0.989E+02 -.989E+02   0.000E+00 0.104E+01 -.104E+01   -.858E-14 0.105E+00 -.105E+00
   0.544E-13 0.399E+02 -.399E+02   -.150E-13 -.394E+02 0.394E+02   0.000E+00 -.429E+00 0.429E+00   0.106E-14 -.677E-01 0.677E-01
   0.514E-13 -.399E+02 0.399E+02   0.872E-14 0.394E+02 -.394E+02   0.000E+00 0.429E+00 -.429E+00   0.497E-14 0.677E-01 -.677E-01
   0.283E-12 -.581E+02 0.581E+02   0.930E-14 0.567E+02 -.567E+02   0.000E+00 0.133E+01 -.133E+01   0.479E-13 0.122E+00 -.122E+00
   0.289E-12 0.581E+02 -.581E+02   0.439E-14 -.567E+02 0.567E+02   0.000E+00 -.133E+01 0.133E+01   0.265E-13 -.122E+00 0.122E+00
   0.116E-12 0.107E-11 0.115E-12   0.518E-14 0.355E-13 0.213E-13   0.000E+00 0.217E-18 0.000E+00   0.826E-14 -.173E-12 0.266E-12
   0.106E-12 0.218E+02 -.838E+02   0.142E-13 -.201E+02 0.786E+02   0.000E+00 -.163E+01 0.516E+01   0.225E-13 -.583E-01 0.443E-01
   0.119E-12 0.323E-11 0.284E-11   0.150E-16 0.178E-13 -.142E-13   0.000E+00 0.000E+00 0.542E-19   0.198E-13 0.394E-13 -.145E-13
   0.113E-12 -.218E+02 0.838E+02   0.338E-14 0.201E+02 -.786E+02   0.542E-19 0.163E+01 -.516E+01   0.160E-13 0.583E-01 -.443E-01
   0.106E-12 -.838E+02 0.218E+02   0.107E-13 0.786E+02 -.201E+02   -.542E-19 0.516E+01 -.163E+01   0.276E-13 0.443E-01 -.583E-01
   0.113E-12 -.280E-12 0.780E-12   0.466E-14 -.284E-13 0.000E+00   0.000E+00 0.000E+00 -.217E-18   0.231E-13 -.277E-12 0.184E-12
   0.107E-12 0.838E+02 -.218E+02   -.751E-15 -.786E+02 0.201E+02   0.000E+00 -.516E+01 0.163E+01   0.181E-13 -.443E-01 0.583E-01
   0.113E-12 0.901E-12 0.544E-12   0.102E-13 -.142E-13 0.462E-13   -.508E-20 0.000E+00 0.000E+00   0.254E-13 0.609E-13 -.533E-13
   -.187E-14 -.287E+02 0.287E+02   -.112E-13 0.288E+02 -.288E+02   0.000E+00 -.136E+00 0.136E+00   0.750E-14 0.482E-01 -.482E-01
   -.558E-14 0.287E+02 -.287E+02   0.104E-13 -.288E+02 0.288E+02   0.000E+00 0.136E+00 -.136E+00   0.795E-14 -.482E-01 0.482E-01
   -.714E-14 0.332E+02 -.332E+02   -.133E-14 -.331E+02 0.331E+02   0.000E+00 -.181E-01 0.181E-01   0.280E-14 -.501E-01 0.501E-01
   -.184E-14 -.332E+02 0.332E+02   0.109E-13 0.331E+02 -.331E+02   0.000E+00 0.181E-01 -.181E-01   -.523E-14 0.501E-01 -.501E-01
   0.154E-11 -.999E-12 0.145E-10   0.901E-14 0.711E-14 -.142E-13   -.508E-20 -.178E-14 -.885E-15   0.276E-12 0.139E-12 -.629E-13

 POSITION                                       TOTAL-FORCE (eV/Angst)
      0.00000      0.10982      3.77722         0.000000     -0.081133      0.081133
      0.00000     -3.80615      3.80615         0.000000     -0.080737      0.080737
      0.00000     -3.97906      7.86610         0.000000      0.080737     -0.080737
      0.00000     -0.11205      0.11205         0.000000      0.081133     -0.081133
      1.94056     -1.94897      5.83600         0.000000     -0.050393      0.050393
      1.94056     -5.83625      5.83625         0.000000      0.050393     -0.050393
      1.94056     -5.82419      9.71123         0.000000      0.008189     -0.008189
      1.94056     -1.96102      1.96102         0.000000     -0.008189      0.008189
      1.94056     -1.94909      7.77964         0.000000     -0.000000      0.000000
      1.94056     -1.97591      3.94546         0.000000     -0.038829     -0.011876
      1.94056      1.94240      3.88815         0.000000     -0.000000      0.000000
      1.94056     -5.80930      7.72679         0.000000      0.038829      0.011876
      1.94056     -3.83975      9.69634         0.000000     -0.011876     -0.038829
      1.94056     -3.89261      5.83613         0.000000     -0.000000      0.000000
      1.94056     -0.05843      5.86295         0.000000      0.011876      0.038829
      1.94056     -0.00111      1.94463         0.000000     -0.000000      0.000000
      0.00000     -5.81903      5.81903         0.000000      0.015063     -0.015063
      0.00000     -1.96619      5.85323         0.000000     -0.015063      0.015063
      0.00000     -1.96720      1.96720         0.000000      0.022616     -0.022616
      0.00000     -5.81802      9.70505         0.000000     -0.022616      0.022616
    total drift:                                0.000000     -0.000000      0.000000

  FREE ENERGIE OF THE ION-ELECTRON SYSTEM (eV)
  free  energy   TOTEN  =      -146.84826796 eV

  energy  without entropy=     -146.84826796  energy(sigma->0) =     -146.84826796

 total charge

[...]

 magnetization (x)

# of ion       s       p       d       f       tot
    1       -0.000   0.000   0.003   0.002   0.004
    2        0.000   0.001   0.011   0.005   0.018
    3        0.000   0.001   0.011   0.005   0.018
    4       -0.000   0.000   0.003   0.002   0.004
    5        0.023   0.020   3.405   0.000   3.449
    6        0.023   0.020   3.406   0.000   3.449
    7        0.015   0.011   1.600   0.000   1.625
    8        0.015   0.010   1.599   0.000   1.624
    9        0.002  -0.023   0.000   0.000  -0.021
   10        0.005  -0.043   0.000   0.000  -0.038
   11        0.007   0.003   0.000   0.000   0.010
   12        0.005  -0.043   0.000   0.000  -0.038
   13        0.005  -0.043   0.000   0.000  -0.038
   14        0.002  -0.023   0.000   0.000  -0.021
   15        0.005  -0.043   0.000   0.000  -0.038
   16        0.007   0.002   0.000   0.000   0.009
   17        0.004  -0.061   0.000   0.000  -0.057
   18        0.004  -0.061   0.000   0.000  -0.057
   19        0.006  -0.021   0.000   0.000  -0.015
   20        0.006  -0.020   0.000   0.000  -0.014
tot          0.136  -0.311  10.037   0.015   9.876

 BZINTS: Fermi energy:  7.614239;150.000000 electrons
         Band energy:-224.544558;  BLOECHL correction: -0.113438