 vasp.5.4.4.18Apr17-6-g9f103f2a35 (build Oct 03 2018 13:58:34) complex

 executed on             LinuxIFC date 2019.06.04  00:22:40

 INCAR:
 POTCAR:    PAW_PBE La 06Sep2000
 POTCAR:    PAW_PBE Mn 06Sep2000
 POTCAR:    PAW_PBE Ni 02Aug2007
 POTCAR:    PAW_PBE O 08Apr2002

 POTCAR:    PAW_PBE La 06Sep2000
   VRHFIN =La : [core=Kr4d]

   TITEL  = PAW_PBE La 06Sep2000
   POMASS =  138.900; ZVAL   =   11.000    mass and valenz
   ENMAX  =  219.292; ENMIN  =  164.469 eV

 POTCAR:    PAW_PBE Mn 06Sep2000
   VRHFIN =Mn: d6 s1

   TITEL  = PAW_PBE Mn 06Sep2000
   POMASS =   54.938; ZVAL   =    7.000    mass and valenz
   ENMAX  =  269.864; ENMIN  =  202.398 eV

 POTCAR:    PAW_PBE Ni 02Aug2007
   VRHFIN =Ni:

   TITEL  = PAW_PBE Ni 02Aug2007
   POMASS =   58.690; ZVAL   =   10.000    mass and valenz
   ENMAX  =  269.532; ENMIN  =  202.149 eV

 POTCAR:    PAW_PBE O 08Apr2002
   VRHFIN =O: s2p4

   TITEL  = PAW_PBE O 08Apr2002
   POMASS =   16.000; ZVAL   =    6.000    mass and valenz
   ENMAX  =  400.000; ENMIN  =  300.000 eV

 Optimization of the real space projectors (new method)

 maximal supplied QI-value         = 13.42
 optimisation between [QCUT,QGAM] = [ 11.67, 23.35] = [ 38.16,152.62] Ry
 Optimized for a Real-space Cutoff    1.63 Angstroem

   l    n(q)    QCUT    max X(q) W(low)/X(q) W(high)/X(q)  e(spline)
   0     11    11.673    13.882    0.27E-04    0.79E-05    0.11E-06
   0     11    11.673    12.184    0.39E-04    0.13E-04    0.19E-06
   1     11    11.673     4.523    0.73E-05    0.76E-05    0.12E-06
   1     11    11.673     4.424    0.87E-05    0.13E-04    0.19E-06
   2     10    11.673    52.481    0.65E-04    0.36E-04    0.18E-06
   2     10    11.673    38.501    0.61E-04    0.33E-04    0.17E-06
   3     10    11.673    65.631    0.17E-03    0.14E-03    0.37E-06
   3     10    11.673    56.854    0.17E-03    0.14E-03    0.37E-06
 Optimization of the real space projectors (new method)

[...]

   l    n(q)    QCUT    max X(q) W(low)/X(q) W(high)/X(q)  e(spline)
   2      9    11.539    60.317    0.19E-03    0.47E-04    0.16E-06
   2      9    11.539    55.921    0.19E-03    0.48E-04    0.16E-06
   0     10    11.539    51.690    0.80E-04    0.50E-04    0.24E-06
   0     10    11.539    30.015    0.73E-04    0.45E-04    0.22E-06
   1     10    11.539    18.849    0.87E-04    0.16E-03    0.71E-07
   1     10    11.539    14.624    0.73E-04    0.13E-03    0.64E-07
 Optimization of the real space projectors (new method)

 maximal supplied QI-value         = 24.76
 optimisation between [QCUT,QGAM] = [ 11.64, 23.27] = [ 37.91,151.63] Ry
 Optimized for a Real-space Cutoff    1.14 Angstroem

   l    n(q)    QCUT    max X(q) W(low)/X(q) W(high)/X(q)  e(spline)
   0      8    11.635    20.381    0.10E-03    0.33E-03    0.24E-06
   0      8    11.635    15.268    0.11E-03    0.35E-03    0.26E-06
   1      7    11.635     5.964    0.24E-03    0.31E-03    0.30E-06
   1      7    11.635     5.382    0.22E-03    0.25E-03    0.26E-06
  PAW_PBE La 06Sep2000                  :
  PAW_PBE Mn 06Sep2000                  :
  PAW_PBE Ni 02Aug2007                  :
  PAW_PBE O 08Apr2002                   :

 POSCAR: SCEL6_1_1_6_0_0_0/1
  positions in direct lattice
  velocities in cartesian coordinates
 exchange correlation table for  LEXCH =        8
   RHO(1)=    0.500       N(1)  =     2000
   RHO(2)=  100.500       N(2)  =     4000

 ion  position               nearest neighbor table
   1  0.000  0.000  0.167-  17 2.75  17 2.75  17 2.75  17 2.75  29 2.81  29 2.81  23 2.81  23 2.81
                            24 2.81  30 2.81  24 2.81  30 2.81  11 3.38  11 3.38  11 3.38  11 3.38
   2  0.000  0.000  0.321-  23 2.54  29 2.54  29 2.54  23 2.54  16 2.77  16 2.77  16 2.77  16 2.77
                            11 3.23  11 3.23  11 3.23  11 3.23   1 3.66
   3  0.000  0.000  0.495-  22 2.62  28 2.62  28 2.62  22 2.62  15 2.75  15 2.75  15 2.75  15 2.75
                            10 3.34  10 3.34  10 3.34  10 3.34
   4  0.000  0.000  0.667-  14 2.75  14 2.75  14 2.75  14 2.75  26 2.75  26 2.75  20 2.75  20 2.75
                            21 2.75  27 2.75  21 2.75  27 2.75   7 3.40   7 3.40   7 3.40   7 3.40
   5  0.000  0.000  0.839-  19 2.62  25 2.62  25 2.62  19 2.62  13 2.75  13 2.75  13 2.75  13 2.75
                             8 3.34   8 3.34   8 3.34   8 3.34
   6  0.000  0.000  0.013-  24 2.54  30 2.54  30 2.54  24 2.54  18 2.77  18 2.77  18 2.77  18 2.77
                            12 3.23  12 3.23  12 3.23  12 3.23   1 3.66
   7  0.500  0.500  0.751-  20 1.94  26 1.94  20 1.94  26 1.94  13 1.98  14 1.99   4 3.40   4 3.40
                             4 3.40   4 3.40
   8  0.500  0.500  0.918-  18 1.89  19 1.95  25 1.95  19 1.95  25 1.95  13 2.00   5 3.34   5 3.34
                             5 3.34   5 3.34
   9  0.500  0.500  0.583-  21 1.94  27 1.94  21 1.94  27 1.94  15 1.98  14 1.99   4 3.40   4 3.40
                             4 3.40   4 3.40
  10  0.500  0.500  0.415-  16 1.89  22 1.95  28 1.95  22 1.95  28 1.95  15 2.00   3 3.34   3 3.34
                             3 3.34   3 3.34
  11  0.500  0.500  0.249-  23 1.94  29 1.94  23 1.94  29 1.94  17 1.96  16 2.04   2 3.23   2 3.23
                             2 3.23   2 3.23   1 3.38   1 3.38   1 3.38   1 3.38
  12  0.500  0.500  0.084-  24 1.94  30 1.94  24 1.94  30 1.94  17 1.96  18 2.04   6 3.23   6 3.23
                             6 3.23   6 3.23   1 3.38   1 3.38   1 3.38   1 3.38
  13  0.500  0.500  0.834-   7 1.98   8 2.00   5 2.75   5 2.75   5 2.75   5 2.75
  14  0.500  0.500  0.667-   7 1.99   9 1.99   4 2.75   4 2.75   4 2.75   4 2.75
  15  0.500  0.500  0.499-   9 1.98  10 2.00   3 2.75   3 2.75   3 2.75   3 2.75
  16  0.500  0.500  0.335-  10 1.89  11 2.04   2 2.77   2 2.77   2 2.77   2 2.77
  17  0.500  0.500  0.167-  11 1.96  12 1.96   1 2.75   1 2.75   1 2.75   1 2.75
  18  0.500  0.500  0.998-   8 1.89  12 2.04   6 2.77   6 2.77   6 2.77   6 2.77
  19  0.500  0.000  0.912-   8 1.95   8 1.95   5 2.62   5 2.62
  20  0.500  0.000  0.749-   7 1.94   7 1.94   4 2.75   4 2.75
  21  0.500  0.000  0.584-   9 1.94   9 1.94   4 2.75   4 2.75
  22  0.500  0.000  0.421-  10 1.95  10 1.95   3 2.62   3 2.62
  23  0.500  0.000  0.252-  11 1.94  11 1.94   2 2.54   2 2.54   1 2.81   1 2.81
  24  0.500  0.000  0.081-  12 1.94  12 1.94   6 2.54   6 2.54   1 2.81   1 2.81
  25  0.000  0.500  0.912-   8 1.95   8 1.95   5 2.62   5 2.62
  26  0.000  0.500  0.749-   7 1.94   7 1.94   4 2.75   4 2.75
  27  0.000  0.500  0.584-   9 1.94   9 1.94   4 2.75   4 2.75
  28  0.000  0.500  0.421-  10 1.95  10 1.95   3 2.62   3 2.62
  29  0.000  0.500  0.252-  11 1.94  11 1.94   2 2.54   2 2.54   1 2.81   1 2.81
  30  0.000  0.500  0.081-  12 1.94  12 1.94   6 2.54   6 2.54   1 2.81   1 2.81

  LATTYP: Found a simple tetragonal cell.
 ALAT       =     3.8851364873
 C/A-ratio  =     6.1124580910

  Lattice vectors:

 A1 = (   3.8851364873,   0.0000000000,   0.0000000000)
 A2 = (   0.0000000000,   3.8851364873,   0.0000000000)
 A3 = (   0.0000000000,   0.0000000000,  23.7477339565)

Analysis of symmetry for initial positions (statically):
 Subroutine PRICEL returns:
 Original cell was already a primitive cell.

 Routine SETGRP: Setting up the symmetry group for a
 simple tetragonal supercell.

 Subroutine GETGRP returns: Found 16 space group operations
 (whereof  8 operations were pure point group operations)
 out of a pool of 16 trial point group operations.

The static configuration has the point symmetry C_4v.
 The point group associated with its full space group is D_4h.

Analysis of symmetry for dynamics (positions and initial velocities):
 Subroutine PRICEL returns:
 Original cell was already a primitive cell.

[...]

The dynamic configuration has the point symmetry C_4v.
 The point group associated with its full space group is D_4h.

Analysis of structural, dynamic, and magnetic symmetry:
 Subroutine PRICEL returns:
 Original cell was already a primitive cell.

 Routine SETGRP: Setting up the symmetry group for a
 simple tetragonal supercell.

 Subroutine GETGRP returns: Found 16 space group operations
 (whereof  8 operations were pure point group operations)
 out of a pool of 16 trial point group operations.

The magnetic configuration has the point symmetry C_4v.
 The point group associated with its full space group is D_4h.

 Subroutine INISYM returns: Found 16 space group operations
 (whereof  8 operations are pure point group operations),
 and found     1 'primitive' translations

 KPOINTS: Automatic mesh

Automatic generation of k-mesh.
 generate k-points for:    5    5    1
Space group operators:
 irot       det(A)        alpha          n_x          n_y          n_z        tau_x        tau_y        tau_z
    1     1.000000     0.000000     1.000000     0.000000     0.000000     0.000000     0.000000     0.000000
    2     1.000000    90.000000     0.000000     0.000000    -1.000000     0.000000     0.000000     0.000000
    3     1.000000   180.000000     0.000000     0.000000     1.000000     0.000000     0.000000     0.000000
    4     1.000000    90.000000     0.000000     0.000000     1.000000     0.000000     0.000000     0.000000
    5    -1.000000   180.000000     0.000000     1.000000     0.000000     0.000000     0.000000     0.000000
    6    -1.000000   180.000000     0.707107     0.707107     0.000000     0.000000     0.000000     0.000000
    7    -1.000000   180.000000     1.000000     0.000000     0.000000     0.000000     0.000000     0.000000
    8    -1.000000   180.000000     0.707107    -0.707107     0.000000     0.000000     0.000000     0.000000
    9    -1.000000     0.000000     1.000000     0.000000     0.000000     0.000000     0.000000     0.333333
   10    -1.000000    90.000000     0.000000     0.000000    -1.000000     0.000000     0.000000     0.333333
   11    -1.000000   180.000000     0.000000     0.000000     1.000000     0.000000     0.000000     0.333333
   12    -1.000000    90.000000     0.000000     0.000000     1.000000     0.000000     0.000000     0.333333
   13     1.000000   180.000000     0.000000     1.000000     0.000000     0.000000     0.000000     0.333333
   14     1.000000   180.000000     0.707107     0.707107     0.000000     0.000000     0.000000     0.333333
   15     1.000000   180.000000     1.000000     0.000000     0.000000     0.000000     0.000000     0.333333
   16     1.000000   180.000000     0.707107    -0.707107     0.000000     0.000000     0.000000     0.333333

 Subroutine IBZKPT returns following result:

 Found      6 irreducible k-points:

 Following reciprocal coordinates:
            Coordinates               Weight
  0.000000  0.000000  0.000000      1.000000
  0.200000  0.000000  0.000000      4.000000
  0.400000  0.000000  0.000000      4.000000
  0.200000  0.200000  0.000000      4.000000
  0.400000  0.200000  0.000000      8.000000
  0.400000  0.400000  0.000000      4.000000

 Following cartesian coordinates:
            Coordinates               Weight
  0.000000  0.000000  0.000000      1.000000
  0.051478  0.000000  0.000000      4.000000
  0.102956  0.000000  0.000000      4.000000
  0.051478  0.051478  0.000000      4.000000
[...]
     30      -7.8459      1.00000
     31      -7.7570      1.00000
     32      -7.5801      1.00000
     33      -7.5801      1.00000
     34      -7.5559      1.00000
     35      -7.5189      1.00000
     36      -7.5189      1.00000
     37      -7.4476      1.00000
     38      -7.4476      1.00000
     39      -7.3756      1.00000
     40      -7.2087      1.00000
     41      -6.8977      1.00000
     42      -6.7556      1.00000
     43       0.5859      1.00000
     44       1.1974      1.00000
     45       1.2065      1.00000
     46       1.9856      1.00000
     47       2.1142      1.00000
     48       2.1142      1.00000
     49       2.1480      1.00000
     50       2.1480      1.00000
     51       2.3118      1.00000
     52       2.3615      1.00000
     53       2.3615      1.00000
     54       2.4581      1.00000
     55       2.4581      1.00000
     56       2.5475      1.00000
     57       2.5475      1.00000
     58       2.6638      1.00000
     59       2.6669      1.00000
     60       2.6669      1.00000
[...]
    130      10.2034      0.00000
    131      10.2226      0.00000
    132      10.3046      0.00000
    133      10.4217      0.00000
    134      10.4564      0.00000
    135      10.5268      0.00000
    136      10.5423      0.00000
    137      10.5926      0.00000
    138      10.6082      0.00000
    139      10.6472      0.00000
    140      10.7173      0.00000
    141      10.7535      0.00000
    142      10.8111      0.00000
    143      10.8376      0.00000
    144      10.9349      0.00000

[...]

 spin component 2

[...]

 k-point     6 :       0.4000    0.4000    0.0000
  band No.  band energies     occupation
      1     -24.4275      1.00000
      2     -24.2228      1.00000
      3     -24.2223      1.00000
      4     -24.0103      1.00000
      5     -23.8953      1.00000
      6     -23.8855      1.00000
      7     -11.0052      1.00000
      8     -10.8727      1.00000
      9     -10.7462      1.00000
     10     -10.6583      1.00000
     11     -10.5583      1.00000
     12     -10.5538      1.00000
     13     -10.5040      1.00000
     14     -10.4258      1.00000
     15     -10.3784      1.00000
     16     -10.2744      1.00000
     17     -10.2262      1.00000
     18     -10.2197      1.00000
     19     -10.1282      1.00000
     20     -10.1219      1.00000
     21     -10.1115      1.00000
     22      -9.8700      1.00000
     23      -9.8246      1.00000
     24      -9.3187      1.00000
     25      -8.1572      1.00000
     26      -8.1460      1.00000
     27      -8.1363      1.00000
     28      -8.1262      1.00000
     29      -7.9645      1.00000
     30      -7.9331      1.00000
     31      -7.8350      1.00000
     32      -7.7841      1.00000
     33      -7.7820      1.00000
     34      -7.7250      1.00000
     35      -7.6430      1.00000
     36      -7.5962      1.00000
     37      -7.5251      1.00000
     38      -7.3719      1.00000
     39      -7.2463      1.00000
     40      -7.0881      1.00000
     41      -7.0027      1.00000
     42      -6.8771      1.00000
     43       0.9234      1.00000
     44       1.1360      1.00000
     45       1.1664      1.00000
     46       1.4753      1.00000
     47       1.4927      1.00000
     48       1.6444      1.00000
     49       1.9793      1.00000
     50       2.2636      1.00000
     51       2.2728      1.00000
     52       2.6169      1.00000
     53       2.6566      1.00000
     54       2.7248      1.00000
     55       2.7590      1.00000
     56       2.7768      1.00000
     57       2.8310      1.00000
     58       2.8451      1.00000
     59       2.9418      1.00000
     60       2.9419      1.00000
[...]
    130      10.8286      0.00000
    131      10.8373      0.00000
    132      10.8476      0.00000
    133      10.8520      0.00000
    134      10.9038      0.00000
    135      10.9304      0.00000
    136      10.9443      0.00000
    137      10.9746      0.00000
    138      10.9932      0.00000
    139      11.0037      0.00000
    140      11.0219      0.00000
    141      11.0411      0.00000
    142      11.0783      0.00000
    143      11.1631      0.00000
    144      11.2476      0.00000

 soft charge-density along one line, spin component           1
         0         1         2         3         4         5         6         7         8         9
 total charge-density along one line

 soft charge-density along one line, spin component           2
         0         1         2         3         4         5         6         7         8         9
 total charge-density along one line

------------------------ aborting loop because EDIFF is reached ----------------------------------------

 total charge

# of ion       s       p       d       f       tot
    1        1.999   5.693   0.466   0.180   8.337
    2        2.006   5.693   0.532   0.201   8.432
    3        2.002   5.698   0.505   0.193   8.399
    4        2.000   5.698   0.485   0.187   8.370
    5        2.002   5.698   0.505   0.193   8.399
    6        2.006   5.693   0.532   0.201   8.432
    7        0.315   0.471   4.885   0.000   5.671
    8        0.326   0.492   4.870   0.000   5.689
    9        0.315   0.471   4.885   0.000   5.671
   10        0.326   0.492   4.870   0.000   5.689
   11        0.410   0.603   8.328   0.000   9.341
   12        0.410   0.603   8.328   0.000   9.341
   13        1.563   3.451   0.000   0.000   5.014
   14        1.566   3.442   0.000   0.000   5.007
   15        1.563   3.451   0.000   0.000   5.014
   16        1.563   3.439   0.000   0.000   5.001
   17        1.556   3.435   0.000   0.000   4.991
   18        1.563   3.439   0.000   0.000   5.001
   19        1.560   3.525   0.000   0.000   5.086
   20        1.558   3.528   0.000   0.000   5.085
   21        1.558   3.528   0.000   0.000   5.085
   22        1.560   3.525   0.000   0.000   5.086
   23        1.557   3.515   0.000   0.000   5.072
   24        1.557   3.515   0.000   0.000   5.072
   25        1.570   3.385   0.000   0.000   4.955
   26        1.569   3.383   0.000   0.000   4.952
   27        1.569   3.383   0.000   0.000   4.952
   28        1.570   3.385   0.000   0.000   4.955
   29        1.561   3.409   0.000   0.000   4.969
   30        1.561   3.409   0.000   0.000   4.969
tot         42.243  99.449  39.192   1.156 182.040

 magnetization (x)

[...]

  FORCE on cell =-STRESS in cart. coord.  units (eV):
  Direction    XX          YY          ZZ          XY          YZ          ZX
  Alpha Z   967.80175   967.80175   967.80175
  Ewald   -4535.65400 -4535.65400 -5583.79826    -0.00000    -0.00000    -0.00000
  Hartree  1511.76289  1511.76289   601.38520    -0.00000    -0.00000    -0.00000
  E(xc)   -1025.89653 -1025.89653 -1026.21467     0.00000    -0.00000    -0.00000
  Local   -1498.21711 -1498.21711   455.88788     0.00000     0.00000    -0.00000
  n-local   407.38845   399.51178   402.79385    -2.63281    -0.00035     0.00006
  augment   341.76223   341.76223   343.58760     0.00000     0.00000     0.00000
  Kinetic  3784.40146  3888.37548  3837.83445   -11.33658     0.00067     0.00163
  Fock        0.00000     0.00000     0.00000     0.00000     0.00000     0.00000
  Total       1.39782     1.39782    -0.72221     0.00000     0.00000     0.00000
  in kB       6.24780     6.24780    -3.22803     0.00000     0.00000     0.00000

 VOLUME and BASIS-vectors are now :
  energy-cutoff  :      520.00
  volume of cell :      358.46
      direct lattice vectors                 reciprocal lattice vectors
     3.885136487  0.000000000  0.000000000     0.257391215  0.000000000  0.000000000
     0.000000000  3.885136487  0.000000000     0.000000000  0.257391215  0.000000000
     0.000000000  0.000000000 23.747733957     0.000000000  0.000000000  0.042109281

  length of vectors
     3.885136487  3.885136487 23.747733957     0.257391215  0.257391215  0.042109281

 FORCES acting on ions
    electron-ion (+dipol)            ewald-force                    non-local-force                 convergence-correction
   -.666E-14 -.137E-13 -.140E-02   -.263E-13 0.250E-13 -.623E-03   0.000E+00 0.000E+00 0.102E-19   -.152E-15 0.148E-14 -.614E-06
   0.503E-14 0.521E-13 -.423E+03   -.987E-14 0.226E-14 0.421E+03   0.000E+00 -.203E-19 0.288E+01   0.311E-14 0.109E-13 -.215E+00
   -.118E-13 -.775E-13 -.217E+03   -.214E-13 -.827E-14 0.216E+03   0.102E-19 0.000E+00 0.158E+01   0.158E-14 0.528E-14 -.839E-01
   -.847E-15 -.100E-13 -.135E-02   0.119E-13 0.102E-13 -.669E-03   -.542E-19 0.000E+00 0.163E-18   0.130E-14 0.348E-14 -.513E-07
   -.896E-15 -.401E-13 0.217E+03   -.185E-13 0.655E-14 -.216E+03   -.678E-20 0.000E+00 -.158E+01   0.867E-15 0.747E-14 0.839E-01
   -.197E-13 -.885E-13 0.423E+03   -.224E-13 0.104E-13 -.421E+03   0.000E+00 0.136E-19 -.288E+01   -.506E-14 0.154E-14 0.215E+00
   0.617E-13 0.607E-12 0.416E+02   -.715E-14 0.205E-13 -.415E+02   0.000E+00 0.169E-20 -.198E+00   0.118E-13 0.499E-14 0.173E-01
   0.507E-13 0.709E-12 0.127E+03   -.173E-13 -.119E-14 -.126E+03   0.000E+00 -.212E-21 -.107E+01   -.643E-14 -.134E-13 0.120E+00
   0.523E-13 0.317E-13 -.416E+02   0.203E-14 0.156E-13 0.415E+02   0.169E-20 -.847E-21 0.198E+00   0.222E-13 0.178E-13 -.173E-01
   0.703E-13 0.158E-11 -.127E+03   0.197E-14 0.158E-13 0.126E+03   0.834E-21 0.169E-20 0.107E+01   0.123E-13 0.260E-13 -.120E+00
   0.294E-12 0.826E-12 -.142E+03   0.111E-13 0.489E-15 0.140E+03   0.000E+00 0.847E-21 0.241E+01   0.274E-13 0.131E-13 -.718E-01
   0.318E-12 0.297E-11 0.142E+03   -.357E-14 0.127E-14 -.140E+03   0.000E+00 -.847E-21 -.241E+01   0.837E-14 -.178E-13 0.718E-01
   0.108E-12 0.924E-12 0.107E+03   0.768E-14 0.323E-14 -.107E+03   0.000E+00 0.000E+00 0.740E-01   0.153E-13 -.128E-13 0.325E-01
   0.109E-12 -.371E-13 -.120E-02   0.178E-14 -.687E-14 -.693E-03   0.000E+00 -.169E-20 0.407E-19   0.178E-13 -.146E-13 -.386E-06
   0.108E-12 0.190E-12 -.107E+03   0.133E-13 -.283E-14 0.107E+03   0.000E+00 0.000E+00 -.740E-01   0.222E-13 -.116E-13 -.325E-01
   0.107E-12 0.307E-12 -.213E+03   0.124E-14 0.326E-14 0.208E+03   0.000E+00 0.339E-20 0.581E+01   0.413E-13 -.200E-13 -.189E+00
   0.110E-12 0.165E-11 -.105E-02   0.508E-15 -.959E-14 -.823E-03   0.169E-20 0.000E+00 0.136E-19   0.265E-13 -.194E-13 -.798E-06
   0.102E-12 0.600E-12 0.213E+03   0.208E-13 0.480E-14 -.208E+03   0.000E+00 -.339E-20 -.581E+01   0.411E-14 -.130E-13 0.189E+00
   0.123E-12 0.659E-13 0.954E+02   0.175E-14 -.622E-14 -.940E+02   0.741E-20 0.000E+00 -.156E+01   0.288E-13 0.400E-13 0.821E-01
   0.121E-12 0.732E-13 0.348E+02   -.167E-13 -.168E-13 -.344E+02   -.169E-20 -.339E-20 -.536E+00   0.294E-13 0.248E-13 0.113E-01
   0.123E-12 0.878E-13 -.348E+02   -.923E-14 -.852E-14 0.344E+02   -.148E-20 0.339E-20 0.536E+00   0.334E-13 0.110E-13 -.113E-01
   0.122E-12 -.878E-13 -.954E+02   -.173E-13 -.493E-14 0.940E+02   -.678E-20 0.000E+00 0.156E+01   0.158E-13 -.918E-15 -.821E-01
   0.120E-12 -.585E-13 -.808E+02   -.166E-13 -.414E-14 0.788E+02   -.254E-20 0.000E+00 0.198E+01   0.114E-13 0.359E-13 -.493E-01
   0.122E-12 -.731E-14 0.808E+02   -.104E-13 -.939E-14 -.788E+02   0.339E-20 0.000E+00 -.198E+01   0.251E-13 0.588E-13 0.493E-01
   -.280E-14 0.475E-13 0.954E+02   0.255E-14 -.246E-15 -.940E+02   0.000E+00 0.000E+00 -.156E+01   0.131E-13 -.202E-13 0.821E-01
   -.309E-14 0.163E-12 0.348E+02   -.718E-15 -.408E-14 -.344E+02   0.000E+00 0.339E-20 -.536E+00   -.460E-14 -.277E-13 0.113E-01
   -.584E-14 0.116E-12 -.348E+02   -.904E-14 0.151E-14 0.344E+02   -.339E-20 -.678E-20 0.536E+00   -.202E-13 -.974E-14 -.113E-01
   -.356E-14 0.516E-12 -.954E+02   0.238E-14 0.388E-14 0.940E+02   0.000E+00 0.000E+00 0.156E+01   -.185E-13 -.626E-14 -.821E-01
   -.929E-14 0.329E-12 -.808E+02   0.108E-13 -.426E-14 0.788E+02   0.593E-20 0.000E+00 0.198E+01   -.645E-14 -.132E-13 -.493E-01
   -.412E-14 0.494E-13 0.808E+02   0.132E-13 -.730E-14 -.788E+02   -.678E-20 0.000E+00 -.198E+01   0.572E-14 -.677E-14 0.493E-01
   0.216E-11 0.115E-10 -.106E-01   -.103E-12 0.300E-13 0.313E-12   -.525E-19 -.953E-20 -.311E-14   0.318E-12 0.552E-13 0.469E-05

 POSITION                                       TOTAL-FORCE (eV/Angst)
      0.00000      0.00000      3.95796        -0.000000      0.000000      0.000000
      0.00000      0.00000      7.61533        -0.000000     -0.000000      0.147051
      0.00000      0.00000     11.75042        -0.000000      0.000000     -0.008243
      0.00000      0.00000     15.83182         0.000000      0.000000      0.000000
      0.00000      0.00000     19.91323        -0.000000      0.000000      0.008243
      0.00000      0.00000      0.30059        -0.000000      0.000000     -0.147051
      1.94257      1.94257     17.82664        -0.000000     -0.000000     -0.046065
      1.94257      1.94257     21.80763        -0.000000     -0.000000     -0.073532
      1.94257      1.94257     13.83701        -0.000000      0.000000      0.046065
      1.94257      1.94257      9.85601        -0.000000     -0.000000      0.073532
      1.94257      1.94257      5.92076        -0.000000     -0.000000     -0.050040
      1.94257      1.94257      1.99515        -0.000000      0.000000      0.050040
      1.94257      1.94257     19.81106        -0.000000     -0.000000      0.004456
      1.94257      1.94257     15.83182        -0.000000      0.000000      0.000000
      1.94257      1.94257     11.85259        -0.000000      0.000000     -0.004456
      1.94257      1.94257      7.96279        -0.000000      0.000000      0.070239
      1.94257      1.94257      3.95796        -0.000000     -0.000000      0.000000
      1.94257      1.94257     23.70085        -0.000000     -0.000000     -0.070239
      1.94257      0.00000     21.66899        -0.000000      0.000000     -0.030151
      1.94257      0.00000     17.78433        -0.000000      0.000000     -0.053457
      1.94257      0.00000     13.87931        -0.000000      0.000000      0.053457
      1.94257      0.00000      9.99466         0.000000     -0.000000      0.030151
      1.94257      0.00000      5.98657        -0.000000      0.000000     -0.048638
      1.94257      0.00000      1.92934        -0.000000     -0.000000      0.048638
      0.00000      1.94257     21.66899        -0.000000     -0.000000     -0.030151
      0.00000      1.94257     17.78433        -0.000000      0.000000     -0.053457
      0.00000      1.94257     13.87931        -0.000000      0.000000      0.053457
      0.00000      1.94257      9.99466        -0.000000      0.000000      0.030151
      0.00000      1.94257      5.98657        -0.000000      0.000000     -0.048638
      0.00000      1.94257      1.92934        -0.000000     -0.000000      0.048638
    total drift:                                0.000000      0.000000     -0.010583

  FREE ENERGIE OF THE ION-ELECTRON SYSTEM (eV)
  free  energy   TOTEN  =      -226.14716396 eV

  energy  without entropy=     -226.14716396  energy(sigma->0) =     -226.14716396

 total charge

[...]

 magnetization (x)

# of ion       s       p       d       f       tot
    1        0.000  -0.001   0.001   0.001   0.001
    2        0.000  -0.000   0.007   0.005   0.012
    3        0.001   0.001   0.013   0.006   0.022
    4        0.001   0.001   0.014   0.007   0.023
    5        0.001   0.001   0.013   0.006   0.022
    6        0.001  -0.000   0.007   0.005   0.012
    7        0.023   0.021   3.737   0.000   3.781
    8        0.025   0.024   3.596   0.000   3.644
    9        0.023   0.021   3.737   0.000   3.781
   10        0.025   0.024   3.596   0.000   3.644
   11        0.017   0.018   1.592   0.000   1.628
   12        0.017   0.018   1.592   0.000   1.628
   13        0.005  -0.040   0.000   0.000  -0.035
   14        0.007  -0.062   0.000   0.000  -0.055
   15        0.005  -0.040   0.000   0.000  -0.035
   16        0.006  -0.030   0.000   0.000  -0.024
   17        0.007   0.010   0.000   0.000   0.017
   18        0.006  -0.030   0.000   0.000  -0.024
   19        0.009  -0.060   0.000   0.000  -0.051
   20        0.008  -0.051   0.000   0.000  -0.043
   21        0.008  -0.051   0.000   0.000  -0.043
   22        0.009  -0.060   0.000   0.000  -0.051
   23        0.011  -0.009   0.000   0.000   0.003
   24        0.011  -0.009   0.000   0.000   0.003
   25       -0.000  -0.044   0.000   0.000  -0.044
   26        0.000  -0.042   0.000   0.000  -0.042
   27        0.000  -0.042   0.000   0.000  -0.042
   28       -0.000  -0.044   0.000   0.000  -0.044
   29        0.002  -0.021   0.000   0.000  -0.019
   30        0.002  -0.021   0.000   0.000  -0.019
tot          0.232  -0.519  17.907   0.030  17.650

 BZINTS: Fermi energy:  7.700118;222.000000 electrons
         Band energy:-388.733210;  BLOECHL correction: -0.230126