 vasp.5.4.4.18Apr17-6-g9f103f2a35 (build Oct 03 2018 13:58:34) complex

 executed on             LinuxIFC date 2019.06.04  00:08:22

 INCAR:
 POTCAR:    PAW_PBE La 06Sep2000
 POTCAR:    PAW_PBE Mn 06Sep2000
 POTCAR:    PAW_PBE Ni 02Aug2007
 POTCAR:    PAW_PBE O 08Apr2002

 POTCAR:    PAW_PBE La 06Sep2000
   VRHFIN =La : [core=Kr4d]

   TITEL  = PAW_PBE La 06Sep2000
   POMASS =  138.900; ZVAL   =   11.000    mass and valenz
   ENMAX  =  219.292; ENMIN  =  164.469 eV

 POTCAR:    PAW_PBE Mn 06Sep2000
   VRHFIN =Mn: d6 s1

   TITEL  = PAW_PBE Mn 06Sep2000
   POMASS =   54.938; ZVAL   =    7.000    mass and valenz
   ENMAX  =  269.864; ENMIN  =  202.398 eV

 POTCAR:    PAW_PBE Ni 02Aug2007
   VRHFIN =Ni:

   TITEL  = PAW_PBE Ni 02Aug2007
   POMASS =   58.690; ZVAL   =   10.000    mass and valenz
   ENMAX  =  269.532; ENMIN  =  202.149 eV

 POTCAR:    PAW_PBE O 08Apr2002
   VRHFIN =O: s2p4

   TITEL  = PAW_PBE O 08Apr2002
   POMASS =   16.000; ZVAL   =    6.000    mass and valenz
   ENMAX  =  400.000; ENMIN  =  300.000 eV

 Optimization of the real space projectors (new method)

 maximal supplied QI-value         = 13.42
 optimisation between [QCUT,QGAM] = [ 11.67, 23.35] = [ 38.16,152.62] Ry
 Optimized for a Real-space Cutoff    1.63 Angstroem

   l    n(q)    QCUT    max X(q) W(low)/X(q) W(high)/X(q)  e(spline)
   0     11    11.673    13.882    0.27E-04    0.79E-05    0.11E-06
   0     11    11.673    12.184    0.39E-04    0.13E-04    0.19E-06
   1     11    11.673     4.523    0.73E-05    0.76E-05    0.12E-06
   1     11    11.673     4.424    0.87E-05    0.13E-04    0.19E-06
   2     10    11.673    52.481    0.65E-04    0.36E-04    0.18E-06
   2     10    11.673    38.501    0.61E-04    0.33E-04    0.17E-06
   3     10    11.673    65.631    0.17E-03    0.14E-03    0.37E-06
   3     10    11.673    56.854    0.17E-03    0.14E-03    0.37E-06
 Optimization of the real space projectors (new method)

[...]

   l    n(q)    QCUT    max X(q) W(low)/X(q) W(high)/X(q)  e(spline)
   2      9    11.539    60.317    0.19E-03    0.47E-04    0.16E-06
   2      9    11.539    55.921    0.19E-03    0.48E-04    0.16E-06
   0     10    11.539    51.690    0.80E-04    0.50E-04    0.24E-06
   0     10    11.539    30.015    0.73E-04    0.45E-04    0.22E-06
   1     10    11.539    18.849    0.87E-04    0.16E-03    0.71E-07
   1     10    11.539    14.624    0.73E-04    0.13E-03    0.64E-07
 Optimization of the real space projectors (new method)

 maximal supplied QI-value         = 24.76
 optimisation between [QCUT,QGAM] = [ 11.64, 23.27] = [ 37.91,151.63] Ry
 Optimized for a Real-space Cutoff    1.14 Angstroem

   l    n(q)    QCUT    max X(q) W(low)/X(q) W(high)/X(q)  e(spline)
   0      8    11.635    20.381    0.10E-03    0.33E-03    0.24E-06
   0      8    11.635    15.268    0.11E-03    0.35E-03    0.26E-06
   1      7    11.635     5.964    0.24E-03    0.31E-03    0.30E-06
   1      7    11.635     5.382    0.22E-03    0.25E-03    0.26E-06
  PAW_PBE La 06Sep2000                  :
  PAW_PBE Mn 06Sep2000                  :
  PAW_PBE Ni 02Aug2007                  :
  PAW_PBE O 08Apr2002                   :

 POSCAR: SCEL3_1_3_1_1_0_0/1
  positions in direct lattice
  velocities in cartesian coordinates
 exchange correlation table for  LEXCH =        8
   RHO(1)=    0.500       N(1)  =     2000
   RHO(2)=  100.500       N(2)  =     4000

 ion  position               nearest neighbor table
   1  0.000  0.006  0.011-   8 2.64  13 2.69  13 2.69  11 2.69  11 2.69   7 2.74   7 2.74  15 2.79
                            15 2.79  10 2.79  10 2.79   6 3.29   6 3.29   5 3.35   5 3.35   5 3.35
   2  0.000  0.661  0.322-   7 2.64  11 2.69  11 2.69  13 2.69  13 2.69   8 2.74   8 2.74  14 2.79
                            14 2.79  12 2.79  12 2.79   5 3.29   5 3.29   6 3.35   6 3.35   6 3.35
   3  0.000  0.333  0.667-  10 2.73  10 2.73  14 2.73  14 2.73  15 2.73  15 2.73  12 2.73  12 2.73
                             9 2.73   9 2.73   7 2.75   8 2.75   5 3.34   5 3.34   6 3.34   6 3.34
   4  0.500  0.833  0.667-  15 1.90  12 1.90  10 1.90  14 1.90   9 1.93   9 1.93   3 3.35   3 3.35
                             3 3.35   3 3.35   1 3.43   1 3.43   2 3.43   2 3.43
   5  0.500  0.499  0.997-   7 1.93   7 1.93  11 1.95  13 1.95  10 1.95  15 1.95   2 3.29   2 3.29
                             3 3.34   3 3.34   1 3.35   1 3.35   1 3.35   1 3.35
   6  0.500  0.168  0.336-   8 1.93   8 1.93  13 1.95  11 1.95  12 1.95  14 1.95   1 3.29   1 3.29
                             3 3.34   3 3.34   2 3.35   2 3.35   2 3.35   2 3.35
   7  0.000  0.500  0.001-   5 1.93   5 1.93   2 2.64   1 2.74   1 2.74   3 2.75
   8  0.000  0.166  0.332-   6 1.93   6 1.93   1 2.64   2 2.74   2 2.74   3 2.75
   9  0.000  0.833  0.667-   4 1.93   4 1.93   3 2.73   3 2.73
  10  0.500  0.162  0.829-   4 1.90   5 1.95   3 2.73   3 2.73   1 2.79   1 2.79
  11  0.500  0.833  0.167-   6 1.95   5 1.95   2 2.69   2 2.69   1 2.69   1 2.69
  12  0.500  0.505  0.504-   4 1.90   6 1.95   3 2.73   3 2.73   2 2.79   2 2.79
  13  0.500  0.333  0.167-   6 1.95   5 1.95   1 2.69   1 2.69   2 2.69   2 2.69
  14  0.500  0.999  0.504-   4 1.90   6 1.95   3 2.73   3 2.73   2 2.79   2 2.79
  15  0.500  0.667  0.829-   4 1.90   5 1.95   3 2.73   3 2.73   1 2.79   1 2.79

  LATTYP: Found a base centered orthorhombic cell.
 ALAT       =     5.4682336280
 B/A-ratio  =     3.0051923481
 C/A-ratio  =     0.7071958296

  Lattice vectors:

 A1 = (   0.0000000000,   7.7432885955,  -3.8766635064)
 A2 = (   0.0000000000,  -3.8766635161,   7.7432885859)
 A3 = (   3.8671120169,   0.0000000000,   0.0000000000)

Analysis of symmetry for initial positions (statically):
 Subroutine PRICEL returns:
 Original cell was already a primitive cell.

 Routine SETGRP: Setting up the symmetry group for a
 base centered orthorhombic supercell.

 Subroutine GETGRP returns: Found  8 space group operations
 (whereof  4 operations were pure point group operations)
 out of a pool of  8 trial point group operations.

The static configuration has the point symmetry C_2v.
 The point group associated with its full space group is D_2h.

Analysis of symmetry for dynamics (positions and initial velocities):
 Subroutine PRICEL returns:
 Original cell was already a primitive cell.

[...]

The dynamic configuration has the point symmetry C_2v.
 The point group associated with its full space group is D_2h.

Analysis of structural, dynamic, and magnetic symmetry:
 Subroutine PRICEL returns:
 Original cell was already a primitive cell.

 Routine SETGRP: Setting up the symmetry group for a
 base centered orthorhombic supercell.

 Subroutine GETGRP returns: Found  8 space group operations
 (whereof  4 operations were pure point group operations)
 out of a pool of  8 trial point group operations.

The magnetic configuration has the point symmetry C_2v.
 The point group associated with its full space group is D_2h.

 Subroutine INISYM returns: Found  8 space group operations
 (whereof  4 operations are pure point group operations),
 and found     1 'primitive' translations

 KPOINTS: Automatic mesh

Automatic generation of k-mesh.
 generate k-points for:    5    4    2
Space group operators:
 irot       det(A)        alpha          n_x          n_y          n_z        tau_x        tau_y        tau_z
    1     1.000000     0.000000     1.000000     0.000000     0.000000     0.000000     0.000000     0.000000
    2    -1.000000   180.000000     1.000000     0.000000     0.000000     0.000000     0.000000     0.000000
    3     1.000000   180.000000     0.000000    -0.707107     0.707107     0.000000     0.000000     0.000000
    4    -1.000000   180.000000     0.000000     0.707107     0.707107     0.000000     0.000000     0.000000
    5    -1.000000     0.000000     1.000000     0.000000     0.000000     0.000000     0.666667     0.333333
    6     1.000000   180.000000     1.000000     0.000000     0.000000     0.000000     0.666667     0.333333
    7    -1.000000   180.000000     0.000000    -0.707107     0.707107     0.000000     0.666667     0.333333
    8     1.000000   180.000000     0.000000     0.707107     0.707107     0.000000     0.666667     0.333333

 Subroutine IBZKPT returns following result:

 Found     15 irreducible k-points:

 Following reciprocal coordinates:
            Coordinates               Weight
  0.000000  0.000000  0.000000      1.000000
  0.200000  0.000000  0.000000      2.000000
  0.400000  0.000000  0.000000      2.000000
  0.000000  0.250000  0.000000      2.000000
  0.200000  0.250000  0.000000      4.000000
  0.400000  0.250000  0.000000      4.000000
  0.000000  0.500000  0.000000      2.000000
  0.200000  0.500000  0.000000      4.000000
  0.400000  0.500000  0.000000      4.000000
  0.000000 -0.000000  0.500000      1.000000
  0.200000 -0.000000  0.500000      2.000000
  0.400000 -0.000000  0.500000      2.000000
  0.000000  0.250000  0.500000      2.000000
  0.200000  0.250000  0.500000      4.000000
  0.400000  0.250000  0.500000      4.000000

 Following cartesian coordinates:
            Coordinates               Weight
  0.000000  0.000000  0.000000      1.000000
 -0.051718  0.000000  0.000000      2.000000
 -0.103436  0.000000  0.000000      2.000000
  0.000000  0.043085  0.021571      2.000000
 -0.051718  0.043085  0.021571      4.000000
 -0.103436  0.043085  0.021571      4.000000
  0.000000  0.086171  0.043141      2.000000
 -0.051718  0.086171  0.043141      4.000000
 -0.103436  0.086171  0.043141      4.000000
  0.000000  0.043029 -0.043029      1.000000
 -0.051718  0.043029 -0.043029      2.000000
 -0.103436  0.043029 -0.043029      2.000000
  0.000000  0.086115 -0.021459      2.000000
 -0.051718  0.086115 -0.021459      4.000000
 -0.103436  0.086115 -0.021459      4.000000

 TETIRR: Found    111 inequivalent tetrahedra from      240

 SYSTEM =  final
 POSCAR =  SCEL3_1_3_1_1_0_0/1

 Startparameter for this run:
   NWRITE =      2    write-flag & timer
   PREC   = accura    normal or accurate (medium, high low for compatibility)
   ISTART =      0    job   : 0-new  1-cont  2-samecut
   ICHARG =      1    charge: 1-file 2-atom 10-const
   ISPIN  =      2    spin polarized calculation?
   LNONCOLLINEAR =      F non collinear calculations
   LSORBIT =      F    spin-orbit coupling
   INIWAV =      1    electr: 0-lowe 1-rand  2-diag
   LASPH  =      F    aspherical Exc in radial PAW
   METAGGA=      F    non-selfconsistent MetaGGA calc.

 Electronic Relaxation 1
   ENCUT  =  520.0 eV  38.22 Ry    6.18 a.u.   7.19 10.17 16.10*2*pi/ulx,y,z
   ENINI  =  520.0     initial cutoff
   ENAUG  =  605.4 eV  augmentation charge cutoff
   NELM   =    100;   NELMIN=  2; NELMDL= -5     # of ELM steps
   EDIFF  = 0.1E-02   stopping-criterion for ELM
   LREAL  =      T    real-space projection
   NLSPLINE    = F    spline interpolate recip. space projectors
   LCOMPAT=      F    compatible to vasp.4.4
   GGA_COMPAT  = T    GGA compatible to vasp.4.4-vasp.4.6
   LMAXPAW     = -100 max onsite density
   LMAXMIX     =    6 max onsite mixed and CHGCAR
   VOSKOWN=      0    Vosko Wilk Nusair interpolation
   ROPT   =   -0.00025  -0.00025  -0.00025  -0.00025
 Ionic relaxation
[...]
  entropy T*S    EENTRO =         0.00000000
  eigenvalues    EBANDS =      1530.76908032
  atomic energy  EATOM  =      9061.24150686
  Solvation  Ediel_sol  =         0.00000000
  free energy    TOTEN  =      1601.00963249 eV

  energy without entropy =     1601.00963249  energy(sigma->0) =     1601.00963249

[...]

 BZINTS: Fermi energy: 15.217670;114.000000 electrons
         Band energy: 388.305423;  BLOECHL correction: -0.112346

 eigenvalue-minimisations  :  5016
 total energy-change (2. order) :-0.1142464E+04  (-0.1033555E+04)
 number of electron     114.0000000 magnetization      10.0000000
 augmentation part      114.0000000 magnetization      10.0000000

[...]

 BZINTS: Fermi energy: 12.100342;114.000000 electrons
         Band energy: -34.444190;  BLOECHL correction: -0.011837

[...]

 BZINTS: Fermi energy: 11.484707;114.000000 electrons
         Band energy:-174.427102;  BLOECHL correction: -0.044823

[...]

 Broyden mixing:
  rms(total) = 0.53452E+01    rms(broyden)= 0.53449E+01
  rms(prec ) = 0.65023E+01
  weight for this iteration     100.00

[...]

 eigenvalues of (default mixing * dielectric matrix)
  average eigenvalue GAMMA=   0.1004
  0.1004

[...]

 eigenvalue-minimisations  :  6423
 total energy-change (2. order) : 0.2015512E+01  (-0.1696953E+01)
 number of electron     114.0000014 magnetization       6.5515373
 augmentation part       16.3819097 magnetization       5.1746435

[...]

 Broyden mixing:
  rms(total) = 0.18470E-01    rms(broyden)= 0.18469E-01
  rms(prec ) = 0.19504E-01
  weight for this iteration     100.00

 eigenvalues of (default mixing * dielectric matrix)
  average eigenvalue GAMMA=   1.0848
  2.8932  2.2054  1.2693  0.8989  0.8989  0.7495  0.7495  0.5675  0.5675  0.5269
  0.6059

[...]

--------------------------------------- Iteration      1(  17)  ---------------------------------------

atom =   1  type =  1  l = 0

[...]

  o =  0.7863  v =  0.0000  1.0000      0.0000  0.0000
  o =  0.7908  v =  1.0000  0.0000      0.0000  0.0000
atom =  15  type =  4  l = 0

 onsite density matrix

[...]

  0.7863

 occupancies and eigenvectors

  o =  0.7863  v =  0.0000  1.0000      0.0000  0.0000
  o =  0.7908  v =  1.0000  0.0000      0.0000  0.0000
 BZINTS: Fermi energy:  7.566505;114.000000 electrons
         Band energy:-146.064212;  BLOECHL correction: -0.072724

 eigenvalue-minimisations  :  4470
 total energy-change (2. order) :-0.7929459E-03  (-0.8052805E-03)
 number of electron     114.0000014 magnetization       6.0042127
 augmentation part       15.9648605 magnetization       4.7953034

 Free energy of the ion-electron system (eV)
  alpha Z        PSCENC =       494.36384511
  Ewald energy   TEWEN  =     -7968.73337798
  -Hartree energ DENC   =     -1858.84046020
  -exchange      EXHF   =         0.00000000
  -V(xc)+E(xc)   XCENC  =       403.66547099
  PAW double counting   =      9617.55795272    -9710.07448455
  entropy T*S    EENTRO =         0.00000000
  eigenvalues    EBANDS =      -146.06421235
  atomic energy  EATOM  =      9061.24150686
  Solvation  Ediel_sol  =         0.00000000
  free energy    TOTEN  =      -106.88375941 eV

  energy without entropy =     -106.88375941  energy(sigma->0) =     -106.88375941

 average (electrostatic) potential at core
  the test charge radii are     1.1480  1.0210  0.9791  0.7215
  (the norm of the test charge is              1.0000)
       1 -95.1763       2 -95.1763       3 -95.2359       4 -43.0873       5 -83.7797
       6 -83.7797       7 -66.6125       8 -66.6125       9 -67.1271      10 -66.8086
      11 -66.7044      12 -66.8086      13 -66.7044      14 -66.8086      15 -66.8086

 E-fermi :   7.5665     XC(G=0): -11.7823     alpha+bet :-16.7213

[...]

 k-point     1 :       0.0000    0.0000    0.0000
  band No.  band energies     occupation
      1     -23.7327      1.00000
      2     -23.6547      1.00000
      3     -23.5944      1.00000
      4     -10.8760      1.00000
      5     -10.6348      1.00000
      6     -10.6080      1.00000
      7     -10.0540      1.00000
      8      -9.9905      1.00000
      9      -9.6997      1.00000
     10      -9.4718      1.00000
     11      -9.4585      1.00000
     12      -9.3185      1.00000
     13      -7.2400      1.00000
     14      -7.2302      1.00000
     15      -7.2238      1.00000
     16      -7.0980      1.00000
     17      -7.0117      1.00000
     18      -6.8729      1.00000
     19      -6.7852      1.00000
     20      -6.7389      1.00000
     21      -6.6397      1.00000
     22       0.5422      1.00000
     23       0.9376      1.00000
     24       1.1213      1.00000
     25       1.2199      1.00000
     26       1.4594      1.00000
     27       1.6278      1.00000
     28       2.0722      1.00000
     29       2.1277      1.00000
     30       2.1320      1.00000
     31       2.1366      1.00000
     32       2.7151      1.00000
     33       2.7254      1.00000
     34       2.7297      1.00000
     35       3.3751      1.00000
     36       3.4259      1.00000
     37       3.4356      1.00000
     38       3.4606      1.00000
     39       3.9082      1.00000
     40       3.9116      1.00000
     41       4.0588      1.00000
     42       4.3199      1.00000
     43       4.9442      1.00000
     44       5.1819      1.00000
     45       5.2137      1.00000
     46       5.2525      1.00000
     47       5.3882      1.00000
     48       5.4711      1.00000
     49       5.5255      1.00000
     50       5.5596      1.00000
     51       5.6161      1.00000
     52       5.7537      1.00000
     53       5.8776      1.00000
     54       5.9962      1.00000
     55       6.2220      1.00000
     56       6.3202      1.00000
     57       6.3825      1.00000
     58       6.7677      1.00000
     59       6.7800      1.00000
     60       6.7884      1.00000
     61       6.9236      1.10734
     62       8.0506     -0.00714
     63       9.8233      0.00000
     64      10.3907      0.00000
     65      10.3978      0.00000
     66      11.0522      0.00000
     67      11.0730      0.00000
     68      11.0807      0.00000
     69      11.1986      0.00000
     70      11.2445      0.00000
     71      11.2952      0.00000
     72      11.3432      0.00000
     73      11.4020      0.00000
     74      11.4789      0.00000

[...]

 spin component 2

[...]

 k-point    15 :       0.4000    0.2500    0.5000
  band No.  band energies     occupation
      1     -23.6476      1.00000
      2     -23.6065      1.00000
      3     -23.5488      1.00000
      4     -10.8356      1.00000
      5     -10.6224      1.00000
      6     -10.2074      1.00000
      7     -10.0355      1.00000
      8      -9.8762      1.00000
      9      -9.7596      1.00000
     10      -9.6052      1.00000
     11      -9.4813      1.00000
     12      -9.3440      1.00000
     13      -7.5699      1.00000
     14      -7.4332      1.00000
     15      -7.1972      1.00000
     16      -7.1376      1.00000
     17      -7.0353      1.00000
     18      -6.8947      1.00000
     19      -6.8178      1.00000
     20      -6.7183      1.00000
     21      -6.5578      1.00000
     22       1.2973      1.00000
     23       1.9093      1.00000
     24       2.1141      1.00000
     25       2.1765      1.00000
     26       2.3558      1.00000
     27       2.4900      1.00000
     28       2.6686      1.00000
     29       2.7061      1.00000
     30       2.8244      1.00000
     31       3.2258      1.00000
     32       3.4027      1.00000
     33       3.4590      1.00000
     34       3.5676      1.00000
     35       3.6553      1.00000
     36       3.9604      1.00000
     37       4.0188      1.00000
     38       4.1021      1.00000
     39       4.6613      1.00000
     40       5.0443      1.00000
     41       5.3040      1.00000
     42       5.5190      1.00000
     43       5.6404      1.00000
     44       5.6692      1.00000
     45       5.7837      1.00000
     46       6.0057      1.00000
     47       6.0239      1.00000
     48       6.1824      1.00000
     49       6.2598      1.00000
     50       6.3855      1.00000
     51       6.4148      1.00000
     52       6.4636      1.00000
     53       6.5690      1.00000
     54       6.6654      1.00000
     55      10.2826      0.00000
     56      10.6246      0.00000
     57      10.8396      0.00000
     58      10.9955      0.00000
     59      11.0083      0.00000
     60      11.0425      0.00000
     61      11.0703      0.00000
     62      11.1422      0.00000
     63      11.1723      0.00000
     64      11.2266      0.00000
     65      11.2735      0.00000
     66      11.2973      0.00000
     67      11.3150      0.00000
     68      11.3229      0.00000
     69      11.3495      0.00000
     70      11.3686      0.00000
     71      11.3833      0.00000
     72      11.4071      0.00000
     73      11.4471      0.00000
     74      11.4920      0.00000

 soft charge-density along one line, spin component           1
         0         1         2         3         4         5         6         7         8         9
 total charge-density along one line

 soft charge-density along one line, spin component           2
         0         1         2         3         4         5         6         7         8         9
 total charge-density along one line

------------------------ aborting loop because EDIFF is reached ----------------------------------------

 total charge

# of ion       s       p       d       f       tot
    1        2.000   5.700   0.496   0.191   8.387
    2        2.000   5.700   0.496   0.191   8.386
    3        1.999   5.701   0.493   0.193   8.387
    4        0.348   0.551   4.862   0.000   5.762
    5        0.415   0.616   8.316   0.000   9.347
    6        0.415   0.616   8.316   0.000   9.347
    7        1.561   3.442   0.000   0.000   5.003
    8        1.561   3.442   0.000   0.000   5.003
    9        1.565   3.461   0.000   0.000   5.025
   10        1.562   3.454   0.000   0.000   5.016
   11        1.562   3.437   0.000   0.000   4.999
   12        1.562   3.454   0.000   0.000   5.016
   13        1.562   3.434   0.000   0.000   4.997
   14        1.561   3.461   0.000   0.000   5.022
   15        1.561   3.461   0.000   0.000   5.022
tot         21.235  49.929  22.979   0.576  94.719

 magnetization (x)

[...]

  FORCE on cell =-STRESS in cart. coord.  units (eV):
  Direction    XX          YY          ZZ          XY          YZ          ZX
  Alpha Z   494.36385   494.36385   494.36385
  Ewald   -2627.08540 -2670.83118 -2670.83121    -0.00000     8.20413    -0.00000
  Hartree   645.53435   606.67579   606.67586     0.00000     8.48783    -0.00000
  E(xc)    -533.30571  -533.42644  -533.42643     0.00000    -0.01952    -0.00000
  Local    -439.93520  -358.81737  -358.81699    -0.00000   -16.04778    -0.00000
  n-local   214.88352   214.50115   214.30655     0.40324     0.32653     0.37513
  augment   316.84547   317.45548   317.45493     0.00000     0.01522     0.00000
  Kinetic  1928.41803  1929.58450  1930.64165    -0.97220    -0.98790    -0.86882
  Fock        0.00000     0.00000     0.00000     0.00000     0.00000     0.00000
  Total      -0.28109    -0.06301    -0.06301     0.00000    -0.04974     0.00000
  in kB      -2.59202    -0.58105    -0.58105     0.00000    -0.45862     0.00000

 VOLUME and BASIS-vectors are now :
  energy-cutoff  :      520.00
  volume of cell :      173.75
      direct lattice vectors                 reciprocal lattice vectors
    -3.867112017  0.000000000  0.000000000    -0.258590906  0.000000000  0.000000000
     0.000000000  3.866625079  3.866625080     0.000000000  0.172341173  0.086282298
     0.000000000  3.876663516 -7.743288586     0.000000000  0.086058875 -0.086058875

  length of vectors
     3.867112017  5.468233628  8.659505652     0.258590906  0.192733274  0.121705628

 FORCES acting on ions
    electron-ion (+dipol)            ewald-force                    non-local-force                 convergence-correction
   0.369E-14 0.670E+02 -.670E+02   0.110E-13 -.663E+02 0.663E+02   0.000E+00 -.676E+00 0.676E+00   0.500E-14 -.260E-01 0.260E-01
   0.139E-15 -.670E+02 0.670E+02   0.580E-13 0.663E+02 -.663E+02   0.000E+00 0.676E+00 -.676E+00   -.609E-14 0.260E-01 -.260E-01
   -.436E-14 0.176E-03 0.166E-03   -.360E-13 -.170E-03 0.176E-03   0.000E+00 0.108E-18 0.542E-18   0.706E-15 0.961E-05 -.128E-04
   -.472E-13 -.826E-05 -.239E-04   -.103E-13 -.557E-04 0.226E-03   0.000E+00 0.169E-19 0.678E-20   -.291E-14 0.473E-05 -.423E-05
   -.295E-12 0.387E+02 -.387E+02   0.256E-13 -.384E+02 0.384E+02   0.000E+00 -.257E+00 0.257E+00   -.538E-13 -.136E-01 0.136E-01
   -.293E-12 -.387E+02 0.387E+02   -.227E-13 0.384E+02 -.384E+02   0.000E+00 0.257E+00 -.257E+00   -.287E-13 0.136E-01 -.136E-01
   0.421E-14 0.230E+02 -.230E+02   -.133E-13 -.232E+02 0.232E+02   0.000E+00 0.234E+00 -.234E+00   0.114E-13 -.112E-01 0.112E-01
   0.625E-14 -.230E+02 0.230E+02   0.771E-14 0.232E+02 -.232E+02   0.000E+00 -.234E+00 0.234E+00   0.103E-13 0.112E-01 -.112E-01
   0.426E-14 0.129E-03 0.180E-03   0.350E-14 -.767E-04 0.103E-03   0.000E+00 0.542E-19 -.271E-18   0.416E-14 0.444E-05 -.391E-05
   -.112E-12 0.612E+02 -.542E+01   -.232E-13 -.570E+02 0.481E+01   0.000E+00 -.422E+01 0.613E+00   -.128E-13 -.307E-01 0.724E-02
   -.110E-12 0.150E-03 0.315E-03   0.117E-13 -.287E-05 -.367E-04   0.000E+00 0.136E-19 -.108E-18   -.997E-14 -.356E-05 0.309E-05
   -.121E-12 -.612E+02 0.542E+01   -.263E-14 0.570E+02 -.481E+01   0.000E+00 0.422E+01 -.613E+00   -.623E-14 0.307E-01 -.724E-02
   -.120E-12 0.125E-03 -.463E-06   -.307E-13 -.259E-05 0.291E-03   0.000E+00 0.508E-20 0.207E-18   -.118E-13 -.325E-05 0.367E-05
   -.123E-12 -.542E+01 0.612E+02   0.110E-13 0.481E+01 -.570E+02   0.000E+00 0.613E+00 -.422E+01   -.105E-13 0.724E-02 -.307E-01
   -.119E-12 0.542E+01 -.612E+02   0.423E-14 -.481E+01 0.570E+02   0.000E+00 -.613E+00 0.422E+01   -.141E-13 -.724E-02 0.307E-01
   -.133E-11 0.143E-02 -.268E-02   -.604E-14 -.888E-13 -.142E-13   0.000E+00 0.999E-15 0.000E+00   -.125E-12 0.570E-05 -.577E-05

 POSITION                                       TOTAL-FORCE (eV/Angst)
      0.00000      0.06622     -0.06622         0.000000      0.004872     -0.004872
      0.00000      3.80375      0.06288         0.000000     -0.004872      0.004872
      0.00000      3.87332     -3.87332         0.000000      0.000000     -0.000000
     -1.93356      5.80663     -1.94001         0.000000      0.000000     -0.000000
     -1.93356      5.79498     -5.79498         0.000000      0.060357     -0.060357
     -1.93356      1.95165     -1.95165         0.000000     -0.060357      0.060357
      0.00000      1.93904      1.92758         0.000000      0.026883     -0.026883
      0.00000      1.93093     -1.93093         0.000000     -0.026883      0.026883
      0.00000      5.80663     -1.94001         0.000000      0.000000     -0.000000
     -1.93356      3.84125     -5.79522         0.000000     -0.072362      0.004925
     -1.93356      3.86830      1.93164         0.000000      0.000000     -0.000000
     -1.93356      3.90539     -1.95141         0.000000      0.072362     -0.004925
     -1.93356      1.93499     -0.00167         0.000000      0.000000     -0.000000
     -1.93356      5.81804     -0.03876         0.000000      0.004925     -0.072362
     -1.93356      5.79522     -3.84125         0.000000     -0.004925      0.072362
    total drift:                               -0.000000      0.001436     -0.002683

  FREE ENERGIE OF THE ION-ELECTRON SYSTEM (eV)
  free  energy   TOTEN  =      -106.88375941 eV

  energy  without entropy=     -106.88375941  energy(sigma->0) =     -106.88375941

 total charge

[...]

 magnetization (x)

# of ion       s       p       d       f       tot
    1        0.000   0.000   0.005   0.003   0.008
    2        0.000   0.000   0.005   0.003   0.008
    3        0.000   0.001   0.009   0.004   0.014
    4        0.022   0.027   3.293   0.000   3.342
    5        0.014   0.007   1.486   0.000   1.507
    6        0.014   0.007   1.486   0.000   1.507
    7        0.006  -0.062   0.000   0.000  -0.056
    8        0.006  -0.062   0.000   0.000  -0.056
    9        0.003  -0.059   0.000   0.000  -0.057
   10        0.005  -0.030   0.000   0.000  -0.026
   11        0.006  -0.084   0.000   0.000  -0.078
   12        0.005  -0.030   0.000   0.000  -0.025
   13        0.006  -0.082   0.000   0.000  -0.076
   14        0.004  -0.022   0.000   0.000  -0.018
   15        0.004  -0.022   0.000   0.000  -0.018
tot          0.096  -0.411   6.284   0.009   5.978

 BZINTS: Fermi energy:  7.566505;114.000000 electrons
         Band energy:-146.064212;  BLOECHL correction: -0.072724