 vasp.5.4.4.18Apr17-6-g9f103f2a35 (build Oct 03 2018 13:58:34) complex

 executed on             LinuxIFC date 2019.06.04  02:15:46

 INCAR:
 POTCAR:    PAW_PBE La 06Sep2000
 POTCAR:    PAW_PBE Mn 06Sep2000
 POTCAR:    PAW_PBE Ni 02Aug2007
 POTCAR:    PAW_PBE O 08Apr2002

 POTCAR:    PAW_PBE La 06Sep2000
   VRHFIN =La : [core=Kr4d]

   TITEL  = PAW_PBE La 06Sep2000
   POMASS =  138.900; ZVAL   =   11.000    mass and valenz
   ENMAX  =  219.292; ENMIN  =  164.469 eV

 POTCAR:    PAW_PBE Mn 06Sep2000
   VRHFIN =Mn: d6 s1

   TITEL  = PAW_PBE Mn 06Sep2000
   POMASS =   54.938; ZVAL   =    7.000    mass and valenz
   ENMAX  =  269.864; ENMIN  =  202.398 eV

 POTCAR:    PAW_PBE Ni 02Aug2007
   VRHFIN =Ni:

   TITEL  = PAW_PBE Ni 02Aug2007
   POMASS =   58.690; ZVAL   =   10.000    mass and valenz
   ENMAX  =  269.532; ENMIN  =  202.149 eV

 POTCAR:    PAW_PBE O 08Apr2002
   VRHFIN =O: s2p4

   TITEL  = PAW_PBE O 08Apr2002
   POMASS =   16.000; ZVAL   =    6.000    mass and valenz
   ENMAX  =  400.000; ENMIN  =  300.000 eV

 Optimization of the real space projectors (new method)

 maximal supplied QI-value         = 13.42
 optimisation between [QCUT,QGAM] = [ 11.67, 23.35] = [ 38.16,152.62] Ry
 Optimized for a Real-space Cutoff    1.63 Angstroem

   l    n(q)    QCUT    max X(q) W(low)/X(q) W(high)/X(q)  e(spline)
   0     11    11.673    13.882    0.27E-04    0.79E-05    0.11E-06
   0     11    11.673    12.184    0.39E-04    0.13E-04    0.19E-06
   1     11    11.673     4.523    0.73E-05    0.76E-05    0.12E-06
   1     11    11.673     4.424    0.87E-05    0.13E-04    0.19E-06
   2     10    11.673    52.481    0.65E-04    0.36E-04    0.18E-06
   2     10    11.673    38.501    0.61E-04    0.33E-04    0.17E-06
   3     10    11.673    65.631    0.17E-03    0.14E-03    0.37E-06
   3     10    11.673    56.854    0.17E-03    0.14E-03    0.37E-06
 Optimization of the real space projectors (new method)

[...]

   l    n(q)    QCUT    max X(q) W(low)/X(q) W(high)/X(q)  e(spline)
   2      9    11.539    60.317    0.19E-03    0.47E-04    0.16E-06
   2      9    11.539    55.921    0.19E-03    0.48E-04    0.16E-06
   0     10    11.539    51.690    0.80E-04    0.50E-04    0.24E-06
   0     10    11.539    30.015    0.73E-04    0.45E-04    0.22E-06
   1     10    11.539    18.849    0.87E-04    0.16E-03    0.71E-07
   1     10    11.539    14.624    0.73E-04    0.13E-03    0.64E-07
 Optimization of the real space projectors (new method)

 maximal supplied QI-value         = 24.76
 optimisation between [QCUT,QGAM] = [ 11.64, 23.27] = [ 37.91,151.63] Ry
 Optimized for a Real-space Cutoff    1.14 Angstroem

   l    n(q)    QCUT    max X(q) W(low)/X(q) W(high)/X(q)  e(spline)
   0      8    11.635    20.381    0.10E-03    0.33E-03    0.24E-06
   0      8    11.635    15.268    0.11E-03    0.35E-03    0.26E-06
   1      7    11.635     5.964    0.24E-03    0.31E-03    0.30E-06
   1      7    11.635     5.382    0.22E-03    0.25E-03    0.26E-06
  PAW_PBE La 06Sep2000                  :
  PAW_PBE Mn 06Sep2000                  :
  PAW_PBE Ni 02Aug2007                  :
  PAW_PBE O 08Apr2002                   :

 POSCAR: SCEL6_6_1_1_0_4_1/5
  positions in direct lattice
  velocities in cartesian coordinates
 exchange correlation table for  LEXCH =        8
   RHO(1)=    0.500       N(1)  =     2000
   RHO(2)=  100.500       N(2)  =     4000

 ion  position               nearest neighbor table
   1  0.500  0.327  0.840-  18 2.67  23 2.69  30 2.69  28 2.73  21 2.73  17 2.73  17 2.73  22 2.75
                            29 2.75  20 2.80  27 2.80  16 2.82  12 3.30   9 3.31  11 3.34  11 3.34
   2  0.000  0.668  0.678-  22 2.65  29 2.65  17 2.68  28 2.69  21 2.69  16 2.74  16 2.74  27 2.79
                            20 2.79  15 2.79  11 3.26   9 3.30   9 3.30  10 3.35  10 3.35   7 3.41
   3  0.500  0.002  0.507-  21 2.67  28 2.67  27 2.69  20 2.69  16 2.70  15 2.73  15 2.73  14 2.76
                            26 2.77  19 2.77  24 2.79  25 2.79   9 3.29  10 3.31  10 3.31   7 3.32
   4  0.000  0.331  0.326-  23 2.67  30 2.67  25 2.69  24 2.69  13 2.70  14 2.73  14 2.73  15 2.76
                            19 2.77  26 2.77  20 2.79  27 2.79  11 3.29  12 3.31  12 3.31   8 3.32
   5  0.500  0.665  0.155-  22 2.65  29 2.65  18 2.68  23 2.69  30 2.69  13 2.74  13 2.74  25 2.79
                            24 2.79  14 2.79   9 3.26  11 3.30  11 3.30  12 3.35  12 3.35   8 3.41
   6  0.000  0.006  0.993-  17 2.67  21 2.69  28 2.69  23 2.73  30 2.73  18 2.73  18 2.73  22 2.75
                            29 2.75  24 2.80  25 2.80  13 2.82  10 3.30  11 3.31   9 3.34   9 3.34
   7  0.500  0.499  0.500-  20 1.88  27 1.88  16 1.90  14 1.91  26 1.94  19 1.94   3 3.32   3 3.37
                             4 3.39   4 3.39   2 3.41   2 3.41   1 3.42
   8  0.000  0.834  0.333-  24 1.88  25 1.88  13 1.90  15 1.91  19 1.94  26 1.94   4 3.32   4 3.37
                             3 3.39   3 3.39   5 3.41   5 3.41   6 3.42
   9  0.500  0.833  0.833-  21 1.92  28 1.92  22 1.93  29 1.93  18 1.95  16 1.97   5 3.26   3 3.29
                             2 3.30   2 3.30   1 3.31   6 3.34   6 3.34   1 3.38
  10  0.000  0.168  0.665-  17 1.93  15 1.95  21 1.96  28 1.96  27 1.97  20 1.97   6 3.30   3 3.31
                             3 3.31   2 3.35   2 3.35   1 3.37   1 3.37
  11  0.000  0.500  0.000-  23 1.92  30 1.92  29 1.93  22 1.93  17 1.95  13 1.97   2 3.26   4 3.29
                             5 3.30   5 3.30   6 3.31   1 3.34   1 3.34   6 3.38
  12  0.500  0.165  0.168-  18 1.93  14 1.95  23 1.96  30 1.96  25 1.97  24 1.97   1 3.30   4 3.31
                             4 3.31   5 3.35   5 3.35   6 3.37   6 3.37
  13  0.000  0.669  0.171-   8 1.90  11 1.97   4 2.70   5 2.74   5 2.74   6 2.82
  14  0.500  0.336  0.336-   7 1.91  12 1.95   4 2.73   4 2.73   3 2.76   5 2.79
  15  0.000  0.998  0.498-   8 1.91  10 1.95   3 2.73   3 2.73   4 2.76   2 2.79
  16  0.500  0.665  0.662-   7 1.90   9 1.97   3 2.70   2 2.74   2 2.74   1 2.82
  17  0.000  0.333  0.832-  10 1.93  11 1.95   6 2.67   2 2.68   1 2.73   1 2.73
  18  0.500  0.001  0.001-  12 1.93   9 1.95   1 2.67   5 2.68   6 2.73   6 2.73
  19  0.750  0.667  0.417-   8 1.94   7 1.94   3 2.77   4 2.77
  20  0.256  0.336  0.580-   7 1.88  10 1.97   3 2.69   2 2.79   4 2.79   1 2.80
  21  0.749  0.998  0.750-   9 1.92  10 1.96   3 2.67   2 2.69   6 2.69   1 2.73
  22  0.250  0.667  0.917-  11 1.93   9 1.93   2 2.65   5 2.65   6 2.75   1 2.75
  23  0.751  0.335  0.084-  11 1.92  12 1.96   4 2.67   5 2.69   1 2.69   6 2.73
  24  0.244  0.997  0.253-   8 1.88  12 1.97   4 2.69   5 2.79   3 2.79   6 2.80
  25  0.756  0.997  0.253-   8 1.88  12 1.97   4 2.69   5 2.79   3 2.79   6 2.80
  26  0.250  0.667  0.417-   8 1.94   7 1.94   3 2.77   4 2.77
  27  0.744  0.336  0.580-   7 1.88  10 1.97   3 2.69   2 2.79   4 2.79   1 2.80
  28  0.251  0.998  0.750-   9 1.92  10 1.96   3 2.67   2 2.69   6 2.69   1 2.73
  29  0.750  0.667  0.917-  11 1.93   9 1.93   2 2.65   5 2.65   6 2.75   1 2.75
  30  0.249  0.335  0.084-  11 1.92  12 1.96   4 2.67   5 2.69   1 2.69   6 2.73

  LATTYP: Found a simple monoclinic cell.
 ALAT       =    11.6164588735
 B/A-ratio  =     0.4704670579
 C/A-ratio  =     1.4130849467
 COS(beta)  =    -0.9428869069

  Lattice vectors:

 A1 = (  -0.0083129128,   0.0083129128, -11.6164529247)
 A2 = (  -3.8644525659,  -3.8644525659,   0.0000000000)
 A3 = (  -3.8554275700,   3.8554275700,  15.4830552129)

Analysis of symmetry for initial positions (statically):
 Subroutine PRICEL returns:
 Original cell was already a primitive cell.

 Routine SETGRP: Setting up the symmetry group for a
 simple monoclinic supercell.

 Subroutine GETGRP returns: Found  4 space group operations
 (whereof  2 operations were pure point group operations)
 out of a pool of  4 trial point group operations.

The static configuration has the point symmetry C_1h.
 The point group associated with its full space group is C_2h.

Analysis of symmetry for dynamics (positions and initial velocities):
 Subroutine PRICEL returns:
 Original cell was already a primitive cell.

[...]

The dynamic configuration has the point symmetry C_1h.
 The point group associated with its full space group is C_2h.

Analysis of structural, dynamic, and magnetic symmetry:
 Subroutine PRICEL returns:
 Original cell was already a primitive cell.

 Routine SETGRP: Setting up the symmetry group for a
 simple monoclinic supercell.

 Subroutine GETGRP returns: Found  4 space group operations
 (whereof  2 operations were pure point group operations)
 out of a pool of  4 trial point group operations.

The magnetic configuration has the point symmetry C_1h.
 The point group associated with its full space group is C_2h.

 Subroutine INISYM returns: Found  4 space group operations
 (whereof  2 operations are pure point group operations),
 and found     1 'primitive' translations

 KPOINTS: Automatic mesh

Automatic generation of k-mesh.
 generate k-points for:    4    3    2
Space group operators:
 irot       det(A)        alpha          n_x          n_y          n_z        tau_x        tau_y        tau_z
    1     1.000000     0.000000     1.000000     0.000000     0.000000     0.000000     0.000000     0.000000
    2    -1.000000   180.000000     0.707107     0.707107     0.000000     0.000000     0.000000     0.000000
    3    -1.000000     0.000000     1.000000     0.000000     0.000000    -0.500000     0.333333    -0.166667
    4     1.000000   180.000000     0.707107     0.707107     0.000000    -0.500000     0.333333    -0.166667

 Subroutine IBZKPT returns following result:

 Found     12 irreducible k-points:

 Following reciprocal coordinates:
            Coordinates               Weight
  0.000000  0.000000  0.000000      1.000000
  0.250000  0.000000  0.000000      2.000000
  0.500000  0.000000  0.000000      1.000000
  0.000000  0.333333  0.000000      2.000000
  0.250000  0.333333  0.000000      4.000000
  0.500000  0.333333  0.000000      2.000000
  0.000000  0.000000  0.500000      1.000000
  0.250000  0.000000  0.500000      2.000000
  0.500000  0.000000  0.500000      1.000000
  0.000000  0.333333  0.500000      2.000000
  0.250000  0.333333  0.500000      4.000000
  0.500000  0.333333  0.500000      2.000000

 Following cartesian coordinates:
            Coordinates               Weight
  0.000000  0.000000  0.000000      1.000000
  0.032346  0.032346  0.000000      2.000000
  0.064692  0.064692  0.000000      1.000000
 -0.028757  0.028757  0.028736      2.000000
  0.003589  0.061104  0.028736      4.000000
  0.035935  0.093450  0.028736      2.000000
  0.021522 -0.021522  0.043012      1.000000
  0.053868  0.010824  0.043012      2.000000
  0.086214  0.043170  0.043012      1.000000
 -0.007236  0.007236  0.071748      2.000000
  0.025110  0.039582  0.071748      4.000000
  0.057457  0.071928  0.071748      2.000000

 TETIRR: Found     72 inequivalent tetrahedra from      144

 SYSTEM =  final
 POSCAR =  SCEL6_6_1_1_0_4_1/5

 Startparameter for this run:
   NWRITE =      2    write-flag & timer
   PREC   = accura    normal or accurate (medium, high low for compatibility)
   ISTART =      0    job   : 0-new  1-cont  2-samecut
[...]
     30      -7.2210      1.00000
     31      -7.2093      1.00000
     32      -7.2093      1.00000
     33      -7.1525      1.00000
     34      -6.9715      1.00000
     35      -6.9417      1.00000
     36      -6.9382      1.00000
     37      -6.8968      1.00000
     38      -6.8221      1.00000
     39      -6.7100      1.00000
     40      -6.7044      1.00000
     41      -6.5920      1.00000
     42      -6.5678      1.00000
     43       0.3293      1.00000
     44       0.4292      1.00000
     45       0.5886      1.00000
     46       0.5946      1.00000
     47       0.6514      1.00000
     48       1.0082      1.00000
     49       1.1197      1.00000
     50       1.1745      1.00000
     51       1.3335      1.00000
     52       1.4069      1.00000
     53       1.4655      1.00000
     54       1.7518      1.00000
     55       1.7705      1.00000
     56       1.7880      1.00000
     57       1.8384      1.00000
     58       1.8926      1.00000
     59       1.8992      1.00000
     60       1.9333      1.00000
[...]
    132      11.1061      0.00000
    133      11.1289      0.00000
    134      11.1625      0.00000
    135      11.1763      0.00000
    136      11.1977      0.00000
    137      11.2212      0.00000
    138      11.2536      0.00000
    139      11.2921      0.00000
    140      11.3179      0.00000
    141      11.3201      0.00000
    142      11.3452      0.00000
    143      11.3788      0.00000
    144      11.3999      0.00000
    145      11.4069      0.00000
    146      11.4545      0.00000

[...]

 spin component 2

[...]

 k-point    12 :       0.5000    0.3333    0.5000
  band No.  band energies     occupation
      1     -23.6355      1.00000
      2     -23.6355      1.00000
      3     -23.6099      1.00000
      4     -23.6098      1.00000
      5     -23.5734      1.00000
      6     -23.5734      1.00000
      7     -11.1158      1.00000
      8     -11.1158      1.00000
      9     -10.6666      1.00000
     10     -10.6666      1.00000
     11     -10.4947      1.00000
     12     -10.4946      1.00000
     13     -10.0673      1.00000
     14     -10.0673      1.00000
     15      -9.7465      1.00000
     16      -9.7465      1.00000
     17      -9.6598      1.00000
     18      -9.6597      1.00000
     19      -9.5867      1.00000
     20      -9.5867      1.00000
     21      -9.5061      1.00000
     22      -9.5061      1.00000
     23      -9.1837      1.00000
     24      -9.1837      1.00000
     25      -7.2118      1.00000
     26      -7.2118      1.00000
     27      -7.1545      1.00000
     28      -7.1545      1.00000
     29      -7.1163      1.00000
     30      -7.1163      1.00000
     31      -7.0849      1.00000
     32      -7.0849      1.00000
     33      -7.0249      1.00000
     34      -7.0249      1.00000
     35      -6.8480      1.00000
     36      -6.8480      1.00000
     37      -6.7286      1.00000
     38      -6.7286      1.00000
     39      -6.5996      1.00000
     40      -6.5996      1.00000
     41      -6.3542      1.00000
     42      -6.3542      1.00000
     43       1.8229      1.00000
     44       1.8229      1.00000
     45       1.8976      1.00000
     46       1.8977      1.00000
     47       2.1178      1.00000
     48       2.1178      1.00000
     49       2.5717      1.00000
     50       2.5717      1.00000
     51       2.6987      1.00000
     52       2.6987      1.00000
     53       2.7325      1.00000
     54       2.7325      1.00000
     55       2.8810      1.00000
     56       2.8810      1.00000
     57       2.9433      1.00000
     58       2.9433      1.00000
     59       3.0151      1.00000
     60       3.0151      1.00000
[...]
    132      11.2991      0.00000
    133      11.3136      0.00000
    134      11.3196      0.00000
    135      11.3295      0.00000
    136      11.3401      0.00000
    137      11.3429      0.00000
    138      11.3585      0.00000
    139      11.3628      0.00000
    140      11.3820      0.00000
    141      11.3953      0.00000
    142      11.4069      0.00000
    143      11.4314      0.00000
    144      11.4495      0.00000
    145      11.4735      0.00000
    146      11.5080      0.00000

 soft charge-density along one line, spin component           1
         0         1         2         3         4         5         6         7         8         9
 total charge-density along one line

 soft charge-density along one line, spin component           2
         0         1         2         3         4         5         6         7         8         9
 total charge-density along one line

------------------------ aborting loop because EDIFF is reached ----------------------------------------

 total charge

# of ion       s       p       d       f       tot
    1        2.000   5.699   0.494   0.190   8.384
    2        2.000   5.700   0.497   0.193   8.390
    3        2.000   5.701   0.498   0.194   8.393
    4        2.000   5.701   0.498   0.194   8.393
    5        2.000   5.700   0.497   0.193   8.390
    6        2.001   5.699   0.494   0.190   8.385
    7        0.354   0.561   4.857   0.000   5.772
    8        0.354   0.561   4.857   0.000   5.772
    9        0.424   0.635   8.321   0.000   9.381
   10        0.406   0.590   8.318   0.000   9.313
   11        0.424   0.635   8.321   0.000   9.381
   12        0.406   0.590   8.318   0.000   9.313
   13        1.563   3.454   0.000   0.000   5.017
   14        1.562   3.456   0.000   0.000   5.018
   15        1.562   3.456   0.000   0.000   5.018
   16        1.563   3.454   0.000   0.000   5.017
   17        1.561   3.437   0.000   0.000   4.999
   18        1.561   3.437   0.000   0.000   4.999
   19        1.562   3.467   0.000   0.000   5.029
   20        1.563   3.454   0.000   0.000   5.018
   21        1.561   3.448   0.000   0.000   5.009
   22        1.561   3.441   0.000   0.000   5.003
   23        1.561   3.448   0.000   0.000   5.009
   24        1.563   3.454   0.000   0.000   5.018
   25        1.563   3.452   0.000   0.000   5.015
   26        1.561   3.466   0.000   0.000   5.027
   27        1.563   3.452   0.000   0.000   5.015
   28        1.560   3.442   0.000   0.000   5.003
   29        1.561   3.447   0.000   0.000   5.008
   30        1.560   3.442   0.000   0.000   5.003
tot         42.482  99.882  45.970   1.155 189.489

 magnetization (x)

[...]

  FORCE on cell =-STRESS in cart. coord.  units (eV):
  Direction    XX          YY          ZZ          XY          YZ          ZX
  Alpha Z   989.73625   989.73625   989.73625
  Ewald   -5278.06592 -5278.06592 -5375.74473    18.82798    17.66227   -17.66227
  Hartree  1269.88838  1269.88838  1186.14002    19.13096    17.91388   -17.91388
  E(xc)   -1066.73465 -1066.73465 -1066.83744    -0.00992    -0.01606     0.01606
  Local    -837.98367  -837.98367  -656.84684   -38.21779   -34.87002    34.87002
  n-local   429.36039   429.60448   429.13646     0.14171     0.64303     0.07086
  augment   634.21893   634.21893   634.52397     0.02533    -0.02205     0.02228
  Kinetic  3859.56732  3859.57789  3859.72856     0.18841    -2.11629    -0.14483
  Fock        0.00000     0.00000     0.00000     0.00000     0.00000     0.00000
  Total       0.11436     0.11436    -0.16375     0.08468    -0.00482     0.00482
  in kB       0.52779     0.52779    -0.75575     0.39082    -0.02224     0.02224

 VOLUME and BASIS-vectors are now :
  energy-cutoff  :      520.00
  volume of cell :      347.14
      direct lattice vectors                 reciprocal lattice vectors
     3.864452566  3.864452566  0.000000000     0.129384432  0.129384432  0.000000000
    -3.863740483  3.863740483  3.866602288    -0.086272214  0.086272214  0.086208273
     3.872053396 -3.872053396  7.749850636     0.043043454 -0.043043454  0.086023193

  length of vectors
     5.465161230  6.693847496  9.489245486     0.182977218  0.149390951  0.105382482

 FORCES acting on ions
    electron-ion (+dipol)            ewald-force                    non-local-force                 convergence-correction
   0.383E+02 -.383E+02 0.396E+02   -.378E+02 0.378E+02 -.393E+02   -.445E+00 0.445E+00 -.297E+00   -.683E-03 0.683E-03 -.672E-03
   0.382E+02 -.382E+02 0.113E+03   -.379E+02 0.379E+02 -.112E+03   -.277E+00 0.277E+00 -.921E+00   0.159E-02 -.159E-02 0.103E-02
   0.142E+02 -.142E+02 0.740E+02   -.140E+02 0.140E+02 -.734E+02   -.169E+00 0.169E+00 -.645E+00   -.298E-02 0.298E-02 0.192E-02
   -.142E+02 0.142E+02 -.740E+02   0.140E+02 -.140E+02 0.734E+02   0.169E+00 -.169E+00 0.645E+00   0.298E-02 -.298E-02 -.192E-02
   -.382E+02 0.382E+02 -.113E+03   0.379E+02 -.379E+02 0.112E+03   0.277E+00 -.277E+00 0.921E+00   -.159E-02 0.159E-02 -.103E-02
   -.383E+02 0.383E+02 -.396E+02   0.378E+02 -.378E+02 0.393E+02   0.445E+00 -.445E+00 0.297E+00   0.688E-03 -.688E-03 0.669E-03
   0.255E+02 -.255E+02 0.904E+01   -.252E+02 0.252E+02 -.900E+01   -.363E+00 0.363E+00 -.346E-01   0.683E-02 -.683E-02 -.101E-02
   -.255E+02 0.255E+02 -.904E+01   0.252E+02 -.252E+02 0.900E+01   0.363E+00 -.363E+00 0.346E-01   -.683E-02 0.683E-02 0.101E-02
   0.284E+01 -.284E+01 0.349E+02   -.320E+01 0.320E+01 -.344E+02   0.360E+00 -.360E+00 -.559E+00   0.925E-03 -.925E-03 0.214E-02
   0.418E+02 -.418E+02 0.465E+02   -.410E+02 0.410E+02 -.458E+02   -.707E+00 0.707E+00 -.627E+00   -.644E-03 0.644E-03 0.711E-03
   -.284E+01 0.284E+01 -.349E+02   0.320E+01 -.320E+01 0.344E+02   -.360E+00 0.360E+00 0.559E+00   -.927E-03 0.927E-03 -.213E-02
   -.418E+02 0.418E+02 -.465E+02   0.410E+02 -.410E+02 0.458E+02   0.707E+00 -.707E+00 0.627E+00   0.648E-03 -.648E-03 -.714E-03
   -.894E+01 0.894E+01 -.746E+02   0.862E+01 -.862E+01 0.701E+02   0.333E+00 -.333E+00 0.456E+01   -.815E-03 0.815E-03 0.512E-02
   -.911E+00 0.911E+00 -.605E+02   0.622E+00 -.622E+00 0.566E+02   0.268E+00 -.268E+00 0.393E+01   0.205E-02 -.205E-02 0.538E-02
   0.911E+00 -.911E+00 0.605E+02   -.622E+00 0.622E+00 -.566E+02   -.268E+00 0.268E+00 -.393E+01   -.205E-02 0.205E-02 -.538E-02
   0.894E+01 -.894E+01 0.746E+02   -.862E+01 0.862E+01 -.701E+02   -.333E+00 0.333E+00 -.456E+01   0.813E-03 -.813E-03 -.511E-02
   0.126E+02 -.126E+02 0.156E+02   -.125E+02 0.125E+02 -.153E+02   -.911E-01 0.911E-01 -.318E+00   -.762E-03 0.762E-03 0.418E-03
   -.126E+02 0.126E+02 -.157E+02   0.125E+02 -.125E+02 0.153E+02   0.911E-01 -.911E-01 0.318E+00   0.764E-03 -.764E-03 -.418E-03
   -.932E-05 -.471E-05 -.697E-03   0.780E-04 -.439E-04 -.136E-04   -.167E-19 0.167E-19 0.635E-20   -.152E-05 0.153E-05 0.514E-06
   0.250E+02 -.482E+02 0.132E+02   -.253E+02 0.428E+02 -.128E+02   0.315E+00 0.544E+01 -.432E+00   0.103E-02 0.639E-02 -.119E-02
   0.126E+02 -.207E+02 0.238E+02   -.126E+02 0.218E+02 -.235E+02   0.151E-01 -.115E+01 -.288E+00   -.454E-03 -.930E-03 -.477E-03
   0.150E-04 0.439E-04 -.774E-03   0.847E-04 -.497E-04 0.443E-04   0.407E-19 -.407E-19 0.271E-19   -.109E-05 0.758E-06 0.171E-05
   -.126E+02 0.207E+02 -.238E+02   0.126E+02 -.218E+02 0.235E+02   -.151E-01 0.115E+01 0.288E+00   0.456E-03 0.929E-03 0.476E-03
   -.250E+02 0.482E+02 -.132E+02   0.253E+02 -.428E+02 0.128E+02   -.315E+00 -.544E+01 0.432E+00   -.103E-02 -.639E-02 0.119E-02
   -.482E+02 0.250E+02 -.132E+02   0.428E+02 -.253E+02 0.128E+02   0.544E+01 0.315E+00 0.432E+00   0.639E-02 0.103E-02 0.119E-02
   0.471E-05 0.932E-05 -.697E-03   0.439E-04 -.780E-04 -.136E-04   0.190E-19 0.895E-19 -.243E-19   -.153E-05 0.152E-05 0.514E-06
   0.482E+02 -.250E+02 0.132E+02   -.428E+02 0.253E+02 -.128E+02   -.544E+01 -.315E+00 -.432E+00   -.639E-02 -.103E-02 -.119E-02
   0.207E+02 -.126E+02 0.238E+02   -.218E+02 0.126E+02 -.235E+02   0.115E+01 -.151E-01 -.288E+00   0.930E-03 0.454E-03 -.477E-03
   -.439E-04 -.150E-04 -.774E-03   0.497E-04 -.847E-04 0.443E-04   0.830E-19 0.254E-19 -.169E-19   -.758E-06 0.109E-05 0.171E-05
   -.207E+02 0.126E+02 -.238E+02   0.218E+02 -.126E+02 0.235E+02   -.115E+01 0.151E-01 0.288E+00   -.929E-03 -.456E-03 0.476E-03
   -.138E-03 0.138E-03 -.518E-02   0.853E-13 -.497E-13 -.639E-13   -.111E-14 -.520E-16 -.167E-15   0.142E-05 -.142E-05 -.536E-06

 POSITION                                       TOTAL-FORCE (eV/Angst)
      3.91955     -0.05510      7.77537         0.021578     -0.021578     -0.001307
      0.04438     -0.04438      7.83627         0.008148     -0.008148      0.005027
      3.88730     -0.02285      3.94126         0.015431     -0.015431      0.014398
     -0.01627      0.01627      3.80581        -0.015431      0.015431     -0.014398
     -0.03710      3.90155      3.77741        -0.008148      0.008148     -0.005027
      3.82353     -3.82353      7.72156        -0.021578      0.021578      0.001307
      1.94038      1.92408      5.80395        -0.004390      0.004390      0.002505
     -1.93309      1.93309      5.80972         0.004390     -0.004390     -0.002505
      1.94036      1.92410      9.67709        -0.001997      0.001997      0.001459
      1.92591     -1.92591      5.80216         0.013288     -0.013288     -0.000388
     -1.93307      1.93307      1.93658         0.001997     -0.001997     -0.001459
      1.94511      1.91934      1.94492        -0.013288      0.013288      0.000388
     -1.92147      1.92147      3.91034         0.006621     -0.006621      0.006097
      1.93390      1.93055      3.89871        -0.019151      0.019151      0.010163
     -1.92662      1.92662      7.71497         0.019151     -0.019151     -0.010163
      1.92876      1.93570      7.70334        -0.006621      0.006621     -0.006097
      1.93637     -1.93637      7.73561         0.008731     -0.008731      0.005343
      1.93466      1.92980      0.01146        -0.008731      0.008731     -0.005343
      1.93587      3.86081      5.80684        -0.000000     -0.000000     -0.000000
      1.93858      0.04108      5.79453         0.006765      0.001685     -0.005693
      1.94033      3.84675      9.66775        -0.002896     -0.006425      0.032051
      1.93967     -0.00744      9.68176        -0.000000     -0.000000     -0.000000
      1.93140      3.87487      1.94593         0.002896      0.006425     -0.032051
     -1.93130      3.81609      5.81914        -0.006765     -0.001685      0.005693
      0.04837      5.79575      5.81914         0.001685      0.006765      0.005693
      0.00364      1.92858      5.80684        -0.000000     -0.000000     -0.000000
      3.82337      1.92587      5.79453        -0.001685     -0.006765     -0.005693
      0.01770      1.92412      9.66775         0.006425      0.002896      0.032051
      3.87189      1.92478      9.68176        -0.000000     -0.000000     -0.000000
     -0.01042      1.93305      1.94593        -0.006425     -0.002896     -0.032051
    total drift:                               -0.000136      0.000136     -0.005185

  FREE ENERGIE OF THE ION-ELECTRON SYSTEM (eV)
  free  energy   TOTEN  =      -213.87015769 eV

  energy  without entropy=     -213.87015769  energy(sigma->0) =     -213.87015769

 total charge

[...]

 magnetization (x)

# of ion       s       p       d       f       tot
    1        0.000   0.000   0.004   0.002   0.006
    2        0.001   0.000   0.007   0.003   0.011
    3        0.001   0.001   0.009   0.004   0.015
    4        0.001   0.001   0.009   0.004   0.015
    5        0.000   0.000   0.007   0.003   0.011
    6        0.000   0.000   0.004   0.002   0.006
    7        0.023   0.027   3.226   0.000   3.275
    8        0.023   0.027   3.226   0.000   3.275
    9        0.017   0.012   1.432   0.000   1.461
   10        0.013   0.000   1.564   0.000   1.577
   11        0.017   0.012   1.432   0.000   1.461
   12        0.013   0.000   1.564   0.000   1.577
   13        0.005  -0.030   0.000   0.000  -0.025
   14        0.004  -0.033   0.000   0.000  -0.029
   15        0.004  -0.033   0.000   0.000  -0.029
   16        0.005  -0.030   0.000   0.000  -0.025
   17        0.006  -0.075   0.000   0.000  -0.069
   18        0.006  -0.075   0.000   0.000  -0.069
   19        0.002  -0.014   0.000   0.000  -0.012
   20        0.004  -0.042   0.000   0.000  -0.038
   21        0.006  -0.050   0.000   0.000  -0.043
   22        0.006  -0.071   0.000   0.000  -0.065
   23        0.006  -0.050   0.000   0.000  -0.043
   24        0.004  -0.042   0.000   0.000  -0.038
   25        0.004  -0.045   0.000   0.000  -0.041
   26        0.001  -0.017   0.000   0.000  -0.016
   27        0.004  -0.045   0.000   0.000  -0.041
   28        0.006  -0.056   0.000   0.000  -0.049
   29        0.006  -0.067   0.000   0.000  -0.061
   30        0.006  -0.056   0.000   0.000  -0.049
tot          0.196  -0.750  12.483   0.019  11.948

 BZINTS: Fermi energy:  7.636734;228.000000 electrons
         Band energy:-290.756326;  BLOECHL correction: -0.004431