 vasp.5.4.4.18Apr17-6-g9f103f2a35 (build Oct 03 2018 13:58:34) complex

 executed on             LinuxIFC date 2019.06.04  02:15:05

 INCAR:
 POTCAR:    PAW_PBE La 06Sep2000
 POTCAR:    PAW_PBE Mn 06Sep2000
 POTCAR:    PAW_PBE Ni 02Aug2007
 POTCAR:    PAW_PBE O 08Apr2002

 POTCAR:    PAW_PBE La 06Sep2000
   VRHFIN =La : [core=Kr4d]

   TITEL  = PAW_PBE La 06Sep2000
   POMASS =  138.900; ZVAL   =   11.000    mass and valenz
   ENMAX  =  219.292; ENMIN  =  164.469 eV

 POTCAR:    PAW_PBE Mn 06Sep2000
   VRHFIN =Mn: d6 s1

   TITEL  = PAW_PBE Mn 06Sep2000
   POMASS =   54.938; ZVAL   =    7.000    mass and valenz
   ENMAX  =  269.864; ENMIN  =  202.398 eV

 POTCAR:    PAW_PBE Ni 02Aug2007
   VRHFIN =Ni:

   TITEL  = PAW_PBE Ni 02Aug2007
   POMASS =   58.690; ZVAL   =   10.000    mass and valenz
   ENMAX  =  269.532; ENMIN  =  202.149 eV

 POTCAR:    PAW_PBE O 08Apr2002
   VRHFIN =O: s2p4

   TITEL  = PAW_PBE O 08Apr2002
   POMASS =   16.000; ZVAL   =    6.000    mass and valenz
   ENMAX  =  400.000; ENMIN  =  300.000 eV

 Optimization of the real space projectors (new method)

 maximal supplied QI-value         = 13.42
 optimisation between [QCUT,QGAM] = [ 11.67, 23.35] = [ 38.16,152.62] Ry
 Optimized for a Real-space Cutoff    1.63 Angstroem

   l    n(q)    QCUT    max X(q) W(low)/X(q) W(high)/X(q)  e(spline)
   0     11    11.673    13.882    0.27E-04    0.79E-05    0.11E-06
   0     11    11.673    12.184    0.39E-04    0.13E-04    0.19E-06
   1     11    11.673     4.523    0.73E-05    0.76E-05    0.12E-06
   1     11    11.673     4.424    0.87E-05    0.13E-04    0.19E-06
   2     10    11.673    52.481    0.65E-04    0.36E-04    0.18E-06
   2     10    11.673    38.501    0.61E-04    0.33E-04    0.17E-06
   3     10    11.673    65.631    0.17E-03    0.14E-03    0.37E-06
   3     10    11.673    56.854    0.17E-03    0.14E-03    0.37E-06
 Optimization of the real space projectors (new method)

[...]

   l    n(q)    QCUT    max X(q) W(low)/X(q) W(high)/X(q)  e(spline)
   2      9    11.539    60.317    0.19E-03    0.47E-04    0.16E-06
   2      9    11.539    55.921    0.19E-03    0.48E-04    0.16E-06
   0     10    11.539    51.690    0.80E-04    0.50E-04    0.24E-06
   0     10    11.539    30.015    0.73E-04    0.45E-04    0.22E-06
   1     10    11.539    18.849    0.87E-04    0.16E-03    0.71E-07
   1     10    11.539    14.624    0.73E-04    0.13E-03    0.64E-07
 Optimization of the real space projectors (new method)

 maximal supplied QI-value         = 24.76
 optimisation between [QCUT,QGAM] = [ 11.64, 23.27] = [ 37.91,151.63] Ry
 Optimized for a Real-space Cutoff    1.14 Angstroem

   l    n(q)    QCUT    max X(q) W(low)/X(q) W(high)/X(q)  e(spline)
   0      8    11.635    20.381    0.10E-03    0.33E-03    0.24E-06
   0      8    11.635    15.268    0.11E-03    0.35E-03    0.26E-06
   1      7    11.635     5.964    0.24E-03    0.31E-03    0.30E-06
   1      7    11.635     5.382    0.22E-03    0.25E-03    0.26E-06
  PAW_PBE La 06Sep2000                  :
  PAW_PBE Mn 06Sep2000                  :
  PAW_PBE Ni 02Aug2007                  :
  PAW_PBE O 08Apr2002                   :

 POSCAR: SCEL6_6_1_1_0_4_1/3
  positions in direct lattice
  velocities in cartesian coordinates
 exchange correlation table for  LEXCH =        8
   RHO(1)=    0.500       N(1)  =     2000
   RHO(2)=  100.500       N(2)  =     4000

 ion  position               nearest neighbor table
   1  0.500  0.333  0.846-  23 2.65  30 2.65  18 2.67  29 2.70  22 2.70  17 2.75  17 2.75  28 2.80
                            21 2.80  12 3.26  11 3.31  11 3.31  10 3.36  10 3.37   9 3.42   9 3.42
   2  0.000  0.668  0.678-  22 2.64  29 2.64  17 2.69  28 2.69  21 2.69  16 2.75  16 2.75  27 2.80
                            20 2.80  15 2.80  11 3.26  10 3.30  10 3.30   9 3.35   9 3.37   7 3.42
   3  0.500  0.000  0.500-  14 2.73  16 2.73  21 2.73  24 2.73  25 2.73  28 2.73  19 2.73  26 2.73
                            27 2.73  20 2.73  15 2.74  15 2.74  10 3.35  12 3.35   7 3.36   7 3.36
   4  0.000  0.332  0.322-  23 2.64  30 2.64  13 2.69  25 2.69  24 2.69  14 2.75  14 2.75  19 2.80
                            26 2.80  15 2.80  11 3.26  12 3.30  12 3.30   8 3.35   8 3.37   7 3.42
   5  0.500  0.667  0.154-  22 2.65  29 2.65  18 2.67  23 2.70  30 2.70  13 2.75  13 2.75  25 2.80
                            24 2.80  10 3.26  11 3.31  11 3.31  12 3.36  12 3.37   8 3.42   8 3.42
   6  0.000  0.000  0.000-  18 2.74  18 2.74  13 2.74  17 2.74  23 2.76  29 2.76  30 2.76  22 2.76
                            28 2.76  21 2.76  24 2.76  25 2.76  11 3.36  11 3.36   8 3.37   9 3.37
   7  0.500  0.500  0.500-  14 1.90  16 1.90  19 1.96  20 1.96  26 1.96  27 1.96   3 3.36   3 3.36
                             4 3.42   2 3.42   2 3.42   4 3.42
   8  0.000  0.833  0.334-  13 1.88  24 1.90  25 1.90  19 1.92  26 1.92  15 1.94   4 3.35   3 3.36
                             3 3.36   6 3.37   4 3.37   5 3.42   5 3.42
   9  0.000  0.167  0.666-  17 1.88  21 1.90  28 1.90  27 1.92  20 1.92  15 1.94   2 3.35   3 3.36
                             3 3.36   6 3.37   2 3.37   1 3.42   1 3.42
  10  0.500  0.834  0.832-  18 1.95  22 1.97  29 1.97  28 1.97  21 1.97  16 1.98   5 3.26   2 3.30
                             2 3.30   3 3.35   1 3.36   1 3.37   6 3.37   6 3.37
  11  0.000  0.500  0.000-  22 1.92  23 1.92  29 1.92  30 1.92  13 2.00  17 2.00   2 3.26   4 3.26
                             1 3.31   5 3.31   1 3.31   5 3.31   6 3.36   6 3.36
  12  0.500  0.166  0.168-  18 1.95  23 1.97  30 1.97  25 1.97  24 1.97  14 1.98   1 3.26   4 3.30
                             4 3.30   3 3.35   5 3.36   5 3.37   6 3.37   6 3.37
  13  0.000  0.672  0.172-   8 1.88  11 2.00   4 2.69   6 2.74   5 2.75   5 2.75
  14  0.500  0.335  0.338-   7 1.90  12 1.98   3 2.73   4 2.75   4 2.75
  15  0.000  0.000  0.500-   9 1.94   8 1.94   3 2.74   3 2.74   4 2.80   2 2.80
  16  0.500  0.665  0.662-   7 1.90  10 1.98   3 2.73   2 2.75   2 2.75
  17  0.000  0.328  0.828-   9 1.88  11 2.00   2 2.69   6 2.74   1 2.75   1 2.75
  18  0.500  0.000  0.000-  10 1.95  12 1.95   1 2.67   5 2.67   6 2.74   6 2.74
  19  0.751  0.669  0.417-   8 1.92   7 1.96   3 2.73   4 2.80
  20  0.249  0.331  0.583-   9 1.92   7 1.96   3 2.73   2 2.80
  21  0.755  0.001  0.746-   9 1.90  10 1.97   2 2.69   3 2.73   6 2.76   1 2.80
  22  0.248  0.663  0.916-  11 1.92  10 1.97   2 2.64   5 2.65   1 2.70   6 2.76
  23  0.752  0.337  0.084-  11 1.92  12 1.97   4 2.64   1 2.65   5 2.70   6 2.76
  24  0.245  0.999  0.254-   8 1.90  12 1.97   4 2.69   3 2.73   6 2.76   5 2.80
  25  0.755  0.999  0.254-   8 1.90  12 1.97   4 2.69   3 2.73   6 2.76   5 2.80
  26  0.249  0.669  0.417-   8 1.92   7 1.96   3 2.73   4 2.80
  27  0.751  0.331  0.583-   9 1.92   7 1.96   3 2.73   2 2.80
  28  0.245  0.001  0.746-   9 1.90  10 1.97   2 2.69   3 2.73   6 2.76   1 2.80
  29  0.752  0.663  0.916-  11 1.92  10 1.97   2 2.64   5 2.65   1 2.70   6 2.76
  30  0.248  0.337  0.084-  11 1.92  12 1.97   4 2.64   1 2.65   5 2.70   6 2.76

  LATTYP: Found a simple monoclinic cell.
 ALAT       =    11.6579278932
 B/A-ratio  =     0.4707683726
 C/A-ratio  =     1.4134714085
 COS(beta)  =    -0.9429136369

  Lattice vectors:

 A1 = (  -0.0048195372,   0.0048195372, -11.6579259008)
 A2 = (  -3.8807319406,  -3.8807319406,   0.0000000000)
 A3 = (  -3.8740638259,   3.8740638259,  15.5406760638)

Analysis of symmetry for initial positions (statically):
 Subroutine PRICEL returns:
 Original cell was already a primitive cell.

 Routine SETGRP: Setting up the symmetry group for a
 simple monoclinic supercell.

 Subroutine GETGRP returns: Found  4 space group operations
 (whereof  4 operations were pure point group operations)
 out of a pool of  4 trial point group operations.

The static configuration has the point symmetry C_2h.

Analysis of symmetry for dynamics (positions and initial velocities):
 Subroutine PRICEL returns:
 Original cell was already a primitive cell.

[...]

The dynamic configuration has the point symmetry C_2h.

Analysis of structural, dynamic, and magnetic symmetry:
 Subroutine PRICEL returns:
 Original cell was already a primitive cell.

 Routine SETGRP: Setting up the symmetry group for a
 simple monoclinic supercell.

 Subroutine GETGRP returns: Found  4 space group operations
 (whereof  4 operations were pure point group operations)
 out of a pool of  4 trial point group operations.

The magnetic configuration has the point symmetry C_2h.

 Subroutine INISYM returns: Found  4 space group operations
 (whereof  4 operations are pure point group operations),
 and found     1 'primitive' translations

 KPOINTS: Automatic mesh

Automatic generation of k-mesh.
 generate k-points for:    4    3    2
Space group operators:
 irot       det(A)        alpha          n_x          n_y          n_z        tau_x        tau_y        tau_z
    1     1.000000     0.000000     1.000000     0.000000     0.000000     0.000000     0.000000     0.000000
    2    -1.000000     0.000000     1.000000     0.000000     0.000000     0.000000     0.000000     0.000000
    3     1.000000   180.000000     0.707107     0.707107     0.000000     0.000000     0.000000     0.000000
    4    -1.000000   180.000000     0.707107     0.707107     0.000000     0.000000     0.000000     0.000000

 Subroutine IBZKPT returns following result:

 Found     12 irreducible k-points:

 Following reciprocal coordinates:
            Coordinates               Weight
  0.000000  0.000000  0.000000      1.000000
  0.250000  0.000000  0.000000      2.000000
  0.500000  0.000000  0.000000      1.000000
  0.000000  0.333333 -0.000000      2.000000
  0.250000  0.333333 -0.000000      4.000000
  0.500000  0.333333  0.000000      2.000000
  0.000000  0.000000  0.500000      1.000000
  0.250000  0.000000  0.500000      2.000000
  0.500000  0.000000  0.500000      1.000000
  0.000000  0.333333  0.500000      2.000000
  0.250000  0.333333  0.500000      4.000000
  0.500000  0.333333  0.500000      2.000000

 Following cartesian coordinates:
            Coordinates               Weight
  0.000000  0.000000  0.000000      1.000000
  0.032210  0.032210  0.000000      2.000000
  0.064421  0.064421  0.000000      1.000000
 -0.028645  0.028645  0.028617      2.000000
  0.003565  0.060856  0.028617      4.000000
  0.035776  0.093066  0.028617      2.000000
  0.021457 -0.021457  0.042872      1.000000
  0.053668  0.010753  0.042872      2.000000
  0.085878  0.042964  0.042872      1.000000
 -0.007188  0.007188  0.071488      2.000000
  0.025022  0.039398  0.071488      4.000000
  0.057233  0.071609  0.071488      2.000000

 TETIRR: Found     72 inequivalent tetrahedra from      144

 SYSTEM =  final
 POSCAR =  SCEL6_6_1_1_0_4_1/3

 Startparameter for this run:
   NWRITE =      2    write-flag & timer
   PREC   = accura    normal or accurate (medium, high low for compatibility)
   ISTART =      0    job   : 0-new  1-cont  2-samecut
   ICHARG =      1    charge: 1-file 2-atom 10-const
   ISPIN  =      2    spin polarized calculation?
   LNONCOLLINEAR =      F non collinear calculations
   LSORBIT =      F    spin-orbit coupling
[...]
     30      -7.4682      1.00000
     31      -7.4483      1.00000
     32      -7.4202      1.00000
     33      -7.4063      1.00000
     34      -7.2271      1.00000
     35      -7.1951      1.00000
     36      -7.1766      1.00000
     37      -7.1417      1.00000
     38      -7.0658      1.00000
     39      -6.9559      1.00000
     40      -6.9469      1.00000
     41      -6.8288      1.00000
     42      -6.8130      1.00000
     43       0.2868      1.00000
     44       0.3228      1.00000
     45       0.5296      1.00000
     46       0.7513      1.00000
     47       0.8185      1.00000
     48       0.9591      1.00000
     49       1.2776      1.00000
     50       1.3004      1.00000
     51       1.3677      1.00000
     52       1.4318      1.00000
     53       1.5088      1.00000
     54       1.7087      1.00000
     55       1.7446      1.00000
     56       1.7559      1.00000
     57       1.7711      1.00000
     58       1.8074      1.00000
     59       1.8275      1.00000
     60       1.8532      1.00000
[...]
    132      10.8784      0.00000
    133      10.8830      0.00000
    134      10.9354      0.00000
    135      10.9493      0.00000
    136      10.9698      0.00000
    137      10.9837      0.00000
    138      11.0214      0.00000
    139      11.0365      0.00000
    140      11.0518      0.00000
    141      11.0725      0.00000
    142      11.0782      0.00000
    143      11.1130      0.00000
    144      11.1350      0.00000
    145      11.1629      0.00000
    146      11.1799      0.00000

[...]

 spin component 2

[...]

 k-point    12 :       0.5000    0.3333    0.5000
  band No.  band energies     occupation
      1     -23.8965      1.00000
      2     -23.8791      1.00000
      3     -23.8576      1.00000
      4     -23.8522      1.00000
      5     -23.8419      1.00000
      6     -23.8119      1.00000
      7     -11.3292      1.00000
      8     -11.1126      1.00000
      9     -10.8618      1.00000
     10     -10.6875      1.00000
     11     -10.6845      1.00000
     12     -10.5448      1.00000
     13     -10.2587      1.00000
     14     -10.1034      1.00000
     15      -9.9576      1.00000
     16      -9.8269      1.00000
     17      -9.7911      1.00000
     18      -9.7723      1.00000
     19      -9.7471      1.00000
     20      -9.6820      1.00000
     21      -9.6438      1.00000
     22      -9.6299      1.00000
     23      -9.4636      1.00000
     24      -9.1845      1.00000
     25      -7.4829      1.00000
     26      -7.4213      1.00000
     27      -7.4102      1.00000
     28      -7.3794      1.00000
     29      -7.3684      1.00000
     30      -7.3622      1.00000
     31      -7.3537      1.00000
     32      -7.3098      1.00000
     33      -7.2887      1.00000
     34      -7.2522      1.00000
     35      -7.1112      1.00000
     36      -7.0555      1.00000
     37      -6.9903      1.00000
     38      -6.9383      1.00000
     39      -6.8800      1.00000
     40      -6.8160      1.00000
     41      -6.6239      1.00000
     42      -6.5583      1.00000
     43       1.8223      1.00000
     44       1.8355      1.00000
     45       1.8793      1.00000
     46       1.8841      1.00000
     47       2.1812      1.00000
     48       2.1818      1.00000
     49       2.4434      1.00000
     50       2.5759      1.00000
     51       2.6396      1.00000
     52       2.7598      1.00000
     53       2.7905      1.00000
     54       2.8542      1.00000
     55       2.9583      1.00000
     56       2.9924      1.00000
     57       3.0236      1.00000
     58       3.0260      1.00000
     59       3.1072      1.00000
     60       3.1458      1.00000
[...]
    132      11.0681      0.00000
    133      11.0833      0.00000
    134      11.0854      0.00000
    135      11.0944      0.00000
    136      11.1015      0.00000
    137      11.1132      0.00000
    138      11.1271      0.00000
    139      11.1345      0.00000
    140      11.1510      0.00000
    141      11.1767      0.00000
    142      11.1949      0.00000
    143      11.2229      0.00000
    144      11.2246      0.00000
    145      11.2451      0.00000
    146      11.3261      0.00000

 soft charge-density along one line, spin component           1
         0         1         2         3         4         5         6         7         8         9
 total charge-density along one line

 soft charge-density along one line, spin component           2
         0         1         2         3         4         5         6         7         8         9
 total charge-density along one line

------------------------ aborting loop because EDIFF is reached ----------------------------------------

 total charge

# of ion       s       p       d       f       tot
    1        2.000   5.698   0.493   0.190   8.381
    2        2.000   5.699   0.494   0.192   8.386
    3        2.000   5.701   0.491   0.193   8.384
    4        2.000   5.699   0.494   0.192   8.386
    5        2.000   5.698   0.493   0.190   8.381
    6        2.000   5.697   0.485   0.187   8.369
    7        0.327   0.509   4.868   0.000   5.703
    8        0.350   0.552   4.866   0.000   5.768
    9        0.350   0.552   4.866   0.000   5.768
   10        0.398   0.574   8.320   0.000   9.291
   11        0.421   0.625   8.326   0.000   9.372
   12        0.398   0.574   8.320   0.000   9.291
   13        1.564   3.454   0.000   0.000   5.018
   14        1.561   3.456   0.000   0.000   5.017
   15        1.561   3.471   0.000   0.000   5.032
   16        1.561   3.456   0.000   0.000   5.017
   17        1.564   3.454   0.000   0.000   5.018
   18        1.557   3.450   0.000   0.000   5.007
   19        1.564   3.460   0.000   0.000   5.025
   20        1.564   3.460   0.000   0.000   5.025
   21        1.563   3.456   0.000   0.000   5.018
   22        1.559   3.451   0.000   0.000   5.010
   23        1.559   3.451   0.000   0.000   5.010
   24        1.563   3.456   0.000   0.000   5.018
   25        1.562   3.454   0.000   0.000   5.017
   26        1.563   3.458   0.000   0.000   5.021
   27        1.563   3.457   0.000   0.000   5.021
   28        1.562   3.454   0.000   0.000   5.017
   29        1.559   3.451   0.000   0.000   5.009
   30        1.559   3.451   0.000   0.000   5.009
tot         42.352  99.777  42.515   1.144 185.788

 magnetization (x)

[...]

  FORCE on cell =-STRESS in cart. coord.  units (eV):
  Direction    XX          YY          ZZ          XY          YZ          ZX
  Alpha Z   983.52265   983.52265   983.52265
  Ewald   -5115.03674 -5115.03674 -5242.03180    19.65189    24.65992   -24.65992
  Hartree  1207.95559  1207.95559  1096.20181    20.60046    26.18564   -26.18564
  E(xc)   -1046.30698 -1046.30698 -1046.37330    -0.01175    -0.02394     0.02394
  Local    -783.09095  -783.09095  -544.59580   -40.69118   -50.54886    50.54886
  n-local   415.84519   416.01080   416.68354     0.08342     0.47628    -0.06493
  augment   489.12068   489.12068   489.40193     0.03817     0.03472    -0.03284
  Kinetic  3848.07947  3848.19653  3847.33527     0.36795    -1.17023     0.03218
  Fock        0.00000     0.00000     0.00000     0.00000     0.00000     0.00000
  Total       0.23025     0.23025     0.14429     0.03843    -0.00112     0.00112
  in kB       1.05064     1.05064     0.65839     0.17534    -0.00511     0.00511

 VOLUME and BASIS-vectors are now :
  energy-cutoff  :      520.00
  volume of cell :      351.12
      direct lattice vectors                 reciprocal lattice vectors
     3.880731941  3.880731941  0.000000000     0.128841674  0.128841674  0.000000000
    -3.878883363  3.878883363  3.882750163    -0.085935483  0.085935483  0.085849605
     3.883702900 -3.883702900  7.775175738     0.042914273 -0.042914273  0.085743069

  length of vectors
     5.488183742  6.720656301  9.519435602     0.182209643  0.148795058  0.105048291

 FORCES acting on ions
    electron-ion (+dipol)            ewald-force                    non-local-force                 convergence-correction
   0.421E+02 -.421E+02 0.111E+03   -.416E+02 0.416E+02 -.110E+03   -.410E+00 0.410E+00 -.999E+00   -.318E-01 0.318E-01 -.599E-01
   0.398E+02 -.398E+02 0.116E+03   -.395E+02 0.395E+02 -.115E+03   -.306E+00 0.306E+00 -.973E+00   -.296E-01 0.296E-01 -.711E-01
   -.156E-11 0.153E-11 0.313E-12   0.174E-12 -.261E-12 0.464E-12   0.000E+00 0.000E+00 0.000E+00   -.290E-12 0.334E-12 -.485E-12
   -.398E+02 0.398E+02 -.116E+03   0.395E+02 -.395E+02 0.115E+03   0.306E+00 -.306E+00 0.973E+00   0.296E-01 -.296E-01 0.711E-01
   -.421E+02 0.421E+02 -.111E+03   0.416E+02 -.416E+02 0.110E+03   0.410E+00 -.410E+00 0.999E+00   0.318E-01 -.318E-01 0.599E-01
   0.125E-11 -.130E-11 0.125E-11   -.163E-12 0.320E-12 -.384E-12   0.000E+00 0.000E+00 0.000E+00   0.280E-12 -.249E-12 0.524E-12
   -.340E-11 0.367E-11 -.252E-11   0.155E-12 -.199E-12 0.295E-12   0.000E+00 0.000E+00 0.000E+00   -.153E-12 0.176E-12 -.391E-12
   -.285E+02 0.285E+02 -.355E+02   0.282E+02 -.282E+02 0.350E+02   0.284E+00 -.284E+00 0.440E+00   0.260E-01 -.260E-01 0.363E-01
   0.285E+02 -.285E+02 0.355E+02   -.282E+02 0.282E+02 -.350E+02   -.284E+00 0.284E+00 -.440E+00   -.260E-01 0.260E-01 -.363E-01
   0.355E+02 -.355E+02 0.467E+02   -.350E+02 0.350E+02 -.454E+02   -.481E+00 0.481E+00 -.128E+01   -.365E-01 0.365E-01 -.650E-01
   0.398E-13 -.135E-13 0.111E-11   -.142E-12 0.220E-12 -.410E-12   0.000E+00 0.000E+00 0.000E+00   0.231E-12 -.264E-12 0.547E-12
   -.355E+02 0.355E+02 -.467E+02   0.350E+02 -.350E+02 0.454E+02   0.481E+00 -.481E+00 0.128E+01   0.365E-01 -.365E-01 0.650E-01
   -.117E+02 0.117E+02 -.655E+02   0.115E+02 -.115E+02 0.593E+02   0.117E+00 -.117E+00 0.620E+01   0.173E-01 -.173E-01 0.141E-01
   -.821E+01 0.821E+01 -.740E+02   0.786E+01 -.786E+01 0.694E+02   0.342E+00 -.342E+00 0.466E+01   0.155E-01 -.155E-01 0.295E-01
   -.832E-12 0.844E-12 0.416E-11   0.879E-13 -.151E-12 0.261E-12   0.136E-19 0.136E-19 0.000E+00   -.217E-12 0.187E-12 -.163E-12
   0.821E+01 -.821E+01 0.740E+02   -.786E+01 0.786E+01 -.694E+02   -.342E+00 0.342E+00 -.466E+01   -.155E-01 0.155E-01 -.295E-01
   0.117E+02 -.117E+02 0.655E+02   -.115E+02 0.115E+02 -.593E+02   -.117E+00 0.117E+00 -.620E+01   -.173E-01 0.173E-01 -.141E-01
   -.435E-11 0.471E-11 -.236E-11   -.128E-12 0.119E-12 -.249E-12   0.136E-19 0.136E-19 0.000E+00   0.153E-12 -.194E-12 0.360E-12
   -.139E+02 0.170E+02 -.102E+02   0.140E+02 -.181E+02 0.100E+02   -.406E-01 0.117E+01 0.122E+00   0.118E-01 -.113E-01 0.200E-01
   0.139E+02 -.170E+02 0.102E+02   -.140E+02 0.181E+02 -.100E+02   0.406E-01 -.117E+01 -.122E+00   -.118E-01 0.113E-01 -.200E-01
   0.249E+02 -.524E+02 0.240E+02   -.253E+02 0.476E+02 -.235E+02   0.507E+00 0.475E+01 -.479E+00   -.209E-01 0.725E-02 -.383E-01
   0.123E+02 -.210E+02 0.140E+02   -.125E+02 0.226E+02 -.137E+02   0.140E+00 -.163E+01 -.249E+00   -.905E-02 -.834E-02 -.196E-01
   -.123E+02 0.210E+02 -.140E+02   0.125E+02 -.226E+02 0.137E+02   -.140E+00 0.163E+01 0.249E+00   0.905E-02 0.834E-02 0.196E-01
   -.249E+02 0.524E+02 -.240E+02   0.253E+02 -.476E+02 0.235E+02   -.507E+00 -.475E+01 0.479E+00   0.209E-01 -.725E-02 0.383E-01
   -.524E+02 0.249E+02 -.240E+02   0.476E+02 -.253E+02 0.235E+02   0.475E+01 0.507E+00 0.479E+00   0.725E-02 -.209E-01 0.383E-01
   -.170E+02 0.139E+02 -.102E+02   0.181E+02 -.140E+02 0.100E+02   -.117E+01 0.406E-01 0.122E+00   0.113E-01 -.118E-01 0.200E-01
   0.170E+02 -.139E+02 0.102E+02   -.181E+02 0.140E+02 -.100E+02   0.117E+01 -.406E-01 -.122E+00   -.113E-01 0.118E-01 -.200E-01
   0.524E+02 -.249E+02 0.240E+02   -.476E+02 0.253E+02 -.235E+02   -.475E+01 -.507E+00 -.479E+00   -.725E-02 0.209E-01 -.383E-01
   0.210E+02 -.123E+02 0.140E+02   -.226E+02 0.125E+02 -.137E+02   0.163E+01 -.140E+00 -.249E+00   0.834E-02 0.905E-02 -.196E-01
   -.210E+02 0.123E+02 -.140E+02   0.226E+02 -.125E+02 0.137E+02   -.163E+01 0.140E+00 0.249E+00   -.834E-02 -.905E-02 0.196E-01
   0.718E-11 0.223E-11 0.456E-11   0.000E+00 0.171E-12 0.155E-12   0.000E+00 0.167E-14 -.777E-15   -.143E-13 -.158E-12 0.263E-12

 POSITION                                       TOTAL-FORCE (eV/Angst)
      3.93492     -0.05419      7.87184         0.064687     -0.064687     -0.064050
      0.04391     -0.04391      7.86661         0.021652     -0.021652     -0.022571
      3.88222     -0.00149      3.88759         0.000000      0.000000     -0.000000
     -0.03909      0.03909      3.79132        -0.021652      0.021652      0.022571
     -0.04937      3.93010      3.78609        -0.064687      0.064687      0.064050
      0.00000      0.00000      0.00000         0.000000      0.000000     -0.000000
      1.94278      1.93796      5.82896         0.000000      0.000000     -0.000000
     -1.93721      1.93721      5.82887         0.013978     -0.013978     -0.006698
      1.94203     -1.94203      5.82906        -0.013978      0.013978      0.006698
      1.93854      1.94220      9.70539        -0.024376      0.024376     -0.018974
     -1.93944      1.93944      1.94138         0.000000      0.000000     -0.000000
      1.94701      1.93372      1.95254         0.024376     -0.024376      0.018974
     -1.93896      1.93896      3.94618        -0.036444      0.036444     -0.007198
      1.95382      1.92691      3.93034        -0.001540      0.001540      0.021414
      1.94185     -1.94185      3.88759         0.000000      0.000000     -0.000000
      1.93173      1.94900      7.72758         0.001540     -0.001540     -0.021414
      1.94377     -1.94377      7.71174         0.036444     -0.036444      0.007198
      1.94037      1.94037      0.00000         0.000000      0.000000     -0.000000
      1.93873      3.89391      5.83890        -0.013708     -0.003049      0.001277
      1.94682     -0.01800      5.81902         0.013708      0.003049     -0.001277
      5.82395      0.03604      5.80873         0.036423     -0.006311     -0.014399
      1.94553     -0.02408      9.69979         0.014569     -0.005352     -0.006844
      1.94002      3.90000      1.95814        -0.014569      0.005352      0.006844
     -1.93839      3.83987      5.84920        -0.036423      0.006311      0.014399
      0.04086      5.81913      5.84920        -0.006311      0.036423      0.014399
     -0.01318      1.94200      5.83890         0.003049      0.013708      0.001277
      3.89873      1.93391      5.81902        -0.003049     -0.013708     -0.001277
      3.84469     -1.94321      5.80873         0.006311     -0.036423     -0.014399
      3.90482      1.93520      9.69979         0.005352     -0.014569     -0.006844
     -0.01926      1.94071      1.95814        -0.005352      0.014569      0.006844
    total drift:                                0.000000      0.000000      0.000000

  FREE ENERGIE OF THE ION-ELECTRON SYSTEM (eV)
  free  energy   TOTEN  =      -220.40024743 eV

  energy  without entropy=     -220.40024743  energy(sigma->0) =     -220.40024743

 total charge

[...]

 magnetization (x)

# of ion       s       p       d       f       tot
    1        0.000   0.000   0.005   0.003   0.009
    2        0.000   0.001   0.009   0.004   0.014
    3        0.001   0.001   0.011   0.005   0.018
    4        0.000   0.001   0.009   0.004   0.014
    5        0.000   0.000   0.005   0.003   0.009
    6        0.000   0.000   0.005   0.002   0.007
    7        0.020   0.025   3.526   0.000   3.570
    8        0.023   0.027   3.321   0.000   3.371
    9        0.023   0.027   3.321   0.000   3.371
   10        0.013   0.003   1.636   0.000   1.652
   11        0.018   0.012   1.495   0.000   1.524
   12        0.013   0.003   1.636   0.000   1.652
   13        0.006  -0.035   0.000   0.000  -0.030
   14        0.004  -0.019   0.000   0.000  -0.015
   15        0.002  -0.012   0.000   0.000  -0.011
   16        0.004  -0.019   0.000   0.000  -0.015
   17        0.006  -0.035   0.000   0.000  -0.030
   18        0.007   0.004   0.000   0.000   0.011
   19        0.004  -0.030   0.000   0.000  -0.026
   20        0.004  -0.030   0.000   0.000  -0.026
   21        0.005  -0.028   0.000   0.000  -0.023
   22        0.006  -0.032   0.000   0.000  -0.026
   23        0.006  -0.032   0.000   0.000  -0.026
   24        0.005  -0.028   0.000   0.000  -0.023
   25        0.005  -0.030   0.000   0.000  -0.025
   26        0.003  -0.035   0.000   0.000  -0.031
   27        0.003  -0.035   0.000   0.000  -0.031
   28        0.005  -0.030   0.000   0.000  -0.025
   29        0.006  -0.033   0.000   0.000  -0.026
   30        0.006  -0.033   0.000   0.000  -0.026
tot          0.200  -0.393  14.979   0.021  14.807

 BZINTS: Fermi energy:  7.736179;225.000000 electrons
         Band energy:-329.696418;  BLOECHL correction: -0.000899