 vasp.5.4.4.18Apr17-6-g9f103f2a35 (build Oct 03 2018 13:58:34) complex

 executed on             LinuxIFC date 2019.06.04  01:45:56

 INCAR:
 POTCAR:    PAW_PBE La 06Sep2000
 POTCAR:    PAW_PBE Mn 06Sep2000
 POTCAR:    PAW_PBE Ni 02Aug2007
 POTCAR:    PAW_PBE O 08Apr2002

 POTCAR:    PAW_PBE La 06Sep2000
   VRHFIN =La : [core=Kr4d]

   TITEL  = PAW_PBE La 06Sep2000
   POMASS =  138.900; ZVAL   =   11.000    mass and valenz
   ENMAX  =  219.292; ENMIN  =  164.469 eV

 POTCAR:    PAW_PBE Mn 06Sep2000
   VRHFIN =Mn: d6 s1

   TITEL  = PAW_PBE Mn 06Sep2000
   POMASS =   54.938; ZVAL   =    7.000    mass and valenz
   ENMAX  =  269.864; ENMIN  =  202.398 eV

 POTCAR:    PAW_PBE Ni 02Aug2007
   VRHFIN =Ni:

   TITEL  = PAW_PBE Ni 02Aug2007
   POMASS =   58.690; ZVAL   =   10.000    mass and valenz
   ENMAX  =  269.532; ENMIN  =  202.149 eV

 POTCAR:    PAW_PBE O 08Apr2002
   VRHFIN =O: s2p4

   TITEL  = PAW_PBE O 08Apr2002
   POMASS =   16.000; ZVAL   =    6.000    mass and valenz
   ENMAX  =  400.000; ENMIN  =  300.000 eV

 Optimization of the real space projectors (new method)

 maximal supplied QI-value         = 13.42
 optimisation between [QCUT,QGAM] = [ 11.67, 23.35] = [ 38.16,152.62] Ry
 Optimized for a Real-space Cutoff    1.63 Angstroem

   l    n(q)    QCUT    max X(q) W(low)/X(q) W(high)/X(q)  e(spline)
   0     11    11.673    13.882    0.27E-04    0.79E-05    0.11E-06
   0     11    11.673    12.184    0.39E-04    0.13E-04    0.19E-06
   1     11    11.673     4.523    0.73E-05    0.76E-05    0.12E-06
   1     11    11.673     4.424    0.87E-05    0.13E-04    0.19E-06
   2     10    11.673    52.481    0.65E-04    0.36E-04    0.18E-06
   2     10    11.673    38.501    0.61E-04    0.33E-04    0.17E-06
   3     10    11.673    65.631    0.17E-03    0.14E-03    0.37E-06
   3     10    11.673    56.854    0.17E-03    0.14E-03    0.37E-06
 Optimization of the real space projectors (new method)

[...]

   l    n(q)    QCUT    max X(q) W(low)/X(q) W(high)/X(q)  e(spline)
   2      9    11.539    60.317    0.19E-03    0.47E-04    0.16E-06
   2      9    11.539    55.921    0.19E-03    0.48E-04    0.16E-06
   0     10    11.539    51.690    0.80E-04    0.50E-04    0.24E-06
   0     10    11.539    30.015    0.73E-04    0.45E-04    0.22E-06
   1     10    11.539    18.849    0.87E-04    0.16E-03    0.71E-07
   1     10    11.539    14.624    0.73E-04    0.13E-03    0.64E-07
 Optimization of the real space projectors (new method)

 maximal supplied QI-value         = 24.76
 optimisation between [QCUT,QGAM] = [ 11.64, 23.27] = [ 37.91,151.63] Ry
 Optimized for a Real-space Cutoff    1.14 Angstroem

   l    n(q)    QCUT    max X(q) W(low)/X(q) W(high)/X(q)  e(spline)
   0      8    11.635    20.381    0.10E-03    0.33E-03    0.24E-06
   0      8    11.635    15.268    0.11E-03    0.35E-03    0.26E-06
   1      7    11.635     5.964    0.24E-03    0.31E-03    0.30E-06
   1      7    11.635     5.382    0.22E-03    0.25E-03    0.26E-06
  PAW_PBE La 06Sep2000                  :
  PAW_PBE Mn 06Sep2000                  :
  PAW_PBE Ni 02Aug2007                  :
  PAW_PBE O 08Apr2002                   :

 POSCAR: SCEL5_1_5_1_4_0_0/2
  positions in direct lattice
  velocities in cartesian coordinates
 exchange correlation table for  LEXCH =        8
   RHO(1)=    0.500       N(1)  =     2000
   RHO(2)=  100.500       N(2)  =     4000

 ion  position               nearest neighbor table
   1  0.000  0.601  0.202-  24 2.73  14 2.75  14 2.75  19 2.75  19 2.75  25 2.75  25 2.75  21 2.77
                            20 2.78  20 2.78  15 2.78  15 2.78   8 3.36   8 3.36  10 3.37  10 3.37
   2  0.000  0.200  0.400-  24 2.75  24 2.75  19 2.76  19 2.76  13 2.76  13 2.76  18 2.76  14 2.76
                            18 2.76  14 2.76  25 2.77  23 2.77  10 3.37  10 3.37   9 3.37   9 3.37
   3  0.000  0.799  0.598-  24 2.73  13 2.75  13 2.75  18 2.75  18 2.75  23 2.75  23 2.75  22 2.77
                            17 2.78  17 2.78  12 2.78  12 2.78   8 3.36   8 3.36   9 3.37   9 3.37
   4  0.000  0.396  0.792-  23 2.61  12 2.69  12 2.69  17 2.69  17 2.69  22 2.75  22 2.75  16 2.82
                            16 2.82  11 2.82  11 2.82   9 3.29   9 3.29   6 3.37   6 3.37   6 3.37
   5  0.000  0.004  0.008-  25 2.61  15 2.69  15 2.69  20 2.69  20 2.69  21 2.75  21 2.75  11 2.82
                            11 2.82  16 2.82  16 2.82  10 3.29  10 3.29   7 3.37   7 3.37   7 3.37
   6  0.500  0.900  0.801-  12 1.90  17 1.90  11 1.94  16 1.94  22 1.96  22 1.96   4 3.37   4 3.37
                             4 3.37   4 3.37   3 3.40   3 3.40
   7  0.500  0.500  0.999-  20 1.90  15 1.90  16 1.94  11 1.94  21 1.96  21 1.96   5 3.37   5 3.37
                             5 3.37   5 3.37   1 3.40   1 3.40
   8  0.500  0.700  0.400-  14 1.90  18 1.90  13 1.90  19 1.90  24 1.96  24 1.96   1 3.36   1 3.36
                             3 3.36   3 3.36   2 3.37   2 3.37   2 3.37   2 3.37
   9  0.500  0.300  0.599-  23 1.96  23 1.96  18 1.98  13 1.98  12 2.00  17 2.00   4 3.29   4 3.29
                             2 3.37   2 3.37   3 3.37   3 3.37   3 3.37   3 3.37
  10  0.500  0.100  0.201-  25 1.96  25 1.96  14 1.98  19 1.98  15 2.00  20 2.00   5 3.29   5 3.29
                             2 3.37   2 3.37   1 3.37   1 3.37   1 3.37   1 3.37
  11  0.500  0.700  0.900-   6 1.94   7 1.94   5 2.82   5 2.82   4 2.82   4 2.82
  12  0.500  0.097  0.703-   6 1.90   9 2.00   4 2.69   4 2.69   3 2.78   3 2.78
  13  0.500  0.505  0.498-   8 1.90   9 1.98   3 2.75   3 2.75   2 2.76   2 2.76
  14  0.500  0.895  0.302-   8 1.90  10 1.98   1 2.75   1 2.75   2 2.76   2 2.76
  15  0.500  0.303  0.097-   7 1.90  10 2.00   5 2.69   5 2.69   1 2.78   1 2.78
  16  0.500  0.200  0.900-   7 1.94   6 1.94   4 2.82   4 2.82   5 2.82   5 2.82
  17  0.500  0.606  0.703-   6 1.90   9 2.00   4 2.69   4 2.69   3 2.78   3 2.78
  18  0.500  0.992  0.498-   8 1.90   9 1.98   3 2.75   3 2.75   2 2.76   2 2.76
  19  0.500  0.408  0.302-   8 1.90  10 1.98   1 2.75   1 2.75   2 2.76   2 2.76
  20  0.500  0.794  0.097-   7 1.90  10 2.00   5 2.69   5 2.69   1 2.78   1 2.78
  21  0.000  0.500  1.000-   7 1.96   7 1.96   5 2.75   5 2.75   1 2.77
  22  0.000  0.900  0.800-   6 1.96   6 1.96   4 2.75   4 2.75   3 2.77
  23  0.000  0.301  0.602-   9 1.96   9 1.96   4 2.61   3 2.75   3 2.75   2 2.77
  24  0.000  0.700  0.400-   8 1.96   8 1.96   1 2.73   3 2.73   2 2.75   2 2.75
  25  0.000  0.099  0.198-  10 1.96  10 1.96   5 2.61   1 2.75   1 2.75   2 2.77

  LATTYP: Found a base centered orthorhombic cell.
 ALAT       =     5.4929281206
 B/A-ratio  =     5.0035993854
 C/A-ratio  =     0.7127078824

  Lattice vectors:

 A1 = (   0.0000000000,  11.6592503303,   7.7751636077)
 A2 = (   0.0000000000,  -7.7751636077, -11.6592503303)
 A3 = (  -3.9148531687,   0.0000000000,   0.0000000000)

Analysis of symmetry for initial positions (statically):
 Subroutine PRICEL returns:
 Original cell was already a primitive cell.

 Routine SETGRP: Setting up the symmetry group for a
 base centered orthorhombic supercell.

 Subroutine GETGRP returns: Found  8 space group operations
 (whereof  4 operations were pure point group operations)
 out of a pool of  8 trial point group operations.

The static configuration has the point symmetry C_2v.
 The point group associated with its full space group is D_2h.

Analysis of symmetry for dynamics (positions and initial velocities):
 Subroutine PRICEL returns:
 Original cell was already a primitive cell.

[...]

The dynamic configuration has the point symmetry C_2v.
 The point group associated with its full space group is D_2h.

Analysis of structural, dynamic, and magnetic symmetry:
 Subroutine PRICEL returns:
 Original cell was already a primitive cell.

 Routine SETGRP: Setting up the symmetry group for a
 base centered orthorhombic supercell.

 Subroutine GETGRP returns: Found  8 space group operations
 (whereof  4 operations were pure point group operations)
 out of a pool of  8 trial point group operations.

The magnetic configuration has the point symmetry C_2v.
 The point group associated with its full space group is D_2h.

 Subroutine INISYM returns: Found  8 space group operations
 (whereof  4 operations are pure point group operations),
 and found     1 'primitive' translations

 KPOINTS: Automatic mesh

Automatic generation of k-mesh.
 generate k-points for:    5    4    1
Space group operators:
 irot       det(A)        alpha          n_x          n_y          n_z        tau_x        tau_y        tau_z
    1     1.000000     0.000001     1.000000     0.000000     0.000000     0.000000     0.000000     0.000000
    2    -1.000000   180.000000     1.000000     0.000000     0.000000     0.000000     0.000000     0.000000
    3     1.000000   179.999999     0.000000     0.707107     0.707107     0.000000     0.000000     0.000000
    4    -1.000000   180.000000     0.000000    -0.707107     0.707107     0.000000     0.000000     0.000000
    5    -1.000000     0.000001     1.000000     0.000000     0.000000     0.000000     0.400000    -0.200000
    6     1.000000   180.000000     1.000000     0.000000     0.000000     0.000000     0.400000    -0.200000
    7    -1.000000   179.999999     0.000000     0.707107     0.707107     0.000000     0.400000    -0.200000
    8     1.000000   180.000000     0.000000    -0.707107     0.707107     0.000000     0.400000    -0.200000

 Subroutine IBZKPT returns following result:

 Found      9 irreducible k-points:

 Following reciprocal coordinates:
            Coordinates               Weight
  0.000000  0.000000  0.000000      1.000000
  0.200000  0.000000  0.000000      2.000000
  0.400000  0.000000  0.000000      2.000000
  0.000000  0.250000 -0.000000      2.000000
  0.200000  0.250000 -0.000000      4.000000
  0.400000  0.250000 -0.000000      4.000000
  0.000000  0.500000 -0.000000      1.000000
  0.200000  0.500000 -0.000000      2.000000
  0.400000  0.500000 -0.000000      2.000000

 Following cartesian coordinates:
            Coordinates               Weight
  0.000000  0.000000  0.000000      1.000000
  0.051087  0.000000  0.000000      2.000000
  0.102175  0.000000  0.000000      2.000000
  0.000000  0.038614 -0.025751      2.000000
  0.051087  0.038614 -0.025751      4.000000
  0.102175  0.038614 -0.025751      4.000000
  0.000000  0.077229 -0.051501      1.000000
  0.051087  0.077229 -0.051501      2.000000
  0.102175  0.077229 -0.051501      2.000000

 TETIRR: Found     54 inequivalent tetrahedra from      120

 SYSTEM =  final
 POSCAR =  SCEL5_1_5_1_4_0_0/2

 Startparameter for this run:
   NWRITE =      2    write-flag & timer
   PREC   = accura    normal or accurate (medium, high low for compatibility)
   ISTART =      0    job   : 0-new  1-cont  2-samecut
   ICHARG =      1    charge: 1-file 2-atom 10-const
   ISPIN  =      2    spin polarized calculation?
   LNONCOLLINEAR =      F non collinear calculations
   LSORBIT =      F    spin-orbit coupling
   INIWAV =      1    electr: 0-lowe 1-rand  2-diag
   LASPH  =      F    aspherical Exc in radial PAW
   METAGGA=      F    non-selfconsistent MetaGGA calc.

 Electronic Relaxation 1
[...]
       1 -95.6567       2 -95.6430       3 -95.6566       4 -95.6410       5 -95.6411
       6 -43.0464       7 -43.0464       8 -42.9899       9 -83.5830      10 -83.5830
      11 -67.1981      12 -67.1034      13 -66.8992      14 -66.8992      15 -67.1034
      16 -67.1981      17 -67.1034      18 -66.8992      19 -66.8992      20 -67.1034
      21 -67.2736      22 -67.2736      23 -66.4618      24 -67.3245      25 -66.4618

 E-fermi :   7.8767     XC(G=0): -11.6705     alpha+bet :-16.3405

[...]

 k-point     1 :       0.0000    0.0000    0.0000
  band No.  band energies     occupation
      1     -24.1517      1.00000
      2     -24.1205      1.00000
      3     -24.0976      1.00000
      4     -24.0512      1.00000
      5     -24.0340      1.00000
      6     -11.2183      1.00000
      7     -11.0377      1.00000
      8     -11.0160      1.00000
      9     -10.6980      1.00000
     10     -10.5916      1.00000
     11     -10.4325      1.00000
     12     -10.3408      1.00000
     13     -10.0556      1.00000
     14     -10.0086      1.00000
     15      -9.9923      1.00000
     16      -9.9882      1.00000
     17      -9.8838      1.00000
     18      -9.7336      1.00000
     19      -9.5269      1.00000
     20      -9.5097      1.00000
     21      -7.6763      1.00000
     22      -7.6415      1.00000
     23      -7.6381      1.00000
     24      -7.6186      1.00000
     25      -7.5817      1.00000
     26      -7.4861      1.00000
     27      -7.4547      1.00000
     28      -7.4475      1.00000
     29      -7.4391      1.00000
     30      -7.2669      1.00000
     31      -7.2466      1.00000
     32      -7.2382      1.00000
     33      -7.2086      1.00000
     34      -7.1281      1.00000
     35      -7.1167      1.00000
     36       0.5327      1.00000
     37       0.6548      1.00000
     38       0.6716      1.00000
     39       0.7329      1.00000
     40       0.9515      1.00000
     41       1.1036      1.00000
     42       1.7674      1.00000
     43       1.8746      1.00000
     44       1.8755      1.00000
     45       1.8978      1.00000
     46       1.9015      1.00000
     47       1.9779      1.00000
     48       1.9887      1.00000
     49       2.3048      1.00000
     50       2.3542      1.00000
     51       2.3947      1.00000
     52       2.4110      1.00000
     53       2.4558      1.00000
     54       2.5116      1.00000
     55       2.5255      1.00000
     56       2.7882      1.00000
     57       2.8417      1.00000
     58       2.8526      1.00000
     59       3.1368      1.00000
     60       3.2003      1.00000
[...]
    106      10.3636      0.00000
    107      10.5453      0.00000
    108      10.5641      0.00000
    109      10.5752      0.00000
    110      10.5849      0.00000
    111      10.6344      0.00000
    112      10.7418      0.00000
    113      10.7721      0.00000
    114      10.8083      0.00000
    115      10.8558      0.00000
    116      10.8855      0.00000
    117      10.9049      0.00000
    118      10.9226      0.00000
    119      10.9355      0.00000
    120      10.9518      0.00000

[...]

 spin component 2

[...]

 k-point     9 :       0.4000    0.5000   -0.0000
  band No.  band energies     occupation
      1     -24.0421      1.00000
      2     -24.0421      1.00000
      3     -24.0399      1.00000
      4     -24.0388      1.00000
      5     -24.0196      1.00000
      6     -10.8460      1.00000
      7     -10.8296      1.00000
      8     -10.8202      1.00000
      9     -10.6418      1.00000
     10     -10.6240      1.00000
     11     -10.3614      1.00000
     12     -10.3562      1.00000
     13     -10.3503      1.00000
     14     -10.1799      1.00000
     15     -10.0283      1.00000
     16      -9.9808      1.00000
     17      -9.8121      1.00000
     18      -9.7730      1.00000
     19      -9.6632      1.00000
     20      -9.6338      1.00000
     21      -7.7582      1.00000
     22      -7.7494      1.00000
     23      -7.5602      1.00000
     24      -7.5298      1.00000
     25      -7.4442      1.00000
     26      -7.4142      1.00000
     27      -7.3847      1.00000
     28      -7.2888      1.00000
     29      -7.2597      1.00000
     30      -7.2173      1.00000
     31      -7.1961      1.00000
     32      -7.1943      1.00000
     33      -7.1744      1.00000
     34      -7.0259      1.00000
     35      -6.9586      1.00000
     36       1.6812      1.00000
     37       1.7235      1.00000
     38       1.7372      1.00000
     39       1.8000      1.00000
     40       1.8847      1.00000
     41       2.0047      1.00000
     42       2.1691      1.00000
     43       2.2376      1.00000
     44       2.4922      1.00000
     45       2.7814      1.00000
     46       2.8763      1.00000
     47       2.9221      1.00000
     48       3.0161      1.00000
     49       3.0713      1.00000
     50       3.0767      1.00000
     51       3.1926      1.00000
     52       3.2257      1.00000
     53       3.2834      1.00000
     54       3.2909      1.00000
     55       3.4960      1.00000
     56       3.6025      1.00000
     57       3.6188      1.00000
     58       3.6469      1.00000
     59       3.7206      1.00000
     60       3.8727      1.00000
[...]
    106      10.8542      0.00000
    107      10.8610      0.00000
    108      10.8662      0.00000
    109      10.8744      0.00000
    110      10.8773      0.00000
    111      10.8818      0.00000
    112      10.8856      0.00000
    113      10.8993      0.00000
    114      10.9057      0.00000
    115      10.9168      0.00000
    116      10.9311      0.00000
    117      10.9569      0.00000
    118      10.9750      0.00000
    119      11.0492      0.00000
    120      11.1683      0.00000

 soft charge-density along one line, spin component           1
         0         1         2         3         4         5         6         7         8         9
 total charge-density along one line

 soft charge-density along one line, spin component           2
         0         1         2         3         4         5         6         7         8         9
 total charge-density along one line

------------------------ aborting loop because EDIFF is reached ----------------------------------------

 total charge

# of ion       s       p       d       f       tot
    1        1.999   5.697   0.481   0.187   8.364
    2        1.999   5.697   0.477   0.186   8.359
    3        1.999   5.697   0.481   0.187   8.364
    4        2.000   5.698   0.494   0.191   8.383
    5        2.001   5.698   0.494   0.191   8.384
    6        0.337   0.519   4.867   0.000   5.723
    7        0.337   0.519   4.867   0.000   5.723
    8        0.352   0.556   4.872   0.000   5.780
    9        0.390   0.554   8.318   0.000   9.262
   10        0.390   0.554   8.318   0.000   9.262
   11        1.561   3.466   0.000   0.000   5.027
   12        1.563   3.453   0.000   0.000   5.015
   13        1.561   3.460   0.000   0.000   5.020
   14        1.561   3.460   0.000   0.000   5.020
   15        1.563   3.453   0.000   0.000   5.015
   16        1.561   3.465   0.000   0.000   5.026
   17        1.563   3.452   0.000   0.000   5.015
   18        1.561   3.460   0.000   0.000   5.020
   19        1.561   3.460   0.000   0.000   5.020
   20        1.563   3.452   0.000   0.000   5.015
   21        1.566   3.451   0.000   0.000   5.017
   22        1.566   3.451   0.000   0.000   5.017
   23        1.555   3.452   0.000   0.000   5.007
   24        1.567   3.455   0.000   0.000   5.022
   25        1.555   3.452   0.000   0.000   5.007
tot         35.226  83.032  33.668   0.942 152.868

 magnetization (x)

[...]

  FORCE on cell =-STRESS in cart. coord.  units (eV):
  Direction    XX          YY          ZZ          XY          YZ          ZX
  Alpha Z   813.79474   813.79474   813.79474
  Ewald   -4211.22985 -4235.43711 -4235.43711    -0.00000   -18.36112    -0.00000
  Hartree   964.21906   914.53057   914.53057    -0.00000   -19.09092    -0.00000
  E(xc)    -861.39764  -861.55293  -861.55293    -0.00000     0.02172    -0.00000
  Local    -585.37145  -504.42766  -504.42730     0.00000    36.86887    -0.00000
  n-local   339.60701   340.28199   340.23511    -0.40346    -0.44385     0.40187
  augment   337.33532   334.17667   334.17652    -0.00000     0.02972    -0.00000
  Kinetic  3202.48463  3197.66654  3197.93054     0.67059     1.01951    -0.71060
  Fock        0.00000     0.00000     0.00000     0.00000     0.00000     0.00000
  Total      -0.55819    -0.85852    -0.85852     0.00000     0.04758     0.00000
  in kB      -3.02631    -4.65462    -4.65462     0.00000     0.25795     0.00000

 VOLUME and BASIS-vectors are now :
  energy-cutoff  :      520.00
  volume of cell :      295.51
      direct lattice vectors                 reciprocal lattice vectors
     3.914853169  0.000000000  0.000000000     0.255437422  0.000000000  0.000000000
     0.000000000  3.884086723 -3.884086723     0.000000000  0.154457948 -0.103002833
     0.000000000  7.775163608 11.659250330     0.000000000  0.051455115  0.051455115

  length of vectors
     3.914853169  5.492928121 14.013967582     0.255437422  0.185652474  0.072768521

 FORCES acting on ions
    electron-ion (+dipol)            ewald-force                    non-local-force                 convergence-correction
   -.389E-14 0.299E+02 0.299E+02   -.673E-14 -.298E+02 -.298E+02   0.000E+00 -.177E+00 -.177E+00   0.140E-13 0.154E+00 0.154E+00
   -.546E-14 0.229E-04 0.146E-04   0.345E-14 -.238E-10 -.243E-10   0.000E+00 -.352E-18 -.542E-19   0.187E-13 -.434E-05 -.592E-06
   -.395E-14 -.299E+02 -.299E+02   -.147E-13 0.298E+02 0.298E+02   0.000E+00 0.177E+00 0.177E+00   0.904E-14 -.154E+00 -.154E+00
   0.431E-14 -.836E+02 -.836E+02   -.193E-13 0.827E+02 0.827E+02   0.000E+00 0.844E+00 0.844E+00   0.132E-13 -.561E-01 -.561E-01
   -.974E-14 0.836E+02 0.836E+02   -.106E-15 -.827E+02 -.827E+02   0.000E+00 -.844E+00 -.844E+00   0.115E-14 0.561E-01 0.561E-01
   0.603E-13 -.362E+02 -.362E+02   0.338E-13 0.358E+02 0.358E+02   0.000E+00 0.358E+00 0.358E+00   0.259E-14 -.379E-01 -.379E-01
   0.624E-13 0.362E+02 0.362E+02   -.189E-13 -.358E+02 -.358E+02   0.000E+00 -.358E+00 -.358E+00   -.240E-14 0.379E-01 0.379E-01
   0.732E-13 -.260E-05 0.244E-04   0.232E-14 -.154E-10 -.123E-10   0.000E+00 -.203E-19 0.136E-19   0.664E-15 -.215E-05 -.212E-05
   0.303E-12 -.154E+02 -.154E+02   0.187E-13 0.149E+02 0.149E+02   0.000E+00 0.551E+00 0.551E+00   0.226E-13 -.118E+00 -.118E+00
   0.344E-12 0.154E+02 0.154E+02   0.647E-14 -.149E+02 -.149E+02   0.000E+00 -.551E+00 -.551E+00   0.217E-13 0.118E+00 0.118E+00
   0.115E-12 -.352E-04 0.635E-05   0.569E-14 -.498E-11 0.210E-11   0.000E+00 0.000E+00 0.949E-19   0.852E-14 0.168E-05 0.164E-05
   0.119E-12 -.158E+02 -.618E+02   0.268E-13 0.152E+02 0.564E+02   0.000E+00 0.668E+00 0.567E+01   0.948E-14 -.560E-01 -.657E-01
   0.117E-12 -.561E+01 0.261E+02   0.390E-13 0.552E+01 -.205E+02   0.000E+00 0.146E+00 -.538E+01   0.113E-14 -.421E-01 -.142E+00
   0.112E-12 0.561E+01 -.261E+02   -.316E-13 -.552E+01 0.205E+02   0.000E+00 -.146E+00 0.538E+01   0.742E-14 0.421E-01 0.142E+00
   0.114E-12 0.158E+02 0.618E+02   -.782E-14 -.152E+02 -.564E+02   0.000E+00 -.668E+00 -.567E+01   0.709E-14 0.560E-01 0.657E-01
   0.119E-12 -.241E-04 -.126E-05   -.945E-14 -.136E-10 -.476E-11   0.000E+00 0.271E-19 0.542E-19   0.773E-14 0.165E-05 0.169E-05
   0.124E-12 -.618E+02 -.158E+02   -.289E-13 0.564E+02 0.152E+02   0.000E+00 0.567E+01 0.668E+00   0.207E-14 -.657E-01 -.560E-01
   0.112E-12 0.261E+02 -.561E+01   -.426E-13 -.205E+02 0.552E+01   0.000E+00 -.538E+01 0.146E+00   0.371E-14 -.142E+00 -.421E-01
   0.120E-12 -.261E+02 0.561E+01   0.383E-13 0.205E+02 -.552E+01   0.000E+00 0.538E+01 -.146E+00   0.243E-14 0.142E+00 0.421E-01
   0.113E-12 0.618E+02 0.158E+02   0.256E-13 -.564E+02 -.152E+02   0.000E+00 -.567E+01 -.668E+00   0.588E-14 0.657E-01 0.560E-01
   -.133E-14 0.292E+02 0.292E+02   0.918E-14 -.296E+02 -.296E+02   0.000E+00 0.436E+00 0.436E+00   0.677E-14 0.296E-01 0.296E-01
   -.432E-14 -.292E+02 -.292E+02   -.185E-13 0.296E+02 0.296E+02   0.000E+00 -.436E+00 -.436E+00   0.134E-13 -.296E-01 -.296E-01
   -.957E-14 -.730E+01 -.730E+01   0.636E-14 0.677E+01 0.677E+01   0.000E+00 0.669E+00 0.669E+00   0.766E-14 -.702E-01 -.702E-01
   -.200E-14 -.213E-04 0.189E-04   -.162E-13 -.310E-11 -.917E-12   0.000E+00 -.813E-19 0.000E+00   0.789E-14 -.186E-05 -.189E-05
   -.751E-14 0.730E+01 0.730E+01   -.140E-14 -.677E+01 -.677E+01   0.000E+00 -.669E+00 -.669E+00   0.108E-13 0.702E-01 0.702E-01
   0.196E-11 -.109E-03 -.761E-04   -.532E-15 0.462E-13 -.121E-12   0.000E+00 -.178E-14 0.289E-14   0.203E-12 0.603E-05 -.100E-05

 POSITION                                       TOTAL-FORCE (eV/Angst)
      0.00000      3.90072      0.01663         0.000000      0.069535      0.069535
      0.00000      3.88688      3.88688         0.000000     -0.000000      0.000000
      0.00000      7.75713      3.87305         0.000000     -0.069535     -0.069535
      0.00000      7.69252      7.69252         0.000000     -0.109905     -0.109905
      0.00000      0.08125      0.08125         0.000000      0.109905      0.109905
      1.95743      9.72297      5.83889         0.000000     -0.019742     -0.019742
      1.95743      9.71004      9.71004         0.000000      0.019742      0.019742
      1.95743      5.82893      1.94484         0.000000     -0.000000      0.000000
      1.95743      5.82429      5.82429         0.000000     -0.055236     -0.055236
      1.95743      1.94947      1.94947         0.000000      0.055236      0.055236
      1.95743      9.71651      7.77446         0.000000     -0.000000      0.000000
      1.95743      5.84686      7.82160         0.000000      0.010939      0.117759
      1.95743      5.83252      3.84006         0.000000      0.015091      0.057242
      1.95743      5.82533      0.04962         0.000000     -0.015091     -0.057242
      1.95743      1.92690     -0.04783         0.000000     -0.010939     -0.117759
      1.95743      7.77446      9.71651         0.000000     -0.000000      0.000000
      1.95743      7.82160      5.84686         0.000000      0.117759      0.010939
      1.95743      7.72415      1.94844         0.000000      0.057242      0.015091
      1.95743      3.93371      1.94124         0.000000     -0.057242     -0.015091
      1.95743      3.83625     -1.95718         0.000000     -0.117759     -0.010939
      0.00000      9.71406      9.71406         0.000000      0.047183      0.047183
      0.00000      9.71896      5.83487         0.000000     -0.047183     -0.047183
      0.00000      5.84851      5.84851         0.000000      0.064061      0.064061
      0.00000      5.82893      1.94484         0.000000     -0.000000      0.000000
      0.00000      1.92526      1.92526         0.000000     -0.064061     -0.064061
    total drift:                                0.000000     -0.000103     -0.000077

  FREE ENERGIE OF THE ION-ELECTRON SYSTEM (eV)
  free  energy   TOTEN  =      -186.95701961 eV

  energy  without entropy=     -186.95701961  energy(sigma->0) =     -186.95701961

 total charge

[...]

 magnetization (x)

# of ion       s       p       d       f       tot
    1        0.001   0.001   0.008   0.004   0.013
    2        0.001   0.001   0.008   0.004   0.012
    3        0.001   0.001   0.008   0.004   0.013
    4        0.001   0.001   0.010   0.005   0.017
    5        0.001   0.001   0.010   0.005   0.017
    6        0.025   0.025   3.485   0.000   3.535
    7        0.025   0.025   3.485   0.000   3.534
    8        0.028   0.035   3.374   0.000   3.436
    9        0.012   0.001   1.694   0.000   1.707
   10        0.012   0.001   1.694   0.000   1.707
   11        0.002  -0.015   0.000   0.000  -0.013
   12        0.005  -0.035   0.000   0.000  -0.030
   13        0.005  -0.002   0.000   0.000   0.003
   14        0.005  -0.002   0.000   0.000   0.003
   15        0.005  -0.035   0.000   0.000  -0.030
   16        0.002  -0.016   0.000   0.000  -0.014
   17        0.005  -0.036   0.000   0.000  -0.031
   18        0.005  -0.002   0.000   0.000   0.003
   19        0.005  -0.002   0.000   0.000   0.003
   20        0.005  -0.036   0.000   0.000  -0.031
   21        0.006  -0.049   0.000   0.000  -0.043
   22        0.006  -0.049   0.000   0.000  -0.043
   23        0.006   0.018   0.000   0.000   0.024
   24        0.006  -0.062   0.000   0.000  -0.056
   25        0.006   0.018   0.000   0.000   0.024
tot          0.179  -0.216  13.775   0.022  13.760

 BZINTS: Fermi energy:  7.876673;186.000000 electrons
         Band energy:-299.709977;  BLOECHL correction: -0.119371