 vasp.5.4.4.18Apr17-6-g9f103f2a35 (build Oct 03 2018 13:58:34) complex

 executed on             LinuxIFC date 2019.06.04  00:28:55

 INCAR:
 POTCAR:    PAW_PBE La 06Sep2000
 POTCAR:    PAW_PBE Mn 06Sep2000
 POTCAR:    PAW_PBE Ni 02Aug2007
 POTCAR:    PAW_PBE O 08Apr2002

 POTCAR:    PAW_PBE La 06Sep2000
   VRHFIN =La : [core=Kr4d]

   TITEL  = PAW_PBE La 06Sep2000
   POMASS =  138.900; ZVAL   =   11.000    mass and valenz
   ENMAX  =  219.292; ENMIN  =  164.469 eV

 POTCAR:    PAW_PBE Mn 06Sep2000
   VRHFIN =Mn: d6 s1

   TITEL  = PAW_PBE Mn 06Sep2000
   POMASS =   54.938; ZVAL   =    7.000    mass and valenz
   ENMAX  =  269.864; ENMIN  =  202.398 eV

 POTCAR:    PAW_PBE Ni 02Aug2007
   VRHFIN =Ni:

   TITEL  = PAW_PBE Ni 02Aug2007
   POMASS =   58.690; ZVAL   =   10.000    mass and valenz
   ENMAX  =  269.532; ENMIN  =  202.149 eV

 POTCAR:    PAW_PBE O 08Apr2002
   VRHFIN =O: s2p4

   TITEL  = PAW_PBE O 08Apr2002
   POMASS =   16.000; ZVAL   =    6.000    mass and valenz
   ENMAX  =  400.000; ENMIN  =  300.000 eV

 Optimization of the real space projectors (new method)

 maximal supplied QI-value         = 13.42
 optimisation between [QCUT,QGAM] = [ 11.67, 23.35] = [ 38.16,152.62] Ry
 Optimized for a Real-space Cutoff    1.63 Angstroem

   l    n(q)    QCUT    max X(q) W(low)/X(q) W(high)/X(q)  e(spline)
   0     11    11.673    13.882    0.27E-04    0.79E-05    0.11E-06
   0     11    11.673    12.184    0.39E-04    0.13E-04    0.19E-06
   1     11    11.673     4.523    0.73E-05    0.76E-05    0.12E-06
   1     11    11.673     4.424    0.87E-05    0.13E-04    0.19E-06
   2     10    11.673    52.481    0.65E-04    0.36E-04    0.18E-06
   2     10    11.673    38.501    0.61E-04    0.33E-04    0.17E-06
   3     10    11.673    65.631    0.17E-03    0.14E-03    0.37E-06
   3     10    11.673    56.854    0.17E-03    0.14E-03    0.37E-06
 Optimization of the real space projectors (new method)

[...]

   l    n(q)    QCUT    max X(q) W(low)/X(q) W(high)/X(q)  e(spline)
   2      9    11.539    60.317    0.19E-03    0.47E-04    0.16E-06
   2      9    11.539    55.921    0.19E-03    0.48E-04    0.16E-06
   0     10    11.539    51.690    0.80E-04    0.50E-04    0.24E-06
   0     10    11.539    30.015    0.73E-04    0.45E-04    0.22E-06
   1     10    11.539    18.849    0.87E-04    0.16E-03    0.71E-07
   1     10    11.539    14.624    0.73E-04    0.13E-03    0.64E-07
 Optimization of the real space projectors (new method)

 maximal supplied QI-value         = 24.76
 optimisation between [QCUT,QGAM] = [ 11.64, 23.27] = [ 37.91,151.63] Ry
 Optimized for a Real-space Cutoff    1.14 Angstroem

   l    n(q)    QCUT    max X(q) W(low)/X(q) W(high)/X(q)  e(spline)
   0      8    11.635    20.381    0.10E-03    0.33E-03    0.24E-06
   0      8    11.635    15.268    0.11E-03    0.35E-03    0.26E-06
   1      7    11.635     5.964    0.24E-03    0.31E-03    0.30E-06
   1      7    11.635     5.382    0.22E-03    0.25E-03    0.26E-06
  PAW_PBE La 06Sep2000                  :
  PAW_PBE Mn 06Sep2000                  :
  PAW_PBE Ni 02Aug2007                  :
  PAW_PBE O 08Apr2002                   :

 POSCAR: SCEL6_1_6_1_1_0_0/5
  positions in direct lattice
  velocities in cartesian coordinates
 exchange correlation table for  LEXCH =        8
   RHO(1)=    0.500       N(1)  =     2000
   RHO(2)=  100.500       N(2)  =     4000

 ion  position               nearest neighbor table
   1  0.000  0.500  0.169-  28 2.72  23 2.72  16 2.72  16 2.72  23 2.72  29 2.73  29 2.73  24 2.77
                            17 2.77  17 2.77  24 2.77  30 2.81   9 3.31   9 3.31  11 3.35  11 3.35
   2  0.000  0.000  0.331-  29 2.72  23 2.72  16 2.72  16 2.72  23 2.72  28 2.73  28 2.73  15 2.77
                            15 2.77  22 2.77  22 2.77  27 2.81  11 3.31  11 3.31   9 3.35   9 3.35
   3  0.000  0.500  0.489-  28 2.55  22 2.64  15 2.64  15 2.64  22 2.64  27 2.74  27 2.74   9 3.23
                             9 3.23  10 3.36  10 3.36  10 3.36  10 3.36
   4  0.000  0.000  0.659-  27 2.58  21 2.66  14 2.66  14 2.66  21 2.66  26 2.74  26 2.74  13 2.80
                            13 2.80  20 2.80  20 2.80  10 3.26  10 3.26   7 3.35   7 3.35   7 3.35
   5  0.000  0.500  0.841-  30 2.58  18 2.66  18 2.66  19 2.66  19 2.66  25 2.74  25 2.74  13 2.80
                            13 2.80  20 2.80  20 2.80  12 3.26  12 3.26   8 3.35   8 3.35   8 3.35
   6  0.000  0.000  0.011-  29 2.55  24 2.64  17 2.64  17 2.64  24 2.64  30 2.74  30 2.74  11 3.23
                            11 3.23  12 3.36  12 3.36  12 3.36  12 3.36
   7  0.500  0.500  0.667-  14 1.88  21 1.88  20 1.94  13 1.94  26 1.94  26 1.94   4 3.35   4 3.35
                             4 3.35   4 3.35
   8  0.500  0.000  0.833-  19 1.88  18 1.88  13 1.94  20 1.94  25 1.94  25 1.94   5 3.35   5 3.35
                             5 3.35   5 3.35
   9  0.500  0.500  0.332-  16 1.92  23 1.92  22 1.92  15 1.92  28 1.94  28 1.94   3 3.23   3 3.23
                             1 3.31   1 3.31   2 3.35   2 3.35   2 3.35   2 3.35
  10  0.500  0.000  0.500-  27 1.94  27 1.94  15 1.95  22 1.95  21 1.99  14 1.99   4 3.26   4 3.26
                             3 3.36   3 3.36   3 3.36   3 3.36   2 3.38   2 3.38
  11  0.500  0.000  0.168-  16 1.92  23 1.92  17 1.92  24 1.92  29 1.94  29 1.94   6 3.23   6 3.23
                             2 3.31   2 3.31   1 3.35   1 3.35   1 3.35   1 3.35
  12  0.500  0.500  0.000-  30 1.94  30 1.94  17 1.95  24 1.95  18 1.99  19 1.99   5 3.26   5 3.26
                             6 3.36   6 3.36   6 3.36   6 3.36   1 3.38   1 3.38
  13  0.500  0.750  0.750-   7 1.94   8 1.94   4 2.80   5 2.80   4 2.80   5 2.80
  14  0.500  0.252  0.587-   7 1.88  10 1.99   4 2.66   4 2.66
  15  0.500  0.745  0.416-   9 1.92  10 1.95   3 2.64   3 2.64   2 2.77   2 2.77
  16  0.500  0.250  0.250-   9 1.92  11 1.92   1 2.72   2 2.72   1 2.72   2 2.72
  17  0.500  0.755  0.084-  11 1.92  12 1.95   6 2.64   6 2.64   1 2.77   1 2.77
  18  0.500  0.248  0.913-   8 1.88  12 1.99   5 2.66   5 2.66
  19  0.500  0.752  0.913-   8 1.88  12 1.99   5 2.66   5 2.66
  20  0.500  0.250  0.750-   7 1.94   8 1.94   4 2.80   5 2.80   4 2.80   5 2.80
  21  0.500  0.748  0.587-   7 1.88  10 1.99   4 2.66   4 2.66
  22  0.500  0.255  0.416-   9 1.92  10 1.95   3 2.64   3 2.64   2 2.77   2 2.77
  23  0.500  0.750  0.250-   9 1.92  11 1.92   1 2.72   2 2.72   1 2.72   2 2.72
  24  0.500  0.245  0.084-  11 1.92  12 1.95   6 2.64   6 2.64   1 2.77   1 2.77
  25  0.000  0.000  0.831-   8 1.94   8 1.94   5 2.74   5 2.74
  26  0.000  0.500  0.669-   7 1.94   7 1.94   4 2.74   4 2.74
  27  0.000  0.000  0.502-  10 1.94  10 1.94   4 2.58   3 2.74   3 2.74   2 2.81
  28  0.000  0.500  0.334-   9 1.94   9 1.94   3 2.55   1 2.72   2 2.73   2 2.73
  29  0.000  0.000  0.166-  11 1.94  11 1.94   6 2.55   2 2.72   1 2.73   1 2.73
  30  0.000  0.500  0.998-  12 1.94  12 1.94   5 2.58   6 2.74   6 2.74   1 2.81

  LATTYP: Found a simple orthorhombic cell.
 ALAT       =     3.8751009039
 B/A-ratio  =     1.4112300534
 C/A-ratio  =     4.2405291926

  Lattice vectors:

 A1 = (   3.8751009039,   0.0000000000,   0.0000000000)
 A2 = (   0.0000000000,   3.8669257609,   3.8669257609)
 A3 = (   0.0000000000, -11.6195169842,  11.6195169842)

Analysis of symmetry for initial positions (statically):
 Subroutine PRICEL returns:
 Original cell was already a primitive cell.

 Routine SETGRP: Setting up the symmetry group for a
 simple orthorhombic supercell.

 Subroutine GETGRP returns: Found  8 space group operations
 (whereof  4 operations were pure point group operations)
 out of a pool of  8 trial point group operations.

The static configuration has the point symmetry C_2v.
 The point group associated with its full space group is D_2h.

Analysis of symmetry for dynamics (positions and initial velocities):
 Subroutine PRICEL returns:
 Original cell was already a primitive cell.

[...]

The dynamic configuration has the point symmetry C_2v.
 The point group associated with its full space group is D_2h.

Analysis of structural, dynamic, and magnetic symmetry:
 Subroutine PRICEL returns:
 Original cell was already a primitive cell.

 Routine SETGRP: Setting up the symmetry group for a
 simple orthorhombic supercell.

 Subroutine GETGRP returns: Found  8 space group operations
 (whereof  4 operations were pure point group operations)
 out of a pool of  8 trial point group operations.

The magnetic configuration has the point symmetry C_2v.
 The point group associated with its full space group is D_2h.

 Subroutine INISYM returns: Found  8 space group operations
 (whereof  4 operations are pure point group operations),
 and found     1 'primitive' translations

 KPOINTS: Automatic mesh

Automatic generation of k-mesh.
 generate k-points for:    5    4    1
Space group operators:
 irot       det(A)        alpha          n_x          n_y          n_z        tau_x        tau_y        tau_z
    1     1.000000     0.000001     1.000000     0.000000     0.000000     0.000000     0.000000     0.000000
    2     1.000000   179.999999     0.000000    -0.707107     0.707107     0.000000     0.000000     0.000000
    3    -1.000000   179.999999     0.000000     0.707107     0.707107     0.000000     0.000000     0.000000
    4    -1.000000   180.000000     1.000000     0.000000     0.000000     0.000000     0.000000     0.000000
    5    -1.000000     0.000001     1.000000     0.000000     0.000000     0.000000     0.500000     0.500000
    6    -1.000000   179.999999     0.000000    -0.707107     0.707107     0.000000     0.500000     0.500000
    7     1.000000   179.999999     0.000000     0.707107     0.707107     0.000000     0.500000     0.500000
    8     1.000000   180.000000     1.000000     0.000000     0.000000     0.000000     0.500000     0.500000

 Subroutine IBZKPT returns following result:

 Found      9 irreducible k-points:

 Following reciprocal coordinates:
            Coordinates               Weight
  0.000000  0.000000  0.000000      1.000000
  0.200000  0.000000  0.000000      2.000000
  0.400000  0.000000  0.000000      2.000000
  0.000000  0.250000  0.000000      2.000000
  0.200000  0.250000  0.000000      4.000000
  0.400000  0.250000  0.000000      4.000000
  0.000000  0.500000  0.000000      1.000000
  0.200000  0.500000  0.000000      2.000000
  0.400000  0.500000  0.000000      2.000000

 Following cartesian coordinates:
            Coordinates               Weight
  0.000000  0.000000  0.000000      1.000000
  0.051612  0.000000  0.000000      2.000000
  0.103223  0.000000  0.000000      2.000000
  0.000000  0.032325  0.032325      2.000000
  0.051612  0.032325  0.032325      4.000000
  0.103223  0.032325  0.032325      4.000000
  0.000000  0.064651  0.064651      1.000000
  0.051612  0.064651  0.064651      2.000000
  0.103223  0.064651  0.064651      2.000000

 TETIRR: Found     54 inequivalent tetrahedra from      120

 SYSTEM =  final
 POSCAR =  SCEL6_1_6_1_1_0_0/5

 Startparameter for this run:
   NWRITE =      2    write-flag & timer
   PREC   = accura    normal or accurate (medium, high low for compatibility)
   ISTART =      0    job   : 0-new  1-cont  2-samecut
[...]
     30      -7.1083      1.00000
     31      -7.0871      1.00000
     32      -7.0484      1.00000
     33      -7.0217      1.00000
     34      -6.9427      1.00000
     35      -6.8938      1.00000
     36      -6.8883      1.00000
     37      -6.8770      1.00000
     38      -6.7881      1.00000
     39      -6.7630      1.00000
     40      -6.7015      1.00000
     41      -6.6664      1.00000
     42      -6.6456      1.00000
     43       0.3634      1.00000
     44       0.5137      1.00000
     45       0.6381      1.00000
     46       0.9410      1.00000
     47       0.9489      1.00000
     48       1.1561      1.00000
     49       1.1602      1.00000
     50       1.4364      1.00000
     51       1.5401      1.00000
     52       1.8567      1.00000
     53       1.8634      1.00000
     54       2.0272      1.00000
     55       2.0727      1.00000
     56       2.0820      1.00000
     57       2.0999      1.00000
     58       2.1032      1.00000
     59       2.1189      1.00000
     60       2.1315      1.00000
[...]
    132      10.9970      0.00000
    133      11.0451      0.00000
    134      11.0705      0.00000
    135      11.0929      0.00000
    136      11.1740      0.00000
    137      11.2261      0.00000
    138      11.2676      0.00000
    139      11.2799      0.00000
    140      11.2979      0.00000
    141      11.3234      0.00000
    142      11.3423      0.00000
    143      11.3760      0.00000
    144      11.3799      0.00000
    145      11.4020      0.00000
    146      11.4428      0.00000

[...]

 spin component 2

[...]

 k-point     9 :       0.4000    0.5000    0.0000
  band No.  band energies     occupation
      1     -23.6989      1.00000
      2     -23.6989      1.00000
      3     -23.5590      1.00000
      4     -23.5590      1.00000
      5     -23.5553      1.00000
      6     -23.5553      1.00000
      7     -10.6991      1.00000
      8     -10.6991      1.00000
      9     -10.5174      1.00000
     10     -10.5174      1.00000
     11     -10.4994      1.00000
     12     -10.4994      1.00000
     13     -10.1623      1.00000
     14     -10.1623      1.00000
     15     -10.1222      1.00000
     16     -10.1222      1.00000
     17      -9.9085      1.00000
     18      -9.9085      1.00000
     19      -9.7817      1.00000
     20      -9.7817      1.00000
     21      -9.6118      1.00000
     22      -9.6118      1.00000
     23      -9.4206      1.00000
     24      -9.4206      1.00000
     25      -7.4137      1.00000
     26      -7.4137      1.00000
     27      -7.1679      1.00000
     28      -7.1679      1.00000
     29      -7.0566      1.00000
     30      -7.0566      1.00000
     31      -6.9870      1.00000
     32      -6.9870      1.00000
     33      -6.9120      1.00000
     34      -6.9120      1.00000
     35      -6.8274      1.00000
     36      -6.8274      1.00000
     37      -6.7363      1.00000
     38      -6.7363      1.00000
     39      -6.6575      1.00000
     40      -6.6575      1.00000
     41      -6.6300      1.00000
     42      -6.6300      1.00000
     43       1.7102      1.00000
     44       1.7102      1.00000
     45       1.7559      1.00000
     46       1.7559      1.00000
     47       1.8463      1.00000
     48       1.8464      1.00000
     49       1.9210      1.00000
     50       1.9210      1.00000
     51       2.1193      1.00000
     52       2.1193      1.00000
     53       2.5135      1.00000
     54       2.5135      1.00000
     55       2.5928      1.00000
     56       2.5928      1.00000
     57       2.6290      1.00000
     58       2.6290      1.00000
     59       2.8079      1.00000
     60       2.8079      1.00000
[...]
    132      11.2664      0.00000
    133      11.2978      0.00000
    134      11.3025      0.00000
    135      11.3237      0.00000
    136      11.3285      0.00000
    137      11.3381      0.00000
    138      11.3479      0.00000
    139      11.3525      0.00000
    140      11.3666      0.00000
    141      11.3731      0.00000
    142      11.3830      0.00000
    143      11.3866      0.00000
    144      11.4049      0.00000
    145      11.4303      0.00000
    146      11.4551      0.00000

 soft charge-density along one line, spin component           1
         0         1         2         3         4         5         6         7         8         9
 total charge-density along one line

 soft charge-density along one line, spin component           2
         0         1         2         3         4         5         6         7         8         9
 total charge-density along one line

------------------------ aborting loop because EDIFF is reached ----------------------------------------

 total charge

# of ion       s       p       d       f       tot
    1        1.999   5.699   0.486   0.188   8.372
    2        1.999   5.699   0.486   0.188   8.372
    3        2.002   5.698   0.509   0.195   8.404
    4        2.002   5.702   0.509   0.199   8.410
    5        2.002   5.702   0.509   0.199   8.410
    6        2.003   5.698   0.509   0.195   8.405
    7        0.344   0.534   4.862   0.000   5.741
    8        0.344   0.534   4.861   0.000   5.739
    9        0.433   0.657   8.323   0.000   9.413
   10        0.406   0.587   8.312   0.000   9.305
   11        0.433   0.657   8.325   0.000   9.415
   12        0.406   0.587   8.312   0.000   9.305
   13        1.561   3.465   0.000   0.000   5.026
   14        1.563   3.452   0.000   0.000   5.016
   15        1.562   3.439   0.000   0.000   5.001
   16        1.561   3.438   0.000   0.000   4.999
   17        1.562   3.440   0.000   0.000   5.001
   18        1.563   3.452   0.000   0.000   5.015
   19        1.563   3.451   0.000   0.000   5.015
   20        1.561   3.465   0.000   0.000   5.026
   21        1.563   3.452   0.000   0.000   5.016
   22        1.562   3.438   0.000   0.000   4.999
   23        1.561   3.440   0.000   0.000   5.002
   24        1.562   3.438   0.000   0.000   5.000
   25        1.566   3.449   0.000   0.000   5.015
   26        1.566   3.449   0.000   0.000   5.015
   27        1.558   3.447   0.000   0.000   5.005
   28        1.562   3.446   0.000   0.000   5.009
   29        1.562   3.446   0.000   0.000   5.008
   30        1.558   3.448   0.000   0.000   5.006
tot         42.490  99.809  46.003   1.164 189.466

 magnetization (x)

[...]

  FORCE on cell =-STRESS in cart. coord.  units (eV):
  Direction    XX          YY          ZZ          XY          YZ          ZX
  Alpha Z   986.64956   986.64956   986.64956
  Ewald   -5116.12524 -5336.98207 -5336.98207    -0.00000   136.15617     0.00000
  Hartree  1427.04997  1215.10650  1215.10650     0.00000   144.30861    -0.00000
  E(xc)   -1066.73491 -1066.89283 -1066.89283     0.00000    -0.05655    -0.00000
  Local   -1157.54677  -719.45504  -719.45504     0.00000  -280.33275     0.00000
  n-local   429.57692   429.89868   429.87527    -0.62750     0.81671    -0.62511
  augment   635.48097   633.47228   633.47228     0.00000    -0.03936    -0.00000
  Kinetic  3861.60483  3857.95425  3857.99049     1.28476    -1.07679     1.28252
  Fock        0.00000     0.00000     0.00000     0.00000     0.00000     0.00000
  Total      -0.04466    -0.24226    -0.24226    -0.00000    -0.22400     0.00000
  in kB      -0.20547    -1.11462    -1.11462    -0.00000    -1.03061     0.00000

 VOLUME and BASIS-vectors are now :
  energy-cutoff  :      520.00
  volume of cell :      348.23
      direct lattice vectors                 reciprocal lattice vectors
     3.875100904  0.000000000  0.000000000     0.258057796  0.000000000  0.000000000
     0.000000000  3.866925761  3.866925761     0.000000000  0.129301681  0.129301681
     0.000000000-11.619516984 11.619516984     0.000000000 -0.043031049  0.043031049

  length of vectors
     3.875100904  5.468658856 16.432478507     0.258057796  0.182860190  0.060855093

 FORCES acting on ions
    electron-ion (+dipol)            ewald-force                    non-local-force                 convergence-correction
   -.197E-14 -.572E+02 0.572E+02   -.107E-13 0.569E+02 -.569E+02   0.000E+00 0.249E+00 -.249E+00   -.402E-14 0.113E+00 -.113E+00
   -.421E-14 0.572E+02 -.572E+02   0.110E-13 -.569E+02 0.569E+02   0.000E+00 -.249E+00 0.249E+00   -.597E-14 -.113E+00 0.113E+00
   -.833E-14 0.176E+03 -.176E+03   -.183E-14 -.175E+03 0.175E+03   0.000E+00 -.128E+01 0.128E+01   -.783E-14 -.200E+00 0.200E+00
   0.136E-14 0.118E+03 -.118E+03   -.227E-13 -.117E+03 0.117E+03   0.000E+00 -.891E+00 0.891E+00   -.841E-14 -.933E-01 0.933E-01
   0.277E-15 -.118E+03 0.118E+03   0.836E-14 0.117E+03 -.117E+03   0.000E+00 0.891E+00 -.891E+00   0.649E-14 0.933E-01 -.933E-01
   -.489E-14 -.176E+03 0.176E+03   0.899E-15 0.175E+03 -.175E+03   0.000E+00 0.128E+01 -.128E+01   0.276E-14 0.200E+00 -.200E+00
   0.494E-13 0.507E+02 -.507E+02   -.164E-14 -.503E+02 0.503E+02   0.000E+00 -.434E+00 0.434E+00   0.148E-13 -.471E-01 0.471E-01
   0.553E-13 -.507E+02 0.507E+02   0.133E-13 0.503E+02 -.503E+02   0.000E+00 0.434E+00 -.434E+00   0.188E-13 0.471E-01 -.471E-01
   0.293E-12 0.313E+02 -.313E+02   0.413E-14 -.311E+02 0.311E+02   0.000E+00 -.390E-01 0.390E-01   0.640E-13 -.112E+00 0.112E+00
   0.301E-12 0.105E+03 -.105E+03   0.486E-14 -.104E+03 0.104E+03   0.000E+00 -.116E+01 0.116E+01   0.525E-13 -.183E+00 0.183E+00
   0.268E-12 -.313E+02 0.313E+02   0.361E-14 0.311E+02 -.311E+02   0.000E+00 0.390E-01 -.390E-01   0.858E-13 0.112E+00 -.112E+00
   0.289E-12 -.105E+03 0.105E+03   0.124E-13 0.104E+03 -.104E+03   0.000E+00 0.116E+01 -.116E+01   0.813E-13 0.183E+00 -.183E+00
   0.112E-12 0.964E-10 -.907E-10   0.370E-14 -.711E-13 0.711E-13   0.000E+00 0.407E-19 -.407E-19   0.378E-13 0.500E-12 -.469E-12
   0.116E-12 0.439E+02 -.102E+03   0.662E-14 -.423E+02 0.965E+02   -.434E-18 -.151E+01 0.571E+01   0.377E-13 -.674E-01 0.990E-01
   0.121E-12 0.418E+02 -.704E+02   -.518E-14 -.409E+02 0.715E+02   0.000E+00 -.816E+00 -.122E+01   0.397E-13 -.893E-01 0.117E+00
   0.114E-12 0.101E-09 -.920E-10   0.115E-13 0.497E-13 0.284E-13   0.000E+00 0.000E+00 -.130E-17   0.381E-13 -.256E-12 -.439E-13
   0.104E-12 -.418E+02 0.704E+02   0.731E-14 0.409E+02 -.715E+02   0.000E+00 0.816E+00 0.122E+01   0.384E-13 0.893E-01 -.117E+00
   0.109E-12 -.439E+02 0.102E+03   -.548E-14 0.423E+02 -.965E+02   0.000E+00 0.151E+01 -.571E+01   0.405E-13 0.674E-01 -.990E-01
   0.110E-12 -.102E+03 0.439E+02   -.830E-14 0.965E+02 -.423E+02   0.000E+00 0.571E+01 -.151E+01   0.371E-13 0.990E-01 -.674E-01
   0.113E-12 0.927E-10 -.964E-10   -.643E-14 -.128E-12 0.156E-12   0.000E+00 0.542E-19 -.542E-19   0.391E-13 0.493E-12 -.497E-12
   0.112E-12 0.102E+03 -.439E+02   0.303E-13 -.965E+02 0.423E+02   0.434E-18 -.571E+01 0.151E+01   0.378E-13 -.990E-01 0.674E-01
   0.118E-12 0.704E+02 -.418E+02   -.162E-13 -.715E+02 0.409E+02   0.000E+00 0.122E+01 0.816E+00   0.390E-13 -.117E+00 0.893E-01
   0.116E-12 0.940E-10 -.976E-10   -.106E-13 0.568E-13 -.178E-12   0.102E-19 0.130E-17 0.000E+00   0.414E-13 0.749E-13 0.250E-12
   0.109E-12 -.704E+02 0.418E+02   -.323E-14 0.715E+02 -.409E+02   0.000E+00 -.122E+01 -.816E+00   0.396E-13 0.117E+00 -.893E-01
   -.641E-14 -.379E+02 0.379E+02   -.445E-14 0.380E+02 -.380E+02   0.000E+00 -.159E+00 0.159E+00   0.238E-14 0.364E-01 -.364E-01
   -.259E-14 0.379E+02 -.379E+02   0.946E-14 -.380E+02 0.380E+02   0.000E+00 0.159E+00 -.159E+00   0.157E-13 -.364E-01 0.364E-01
   -.450E-14 0.596E+02 -.596E+02   -.436E-16 -.587E+02 0.587E+02   0.000E+00 -.751E+00 0.751E+00   0.999E-14 -.936E-01 0.936E-01
   -.595E-14 0.177E+02 -.177E+02   -.540E-14 -.171E+02 0.171E+02   0.000E+00 -.514E+00 0.514E+00   0.132E-14 -.592E-01 0.592E-01
   0.895E-15 -.177E+02 0.177E+02   0.123E-14 0.171E+02 -.171E+02   0.000E+00 0.514E+00 -.514E+00   -.116E-13 0.592E-01 -.592E-01
   -.423E-14 -.596E+02 0.596E+02   -.256E-13 0.587E+02 -.587E+02   0.000E+00 0.751E+00 -.751E+00   -.743E-14 0.936E-01 -.936E-01
   0.257E-11 0.221E-08 -.226E-08   0.860E-15 -.270E-12 -.114E-12   0.102E-19 0.999E-15 0.555E-15   0.777E-12 0.119E-11 -.111E-11

 POSITION                                       TOTAL-FORCE (eV/Angst)
      0.00000     -0.02614      3.89307         0.000000     -0.014841      0.014841
      0.00000     -3.85016      3.85016         0.000000      0.014841     -0.014841
      0.00000     -3.75248      7.61941         0.000000      0.017042     -0.017042
      0.00000     -7.66031      7.66031         0.000000      0.008483     -0.008483
      0.00000     -7.83551     11.70243         0.000000     -0.008483      0.008483
      0.00000     -0.12381      0.12381         0.000000     -0.017042      0.017042
      1.93755     -5.81104      9.67797         0.000000     -0.015321      0.015321
      1.93755     -9.68477      9.68477         0.000000      0.015321     -0.015321
      1.93755     -1.92745      5.79438         0.000000     -0.007315      0.007315
      1.93755     -5.80499      5.80499         0.000000      0.017559     -0.017559
      1.93755     -1.94884      1.94884         0.000000      0.007315     -0.007315
      1.93755      1.92869      1.93823         0.000000     -0.017559      0.017559
      1.93755     -5.81444     11.61483         0.000000     -0.000000      0.000000
      1.93755     -5.84368      7.79530         0.000000     -0.018486      0.004427
      1.93755     -1.95988      7.71894         0.000000      0.026391      0.029922
      1.93755     -1.93815      3.87161         0.000000     -0.000000      0.000000
      1.93755      1.95051      3.89120         0.000000     -0.026391     -0.029922
      1.93755     -9.65213     11.56744         0.000000      0.018486     -0.004427
      1.93755     -7.70051     13.51906         0.000000      0.004427     -0.018486
      1.93755     -7.74791      9.68137         0.000000     -0.000000      0.000000
      1.93755     -3.92837      9.71061         0.000000     -0.004427      0.018486
      1.93755     -3.85202      5.82681         0.000000     -0.029922     -0.026391
      1.93755     -0.00468      5.80507         0.000000     -0.000000      0.000000
      1.93755     -0.02428      1.91642         0.000000      0.029922      0.026391
      0.00000     -9.66010      9.66010         0.000000      0.014349     -0.014349
      0.00000     -5.83571      9.70264         0.000000     -0.014349      0.014349
      0.00000     -5.83530      5.83530         0.000000      0.043939     -0.043939
      0.00000     -1.94618      5.81310         0.000000      0.033932     -0.033932
      0.00000     -1.93012      1.93012         0.000000     -0.033932      0.033932
      0.00000     -9.66051     13.52744         0.000000     -0.043939      0.043939
    total drift:                                0.000000      0.000000     -0.000000

  FREE ENERGIE OF THE ION-ELECTRON SYSTEM (eV)
  free  energy   TOTEN  =      -213.56902348 eV

  energy  without entropy=     -213.56902348  energy(sigma->0) =     -213.56902348

 total charge

[...]

 magnetization (x)

# of ion       s       p       d       f       tot
    1        0.001  -0.001   0.005   0.002   0.007
    2        0.001  -0.001   0.005   0.002   0.007
    3        0.000  -0.000   0.007   0.003   0.010
    4        0.001   0.001   0.012   0.005   0.019
    5        0.001   0.001   0.012   0.005   0.019
    6        0.000  -0.000   0.007   0.003   0.010
    7        0.023   0.020   3.353   0.000   3.396
    8        0.022   0.020   3.352   0.000   3.394
    9        0.019   0.017   1.367   0.000   1.402
   10        0.016   0.004   1.565   0.000   1.585
   11        0.019   0.017   1.369   0.000   1.404
   12        0.016   0.005   1.565   0.000   1.585
   13        0.002  -0.020   0.000   0.000  -0.019
   14        0.004  -0.043   0.000   0.000  -0.038
   15        0.006  -0.073   0.000   0.000  -0.067
   16        0.006  -0.079   0.000   0.000  -0.074
   17        0.006  -0.073   0.000   0.000  -0.067
   18        0.004  -0.043   0.000   0.000  -0.039
   19        0.004  -0.043   0.000   0.000  -0.039
   20        0.001  -0.020   0.000   0.000  -0.019
   21        0.004  -0.043   0.000   0.000  -0.038
   22        0.006  -0.075   0.000   0.000  -0.068
   23        0.006  -0.077   0.000   0.000  -0.071
   24        0.006  -0.074   0.000   0.000  -0.068
   25        0.004  -0.063   0.000   0.000  -0.059
   26        0.005  -0.063   0.000   0.000  -0.059
   27        0.006  -0.043   0.000   0.000  -0.038
   28        0.007  -0.059   0.000   0.000  -0.052
   29        0.007  -0.060   0.000   0.000  -0.053
   30        0.006  -0.043   0.000   0.000  -0.037
tot          0.208  -0.912  12.618   0.021  11.934

 BZINTS: Fermi energy:  7.605352;228.000000 electrons
         Band energy:-297.493466;  BLOECHL correction: -0.133306