 vasp.5.4.4.18Apr17-6-g9f103f2a35 (build Oct 03 2018 13:58:34) complex

 executed on             LinuxIFC date 2019.06.04  02:03:14

 INCAR:
 POTCAR:    PAW_PBE La 06Sep2000
 POTCAR:    PAW_PBE Mn 06Sep2000
 POTCAR:    PAW_PBE Ni 02Aug2007
 POTCAR:    PAW_PBE O 08Apr2002

 POTCAR:    PAW_PBE La 06Sep2000
   VRHFIN =La : [core=Kr4d]

   TITEL  = PAW_PBE La 06Sep2000
   POMASS =  138.900; ZVAL   =   11.000    mass and valenz
   ENMAX  =  219.292; ENMIN  =  164.469 eV

 POTCAR:    PAW_PBE Mn 06Sep2000
   VRHFIN =Mn: d6 s1

   TITEL  = PAW_PBE Mn 06Sep2000
   POMASS =   54.938; ZVAL   =    7.000    mass and valenz
   ENMAX  =  269.864; ENMIN  =  202.398 eV

 POTCAR:    PAW_PBE Ni 02Aug2007
   VRHFIN =Ni:

   TITEL  = PAW_PBE Ni 02Aug2007
   POMASS =   58.690; ZVAL   =   10.000    mass and valenz
   ENMAX  =  269.532; ENMIN  =  202.149 eV

 POTCAR:    PAW_PBE O 08Apr2002
   VRHFIN =O: s2p4

   TITEL  = PAW_PBE O 08Apr2002
   POMASS =   16.000; ZVAL   =    6.000    mass and valenz
   ENMAX  =  400.000; ENMIN  =  300.000 eV

 Optimization of the real space projectors (new method)

 maximal supplied QI-value         = 13.42
 optimisation between [QCUT,QGAM] = [ 11.67, 23.35] = [ 38.16,152.62] Ry
 Optimized for a Real-space Cutoff    1.63 Angstroem

   l    n(q)    QCUT    max X(q) W(low)/X(q) W(high)/X(q)  e(spline)
   0     11    11.673    13.882    0.27E-04    0.79E-05    0.11E-06
   0     11    11.673    12.184    0.39E-04    0.13E-04    0.19E-06
   1     11    11.673     4.523    0.73E-05    0.76E-05    0.12E-06
   1     11    11.673     4.424    0.87E-05    0.13E-04    0.19E-06
   2     10    11.673    52.481    0.65E-04    0.36E-04    0.18E-06
   2     10    11.673    38.501    0.61E-04    0.33E-04    0.17E-06
   3     10    11.673    65.631    0.17E-03    0.14E-03    0.37E-06
   3     10    11.673    56.854    0.17E-03    0.14E-03    0.37E-06
 Optimization of the real space projectors (new method)

[...]

   l    n(q)    QCUT    max X(q) W(low)/X(q) W(high)/X(q)  e(spline)
   2      9    11.539    60.317    0.19E-03    0.47E-04    0.16E-06
   2      9    11.539    55.921    0.19E-03    0.48E-04    0.16E-06
   0     10    11.539    51.690    0.80E-04    0.50E-04    0.24E-06
   0     10    11.539    30.015    0.73E-04    0.45E-04    0.22E-06
   1     10    11.539    18.849    0.87E-04    0.16E-03    0.71E-07
   1     10    11.539    14.624    0.73E-04    0.13E-03    0.64E-07
 Optimization of the real space projectors (new method)

 maximal supplied QI-value         = 24.76
 optimisation between [QCUT,QGAM] = [ 11.64, 23.27] = [ 37.91,151.63] Ry
 Optimized for a Real-space Cutoff    1.14 Angstroem

   l    n(q)    QCUT    max X(q) W(low)/X(q) W(high)/X(q)  e(spline)
   0      8    11.635    20.381    0.10E-03    0.33E-03    0.24E-06
   0      8    11.635    15.268    0.11E-03    0.35E-03    0.26E-06
   1      7    11.635     5.964    0.24E-03    0.31E-03    0.30E-06
   1      7    11.635     5.382    0.22E-03    0.25E-03    0.26E-06
  PAW_PBE La 06Sep2000                  :
  PAW_PBE Mn 06Sep2000                  :
  PAW_PBE Ni 02Aug2007                  :
  PAW_PBE O 08Apr2002                   :

 POSCAR: SCEL6_3_2_1_1_1_0/5
  positions in direct lattice
  velocities in cartesian coordinates
 exchange correlation table for  LEXCH =        8
   RHO(1)=    0.500       N(1)  =     2000
   RHO(2)=  100.500       N(2)  =     4000

 ion  position               nearest neighbor table
   1  0.170  0.165  0.330-  24 2.70  14 2.70  27 2.71  20 2.72  30 2.73  23 2.74  16 2.74  26 2.74
                            17 2.75  19 2.76  13 2.76  29 2.77  10 3.32  12 3.33  11 3.33   7 3.34
   2  0.330  0.335  0.670-  24 2.70  18 2.70  28 2.71  22 2.72  25 2.73  19 2.74  16 2.74  29 2.74
                            15 2.75  23 2.76  13 2.76  26 2.77  12 3.32  10 3.33   9 3.33   8 3.34
   3  0.492  0.508  0.000-  15 2.69  17 2.69  27 2.69  28 2.69  21 2.73  24 2.73  23 2.73  22 2.73
                            14 2.79  18 2.79  25 2.79  30 2.79  10 3.32  12 3.32  11 3.33   9 3.33
   4  0.665  0.670  0.330-  21 2.70  14 2.70  27 2.71  23 2.72  30 2.73  20 2.74  16 2.74  26 2.74
                            17 2.75  22 2.76  13 2.76  29 2.77  10 3.32  12 3.33  11 3.33   7 3.34
   5  0.835  0.830  0.670-  21 2.70  18 2.70  28 2.71  19 2.72  25 2.73  22 2.74  16 2.74  29 2.74
                            15 2.75  20 2.76  13 2.76  26 2.77  12 3.32  10 3.33   9 3.33   8 3.34
   6  0.008  0.992  0.000-  15 2.69  17 2.69  27 2.69  28 2.69  21 2.73  24 2.73  19 2.73  20 2.73
                            14 2.79  18 2.79  25 2.79  30 2.79  10 3.32  12 3.32  11 3.33   9 3.33
   7  0.666  0.166  0.333-  14 1.88  20 1.89  23 1.89  30 1.90  26 1.90  13 1.94   1 3.34   4 3.34
                             1 3.36   4 3.36   3 3.38   6 3.38   5 3.39   2 3.39
   8  0.834  0.334  0.667-  18 1.88  19 1.89  22 1.89  25 1.90  29 1.90  13 1.94   2 3.34   5 3.34
                             5 3.36   2 3.36   3 3.38   6 3.38   1 3.39   4 3.39
   9  0.334  0.834  0.665-  15 1.91  16 1.92  28 1.93  26 1.95  19 1.99  22 1.99   3 3.33   6 3.33
                             5 3.33   2 3.33   1 3.35   4 3.35   5 3.36   2 3.36
  10  0.500  0.000  0.999-  21 1.94  24 1.94  27 1.94  15 1.95  25 1.96  14 1.97   3 3.32   6 3.32
                             4 3.32   1 3.32   5 3.33   2 3.33   6 3.38   3 3.38
  11  0.166  0.666  0.335-  17 1.91  16 1.92  27 1.93  29 1.95  20 1.99  23 1.99   3 3.33   6 3.33
                             4 3.33   1 3.33   5 3.35   2 3.35   1 3.36   4 3.36
  12  1.000  0.500  0.001-  21 1.94  24 1.94  28 1.94  17 1.95  30 1.96  18 1.97   3 3.32   6 3.32
                             5 3.32   2 3.32   1 3.33   4 3.33   6 3.38   3 3.38
  13  0.750  0.250  0.500-   7 1.94   8 1.94   4 2.76   5 2.76   1 2.76   2 2.76
  14  0.584  0.084  0.171-   7 1.88  10 1.97   1 2.70   4 2.70   3 2.79   6 2.79
  15  0.415  0.915  0.832-   9 1.91  10 1.95   3 2.69   6 2.69   5 2.75   2 2.75
  16  0.250  0.750  0.500-   9 1.92  11 1.92   4 2.74   5 2.74   1 2.74   2 2.74
  17  0.085  0.585  0.168-  11 1.91  12 1.95   3 2.69   6 2.69   4 2.75   1 2.75
  18  0.916  0.416  0.829-   8 1.88  12 1.97   2 2.70   5 2.70   3 2.79   6 2.79
  19  0.077  0.089  0.666-   8 1.89   9 1.99   5 2.72   6 2.73   2 2.74   1 2.76
  20  0.911  0.923  0.334-   7 1.89  11 1.99   1 2.72   6 2.73   4 2.74   5 2.76
  21  0.750  0.750  0.000-  10 1.94  12 1.94   4 2.70   5 2.70   3 2.73   6 2.73
  22  0.589  0.577  0.666-   8 1.89   9 1.99   2 2.72   3 2.73   5 2.74   4 2.76
  23  0.423  0.411  0.334-   7 1.89  11 1.99   4 2.72   3 2.73   1 2.74   2 2.76
  24  0.250  0.250  0.000-  10 1.94  12 1.94   1 2.70   2 2.70   3 2.73   6 2.73
  25  0.669  0.169  0.830-   8 1.90  10 1.96   2 2.73   5 2.73   3 2.79   6 2.79
  26  0.502  0.002  0.498-   7 1.90   9 1.95   1 2.74   4 2.74   2 2.77   5 2.77
  27  0.333  0.833  0.167-  11 1.93  10 1.94   3 2.69   6 2.69   4 2.71   1 2.71
  28  0.167  0.667  0.833-   9 1.93  12 1.94   3 2.69   6 2.69   5 2.71   2 2.71
  29  0.998  0.498  0.502-   8 1.90  11 1.95   2 2.74   5 2.74   1 2.77   4 2.77
  30  0.831  0.331  0.170-   7 1.90  12 1.96   1 2.73   4 2.73   3 2.79   6 2.79

  LATTYP: Found a base centered monoclinic cell.
 ALAT       =    10.9127856376
 B/A-ratio  =     0.7118986330
 C/A-ratio  =     2.3719299418
 COS(beta)  =    -0.7728555126

  Lattice vectors:

 A1 = (   3.8576471618,   3.8843985889,   3.8588574693)
 A2 = (   3.8576471618,  -3.8843985889,   3.8588574693)
 A3 = ( -11.5729772343,   0.0000000000, -23.1531087748)

Analysis of symmetry for initial positions (statically):
 Subroutine PRICEL returns:
 Original cell was already a primitive cell.

 Routine SETGRP: Setting up the symmetry group for a
 base centered monoclinic supercell.

 Subroutine GETGRP returns: Found  4 space group operations
 (whereof  2 operations were pure point group operations)
 out of a pool of  4 trial point group operations.

The static configuration has the point symmetry C_2 .
 The point group associated with its full space group is C_2h.

Analysis of symmetry for dynamics (positions and initial velocities):
 Subroutine PRICEL returns:
 Original cell was already a primitive cell.

[...]

The dynamic configuration has the point symmetry C_2 .
 The point group associated with its full space group is C_2h.

Analysis of structural, dynamic, and magnetic symmetry:
 Subroutine PRICEL returns:
 Original cell was already a primitive cell.

 Routine SETGRP: Setting up the symmetry group for a
 base centered monoclinic supercell.

 Subroutine GETGRP returns: Found  4 space group operations
 (whereof  2 operations were pure point group operations)
 out of a pool of  4 trial point group operations.

The magnetic configuration has the point symmetry C_2 .
 The point group associated with its full space group is C_2h.

 Subroutine INISYM returns: Found  4 space group operations
 (whereof  2 operations are pure point group operations),
 and found     1 'primitive' translations

 KPOINTS: Automatic mesh

Automatic generation of k-mesh.
 generate k-points for:    3    3    2
Space group operators:
 irot       det(A)        alpha          n_x          n_y          n_z        tau_x        tau_y        tau_z
    1     1.000000     0.000000     1.000000     0.000000     0.000000     0.000000     0.000000     0.000000
    2     1.000000   180.000000     0.000000     1.000000     0.000000     0.000000     0.000000     0.000000
    3    -1.000000     0.000000     1.000000     0.000000     0.000000     0.500000     0.500000     0.000000
    4    -1.000000   180.000000     0.000000     1.000000     0.000000     0.500000     0.500000     0.000000

 Subroutine IBZKPT returns following result:

 Found      8 irreducible k-points:

 Following reciprocal coordinates:
            Coordinates               Weight
  0.000000  0.000000  0.000000      1.000000
  0.333333 -0.000000 -0.000000      4.000000
  0.333333  0.333333 -0.000000      2.000000
 -0.333333  0.333333  0.000000      2.000000
  0.000000  0.000000  0.500000      1.000000
  0.333333  0.000000  0.500000      4.000000
  0.333333  0.333333  0.500000      2.000000
 -0.333333  0.333333  0.500000      2.000000

 Following cartesian coordinates:
            Coordinates               Weight
  0.000000  0.000000  0.000000      1.000000
  0.028803 -0.042907  0.014397      4.000000
  0.057606  0.000000  0.028794      2.000000
  0.000000  0.085813  0.000000      2.000000
 -0.043204  0.000000  0.043191      1.000000
 -0.014402 -0.042907  0.057588      4.000000
  0.014401  0.000000  0.071985      2.000000
 -0.043204  0.085813  0.043191      2.000000

 TETIRR: Found     25 inequivalent tetrahedra from      108

 SYSTEM =  final
 POSCAR =  SCEL6_3_2_1_1_1_0/5

 Startparameter for this run:
   NWRITE =      2    write-flag & timer
   PREC   = accura    normal or accurate (medium, high low for compatibility)
   ISTART =      0    job   : 0-new  1-cont  2-samecut
   ICHARG =      1    charge: 1-file 2-atom 10-const
   ISPIN  =      2    spin polarized calculation?
   LNONCOLLINEAR =      F non collinear calculations
   LSORBIT =      F    spin-orbit coupling
   INIWAV =      1    electr: 0-lowe 1-rand  2-diag
[...]
     30      -7.0716      1.00000
     31      -7.0311      1.00000
     32      -6.9662      1.00000
     33      -6.8802      1.00000
     34      -6.8738      1.00000
     35      -6.8395      1.00000
     36      -6.8255      1.00000
     37      -6.8088      1.00000
     38      -6.7917      1.00000
     39      -6.7417      1.00000
     40      -6.7037      1.00000
     41      -6.6903      1.00000
     42      -6.6334      1.00000
     43       0.2846      1.00000
     44       0.3524      1.00000
     45       0.4513      1.00000
     46       0.4904      1.00000
     47       0.5963      1.00000
     48       0.7775      1.00000
     49       1.0399      1.00000
     50       1.0747      1.00000
     51       1.2605      1.00000
     52       1.3154      1.00000
     53       1.3630      1.00000
     54       1.4549      1.00000
     55       1.5104      1.00000
     56       1.5382      1.00000
     57       1.5494      1.00000
     58       1.8666      1.00000
     59       1.9024      1.00000
     60       1.9120      1.00000
[...]
    132      11.1279      0.00000
    133      11.1700      0.00000
    134      11.1918      0.00000
    135      11.2437      0.00000
    136      11.2625      0.00000
    137      11.2720      0.00000
    138      11.2965      0.00000
    139      11.3121      0.00000
    140      11.3288      0.00000
    141      11.3424      0.00000
    142      11.3598      0.00000
    143      11.3660      0.00000
    144      11.3811      0.00000
    145      11.4061      0.00000
    146      11.4565      0.00000

[...]

 spin component 2

[...]

 k-point     8 :      -0.3333    0.3333    0.5000
  band No.  band energies     occupation
      1     -23.6332      1.00000
      2     -23.6293      1.00000
      3     -23.6272      1.00000
      4     -23.6247      1.00000
      5     -23.6069      1.00000
      6     -23.5374      1.00000
      7     -11.0508      1.00000
      8     -10.8797      1.00000
      9     -10.8157      1.00000
     10     -10.7783      1.00000
     11     -10.7655      1.00000
     12      -9.8970      1.00000
     13      -9.8040      1.00000
     14      -9.8034      1.00000
     15      -9.7607      1.00000
     16      -9.7307      1.00000
     17      -9.6927      1.00000
     18      -9.6851      1.00000
     19      -9.6055      1.00000
     20      -9.4396      1.00000
     21      -9.4006      1.00000
     22      -9.3320      1.00000
     23      -9.3219      1.00000
     24      -9.1770      1.00000
     25      -7.5456      1.00000
     26      -7.4615      1.00000
     27      -7.4592      1.00000
     28      -7.2252      1.00000
     29      -7.1994      1.00000
     30      -7.1899      1.00000
     31      -7.1718      1.00000
     32      -7.0556      1.00000
     33      -6.9997      1.00000
     34      -6.9386      1.00000
     35      -6.9341      1.00000
     36      -6.9107      1.00000
     37      -6.8894      1.00000
     38      -6.6395      1.00000
     39      -6.6204      1.00000
     40      -6.5659      1.00000
     41      -6.5640      1.00000
     42      -6.4255      1.00000
     43       1.1581      1.00000
     44       2.1009      1.00000
     45       2.1298      1.00000
     46       2.1655      1.00000
     47       2.1838      1.00000
     48       2.4384      1.00000
     49       2.4425      1.00000
     50       2.6287      1.00000
     51       2.6617      1.00000
     52       2.6915      1.00000
     53       2.8175      1.00000
     54       2.8300      1.00000
     55       2.8637      1.00000
     56       2.9379      1.00000
     57       2.9788      1.00000
     58       2.9939      1.00000
     59       2.9991      1.00000
     60       3.0465      1.00000
[...]
    132      11.2926      0.00000
    133      11.3016      0.00000
    134      11.3188      0.00000
    135      11.3239      0.00000
    136      11.3402      0.00000
    137      11.3448      0.00000
    138      11.3543      0.00000
    139      11.3642      0.00000
    140      11.3776      0.00000
    141      11.4039      0.00000
    142      11.4137      0.00000
    143      11.4505      0.00000
    144      11.4690      0.00000
    145      11.4844      0.00000
    146      11.5276      0.00000

 soft charge-density along one line, spin component           1
         0         1         2         3         4         5         6         7         8         9
 total charge-density along one line

 soft charge-density along one line, spin component           2
         0         1         2         3         4         5         6         7         8         9
 total charge-density along one line

------------------------ aborting loop because EDIFF is reached ----------------------------------------

 total charge

# of ion       s       p       d       f       tot
    1        2.000   5.700   0.495   0.192   8.387
    2        2.000   5.700   0.495   0.192   8.387
    3        2.000   5.700   0.494   0.191   8.386
    4        2.000   5.701   0.492   0.192   8.385
    5        2.000   5.701   0.492   0.192   8.385
    6        2.000   5.700   0.494   0.191   8.386
    7        0.360   0.578   4.863   0.000   5.800
    8        0.360   0.578   4.863   0.000   5.800
    9        0.412   0.610   8.318   0.000   9.340
   10        0.410   0.602   8.313   0.000   9.325
   11        0.412   0.610   8.318   0.000   9.340
   12        0.410   0.602   8.313   0.000   9.325
   13        1.561   3.473   0.000   0.000   5.035
   14        1.563   3.456   0.000   0.000   5.020
   15        1.561   3.439   0.000   0.000   5.000
   16        1.559   3.443   0.000   0.000   5.002
   17        1.561   3.439   0.000   0.000   4.999
   18        1.563   3.456   0.000   0.000   5.020
   19        1.562   3.458   0.000   0.000   5.021
   20        1.562   3.460   0.000   0.000   5.023
   21        1.560   3.447   0.000   0.000   5.007
   22        1.562   3.460   0.000   0.000   5.023
   23        1.562   3.458   0.000   0.000   5.021
   24        1.560   3.428   0.000   0.000   4.989
   25        1.562   3.458   0.000   0.000   5.020
   26        1.561   3.459   0.000   0.000   5.020
   27        1.562   3.436   0.000   0.000   4.998
   28        1.562   3.436   0.000   0.000   4.998
   29        1.561   3.459   0.000   0.000   5.020
   30        1.562   3.458   0.000   0.000   5.020
tot         42.472  99.905  45.952   1.152 189.482

 magnetization (x)

[...]

  FORCE on cell =-STRESS in cart. coord.  units (eV):
  Direction    XX          YY          ZZ          XY          YZ          ZX
  Alpha Z   990.32162   990.32162   990.32162
  Ewald   -5304.53505 -5372.14629 -5291.41482    -0.00000    -0.00000    -5.12035
  Hartree  1237.49570  1203.05230  1250.89741    -0.00000     0.00000    -4.25143
  E(xc)   -1066.75481 -1066.89729 -1066.66133    -0.00000    -0.00000    -0.00947
  Local    -777.03435  -684.43157  -802.39897    -0.00000     0.00000     9.82510
  n-local   429.28361   428.68250   429.83944     0.72341     0.62193     0.10488
  augment   633.71875   636.88803   633.36403    -0.00000     0.00000    -0.04604
  Kinetic  3857.39328  3864.48691  3856.09095    -1.43505    -1.04821    -0.53785
  Fock        0.00000     0.00000     0.00000     0.00000     0.00000     0.00000
  Total      -0.11125    -0.04379     0.03834     0.00000     0.00000    -0.03516
  in kB      -0.51374    -0.20224     0.17705     0.00000     0.00000    -0.16238

 VOLUME and BASIS-vectors are now :
  energy-cutoff  :      520.00
  volume of cell :      346.94
      direct lattice vectors                 reciprocal lattice vectors
     3.857647162 -3.884398589  3.858857469     0.086408588 -0.128720055  0.043190545
     3.857647162  3.884398589  3.858857469     0.086408588  0.128720055  0.043190545
    -3.857611413  0.000000000  7.717678898    -0.086408991  0.000000000  0.086381890

  length of vectors
     6.697818674  6.697818674  8.628078197     0.160937006  0.160937006  0.122181605

 FORCES acting on ions
    electron-ion (+dipol)            ewald-force                    non-local-force                 convergence-correction
   0.246E+02 -.242E+02 -.285E+02   -.245E+02 0.240E+02 0.282E+02   -.161E+00 0.210E+00 0.251E+00   0.359E-02 -.261E-02 0.996E-05
   -.246E+02 0.242E+02 0.285E+02   0.245E+02 -.240E+02 -.282E+02   0.161E+00 -.210E+00 -.251E+00   -.359E-02 0.261E-02 -.996E-05
   0.364E-11 0.593E+02 -.692E-12   0.115E-11 -.586E+02 -.398E-12   0.585E-17 -.654E+00 0.260E-17   -.763E-13 0.142E-02 -.923E-13
   0.246E+02 0.242E+02 -.285E+02   -.245E+02 -.240E+02 0.282E+02   -.161E+00 -.210E+00 0.251E+00   0.359E-02 0.261E-02 0.996E-05
   -.246E+02 -.242E+02 0.285E+02   0.245E+02 0.240E+02 -.282E+02   0.161E+00 0.210E+00 -.251E+00   -.359E-02 -.261E-02 -.996E-05
   0.372E-12 -.593E+02 0.624E-13   -.138E-11 0.586E+02 0.298E-12   -.564E-17 0.654E+00 0.325E-17   0.157E-12 -.142E-02 0.198E-13
   0.280E+01 0.236E-11 -.206E+02   -.272E+01 -.528E-11 0.203E+02   -.890E-01 0.000E+00 0.353E+00   -.110E-02 -.708E-13 -.781E-02
   -.280E+01 -.202E-11 0.206E+02   0.272E+01 0.523E-11 -.203E+02   0.890E-01 0.000E+00 -.353E+00   0.110E-02 -.182E-12 0.781E-02
   -.334E+02 -.163E-11 0.114E+02   0.331E+02 -.413E-13 -.114E+02   0.298E+00 0.000E+00 -.326E-01   -.104E-02 0.263E-12 0.399E-02
   -.291E+02 -.124E-11 -.202E+02   0.289E+02 -.897E-13 0.196E+02   0.152E+00 0.000E+00 0.663E+00   -.265E-02 0.189E-12 0.872E-03
   0.334E+02 0.179E-11 -.114E+02   -.331E+02 0.960E-13 0.114E+02   -.298E+00 0.000E+00 0.326E-01   0.104E-02 0.988E-13 -.399E-02
   0.291E+02 0.720E-12 0.202E+02   -.289E+02 0.267E-14 -.196E+02   -.152E+00 0.000E+00 -.663E+00   0.265E-02 -.180E-12 -.872E-03
   0.115E-11 -.123E-11 0.220E-11   -.639E-13 0.895E-14 -.568E-13   0.339E-20 0.000E+00 0.000E+00   0.153E-12 -.160E-12 0.138E-12
   -.116E+02 0.618E-12 -.423E+02   0.124E+02 -.172E-11 0.367E+02   -.808E+00 0.000E+00 0.559E+01   -.599E-03 0.398E-13 -.522E-03
   -.203E+02 -.535E-12 -.177E+01   0.205E+02 0.747E-14 0.278E+01   -.273E+00 0.000E+00 -.101E+01   -.136E-02 0.131E-12 -.117E-02
   -.635E-12 -.223E-12 -.873E-12   0.320E-13 0.203E-15 -.156E-12   0.000E+00 0.000E+00 0.678E-20   -.771E-13 0.166E-12 0.110E-12
   0.203E+02 -.455E-12 0.177E+01   -.205E+02 0.558E-13 -.278E+01   0.273E+00 0.000E+00 0.101E+01   0.136E-02 0.110E-13 0.117E-02
   0.116E+02 -.213E-12 0.423E+02   -.124E+02 0.172E-11 -.367E+02   0.808E+00 0.000E+00 -.559E+01   0.599E-03 -.168E-12 0.522E-03
   -.995E+01 -.413E+02 0.945E+01   0.998E+01 0.358E+02 -.949E+01   -.373E-01 0.543E+01 0.251E-01   0.347E-04 -.159E-02 0.248E-02
   0.995E+01 -.413E+02 -.945E+01   -.998E+01 0.358E+02 0.949E+01   0.373E-01 0.543E+01 -.251E-01   -.347E-04 -.159E-02 -.248E-02
   -.607E-12 0.350E-13 -.632E-12   0.213E-13 0.284E-13 0.320E-13   0.339E-19 0.000E+00 0.136E-19   0.109E-12 -.827E-14 0.612E-13
   -.995E+01 0.413E+02 0.945E+01   0.998E+01 -.358E+02 -.949E+01   -.373E-01 -.543E+01 0.251E-01   0.347E-04 0.159E-02 0.248E-02
   0.995E+01 0.413E+02 -.945E+01   -.998E+01 -.358E+02 0.949E+01   0.373E-01 -.543E+01 -.251E-01   -.347E-04 0.159E-02 -.248E-02
   -.579E-12 -.210E-12 0.451E-12   -.213E-13 0.711E-14 0.711E-14   -.576E-19 0.000E+00 0.678E-20   -.934E-13 -.589E-14 -.216E-13
   -.481E+02 0.994E-13 -.235E+01   0.436E+02 0.425E-14 0.273E+01   0.451E+01 0.000E+00 -.429E+00   -.164E-02 -.366E-13 0.223E-02
   -.464E+02 -.343E-10 -.101E+02   0.425E+02 -.826E-11 0.105E+02   0.398E+01 0.000E+00 -.375E+00   -.209E-02 0.111E-12 -.182E-02
   0.112E+01 -.605E-12 -.112E+02   -.697E+00 -.785E-13 0.111E+02   -.421E+00 0.000E+00 0.164E+00   -.485E-03 0.158E-12 -.149E-02
   -.112E+01 0.141E-12 0.112E+02   0.697E+00 0.647E-13 -.111E+02   0.421E+00 0.000E+00 -.164E+00   0.485E-03 0.499E-13 0.149E-02
   0.464E+02 0.392E-10 0.101E+02   -.425E+02 0.817E-11 -.105E+02   -.398E+01 0.000E+00 0.375E+00   0.209E-02 -.152E-12 0.182E-02
   0.481E+02 -.327E-11 0.235E+01   -.436E+02 0.298E-13 -.273E+01   -.451E+01 0.000E+00 0.429E+00   0.164E-02 -.156E-12 -.223E-02
   0.307E-10 0.214E-11 -.525E-10   0.355E-13 -.222E-13 0.249E-13   0.000E+00 0.000E+00 0.555E-16   -.108E-12 0.105E-12 0.201E-12

 POSITION                                       TOTAL-FORCE (eV/Angst)
      0.01861     -0.02028      3.83313         0.012848     -0.014346     -0.020707
     -0.01858      0.02028      7.74341        -0.012848      0.014346      0.020707
      3.85765      0.05993      3.85886        -0.000000      0.059166      0.000000
      3.87626      0.02028      7.69198         0.012848      0.014346     -0.020707
      3.83907     -0.02028     11.60227        -0.012848     -0.014346      0.020707
      3.85765      3.82447      3.85886        -0.000000     -0.059166      0.000000
      1.92736     -1.94220      5.78182        -0.002059      0.000000      0.000953
      1.93033     -1.94220      9.65358         0.002059      0.000000     -0.000953
      1.93830      1.94220      9.63795         0.009243      0.000000     -0.002405
     -1.92154     -1.94220      9.64341         0.010729      0.000000      0.008308
      1.91938      1.94220      5.79744        -0.009243      0.000000      0.002405
      5.77923     -1.94220      5.79199        -0.010729      0.000000     -0.008308
      1.92884     -1.94220      7.71770        -0.000000      0.000000      0.000000
      1.91969     -1.94220      3.89707        -0.037018      0.000000      0.008972
      1.91995      1.94220     11.55247        -0.064225      0.000000     -0.002345
      1.92884      1.94220      7.71770        -0.000000      0.000000      0.000000
      1.93773      1.94220      3.88292         0.064225      0.000000      0.002345
      1.93799     -1.94220     11.53832         0.037018      0.000000     -0.008972
     -1.92855      0.04723      5.78519        -0.008029     -0.008217     -0.013293
      5.78623      0.04723      9.65021         0.008029     -0.008217      0.013293
      5.78647      0.00000      5.78829        -0.000000      0.000000      0.000000
      1.92910     -0.04723      9.64405        -0.008029      0.008217     -0.013293
      1.92859     -0.04723      5.79135         0.008029      0.008217      0.013293
      1.92882      0.00000      1.92943        -0.000000      0.000000      0.000000
      0.03370     -1.94220      9.63765         0.000053      0.000000     -0.046695
      0.02585     -1.94220      5.78802         0.002937      0.000000      0.000216
      3.84896      1.94220      5.78746         0.004963      0.000000     -0.008950
      0.00872      1.94220      9.64793        -0.004963      0.000000      0.008950
      3.83183     -1.94220      9.64737        -0.002937      0.000000     -0.000216
      3.82398     -1.94220      5.79775        -0.000053      0.000000      0.046695
    total drift:                                0.000000      0.000000     -0.000000

  FREE ENERGIE OF THE ION-ELECTRON SYSTEM (eV)
  free  energy   TOTEN  =      -213.93485719 eV

  energy  without entropy=     -213.93485719  energy(sigma->0) =     -213.93485719

 total charge

[...]

 magnetization (x)

# of ion       s       p       d       f       tot
    1        0.000   0.001   0.005   0.004   0.010
    2        0.000   0.001   0.005   0.004   0.010
    3        0.001   0.000   0.006   0.003   0.010
    4        0.001   0.000   0.009   0.002   0.013
    5        0.001   0.000   0.009   0.002   0.013
    6        0.001   0.000   0.006   0.003   0.010
    7        0.024   0.033   3.190   0.000   3.247
    8        0.024   0.033   3.190   0.000   3.247
    9        0.012   0.003   1.497   0.000   1.512
   10        0.013   0.003   1.509   0.000   1.526
   11        0.012   0.003   1.497   0.000   1.512
   12        0.013   0.003   1.509   0.000   1.526
   13        0.001  -0.015   0.000   0.000  -0.014
   14        0.004  -0.043   0.000   0.000  -0.039
   15        0.006  -0.076   0.000   0.000  -0.070
   16        0.005  -0.062   0.000   0.000  -0.057
   17        0.006  -0.076   0.000   0.000  -0.070
   18        0.004  -0.043   0.000   0.000  -0.039
   19        0.006  -0.010   0.000   0.000  -0.005
   20        0.005  -0.006   0.000   0.000  -0.001
   21        0.005  -0.059   0.000   0.000  -0.053
   22        0.005  -0.006   0.000   0.000  -0.001
   23        0.006  -0.010   0.000   0.000  -0.005
   24        0.006  -0.081   0.000   0.000  -0.076
   25        0.004  -0.026   0.000   0.000  -0.022
   26        0.004  -0.026   0.000   0.000  -0.022
   27        0.006  -0.091   0.000   0.000  -0.086
   28        0.006  -0.091   0.000   0.000  -0.086
   29        0.004  -0.026   0.000   0.000  -0.022
   30        0.004  -0.026   0.000   0.000  -0.022
tot          0.189  -0.692  12.433   0.018  11.948

 BZINTS: Fermi energy:  7.525238;228.000000 electrons
         Band energy:-289.529586;  BLOECHL correction:  0.000000