 vasp.5.4.4.18Apr17-6-g9f103f2a35 (build Oct 03 2018 13:58:34) complex

 executed on             LinuxIFC date 2019.06.04  00:54:50

 INCAR:
 POTCAR:    PAW_PBE La 06Sep2000
 POTCAR:    PAW_PBE Mn 06Sep2000
 POTCAR:    PAW_PBE Ni 02Aug2007
 POTCAR:    PAW_PBE O 08Apr2002

 POTCAR:    PAW_PBE La 06Sep2000
   VRHFIN =La : [core=Kr4d]

   TITEL  = PAW_PBE La 06Sep2000
   POMASS =  138.900; ZVAL   =   11.000    mass and valenz
   ENMAX  =  219.292; ENMIN  =  164.469 eV

 POTCAR:    PAW_PBE Mn 06Sep2000
   VRHFIN =Mn: d6 s1

   TITEL  = PAW_PBE Mn 06Sep2000
   POMASS =   54.938; ZVAL   =    7.000    mass and valenz
   ENMAX  =  269.864; ENMIN  =  202.398 eV

 POTCAR:    PAW_PBE Ni 02Aug2007
   VRHFIN =Ni:

   TITEL  = PAW_PBE Ni 02Aug2007
   POMASS =   58.690; ZVAL   =   10.000    mass and valenz
   ENMAX  =  269.532; ENMIN  =  202.149 eV

 POTCAR:    PAW_PBE O 08Apr2002
   VRHFIN =O: s2p4

   TITEL  = PAW_PBE O 08Apr2002
   POMASS =   16.000; ZVAL   =    6.000    mass and valenz
   ENMAX  =  400.000; ENMIN  =  300.000 eV

 Optimization of the real space projectors (new method)

 maximal supplied QI-value         = 13.42
 optimisation between [QCUT,QGAM] = [ 11.67, 23.35] = [ 38.16,152.62] Ry
 Optimized for a Real-space Cutoff    1.63 Angstroem

   l    n(q)    QCUT    max X(q) W(low)/X(q) W(high)/X(q)  e(spline)
   0     11    11.673    13.882    0.27E-04    0.79E-05    0.11E-06
   0     11    11.673    12.184    0.39E-04    0.13E-04    0.19E-06
   1     11    11.673     4.523    0.73E-05    0.76E-05    0.12E-06
   1     11    11.673     4.424    0.87E-05    0.13E-04    0.19E-06
   2     10    11.673    52.481    0.65E-04    0.36E-04    0.18E-06
   2     10    11.673    38.501    0.61E-04    0.33E-04    0.17E-06
   3     10    11.673    65.631    0.17E-03    0.14E-03    0.37E-06
   3     10    11.673    56.854    0.17E-03    0.14E-03    0.37E-06
 Optimization of the real space projectors (new method)

[...]

   l    n(q)    QCUT    max X(q) W(low)/X(q) W(high)/X(q)  e(spline)
   2      9    11.539    60.317    0.19E-03    0.47E-04    0.16E-06
   2      9    11.539    55.921    0.19E-03    0.48E-04    0.16E-06
   0     10    11.539    51.690    0.80E-04    0.50E-04    0.24E-06
   0     10    11.539    30.015    0.73E-04    0.45E-04    0.22E-06
   1     10    11.539    18.849    0.87E-04    0.16E-03    0.71E-07
   1     10    11.539    14.624    0.73E-04    0.13E-03    0.64E-07
 Optimization of the real space projectors (new method)

 maximal supplied QI-value         = 24.76
 optimisation between [QCUT,QGAM] = [ 11.64, 23.27] = [ 37.91,151.63] Ry
 Optimized for a Real-space Cutoff    1.14 Angstroem

   l    n(q)    QCUT    max X(q) W(low)/X(q) W(high)/X(q)  e(spline)
   0      8    11.635    20.381    0.10E-03    0.33E-03    0.24E-06
   0      8    11.635    15.268    0.11E-03    0.35E-03    0.26E-06
   1      7    11.635     5.964    0.24E-03    0.31E-03    0.30E-06
   1      7    11.635     5.382    0.22E-03    0.25E-03    0.26E-06
  PAW_PBE La 06Sep2000                  :
  PAW_PBE Mn 06Sep2000                  :
  PAW_PBE Ni 02Aug2007                  :
  PAW_PBE O 08Apr2002                   :

 POSCAR: SCEL5_1_1_5_0_0_0/4
  positions in direct lattice
  velocities in cartesian coordinates
 exchange correlation table for  LEXCH =        8
   RHO(1)=    0.500       N(1)  =     2000
   RHO(2)=  100.500       N(2)  =     4000

 ion  position               nearest neighbor table
   1  0.000  0.000  0.200-  14 2.74  14 2.74  14 2.74  14 2.74  24 2.76  24 2.76  19 2.76  19 2.76
                            20 2.76  25 2.76  20 2.76  25 2.76   9 3.35   9 3.35   9 3.35   9 3.35
   2  0.000  0.000  0.394-  19 2.65  24 2.65  24 2.65  19 2.65  13 2.74  13 2.74  13 2.74  13 2.74
                             9 3.29   9 3.29   9 3.29   9 3.29   7 3.42   7 3.42   7 3.42   7 3.42
   3  0.000  0.000  0.605-  17 2.68  22 2.68  22 2.68  17 2.68  12 2.74  12 2.74  12 2.74  12 2.74
                            18 2.81  23 2.81  18 2.81  23 2.81   8 3.30   8 3.30   8 3.30   8 3.30
   4  0.000  0.000  0.795-  17 2.68  22 2.68  22 2.68  17 2.68  11 2.74  11 2.74  11 2.74  11 2.74
                            21 2.81  16 2.81  21 2.81  16 2.81   8 3.30   8 3.30   8 3.30   8 3.30
   5  0.000  0.000  0.006-  20 2.65  25 2.65  25 2.65  20 2.65  15 2.74  15 2.74  15 2.74  15 2.74
                            10 3.29  10 3.29  10 3.29  10 3.29   6 3.42   6 3.42   6 3.42   6 3.42
   6  0.500  0.500  0.900-  11 1.90  15 1.90  16 1.94  21 1.94  16 1.94  21 1.94   4 3.41   4 3.41
                             4 3.41   4 3.41   5 3.42   5 3.42   5 3.42   5 3.42
   7  0.500  0.500  0.500-  12 1.90  13 1.90  18 1.94  23 1.94  18 1.94  23 1.94   3 3.41   3 3.41
                             3 3.41   3 3.41   2 3.42   2 3.42   2 3.42   2 3.42
   8  0.500  0.500  0.700-  17 1.94  22 1.94  17 1.94  22 1.94  11 1.99  12 1.99   4 3.30   4 3.30
                             4 3.30   4 3.30   3 3.30   3 3.30   3 3.30   3 3.30
   9  0.500  0.500  0.300-  14 1.94  19 1.94  24 1.94  19 1.94  24 1.94  13 1.98   2 3.29   2 3.29
                             2 3.29   2 3.29   1 3.35   1 3.35   1 3.35   1 3.35
  10  0.500  0.500  0.100-  14 1.94  20 1.94  25 1.94  20 1.94  25 1.94  15 1.98   5 3.29   5 3.29
                             5 3.29   5 3.29   1 3.35   1 3.35   1 3.35   1 3.35
  11  0.500  0.500  0.803-   6 1.90   8 1.99   4 2.74   4 2.74   4 2.74   4 2.74
  12  0.500  0.500  0.597-   7 1.90   8 1.99   3 2.74   3 2.74   3 2.74   3 2.74
  13  0.500  0.500  0.402-   7 1.90   9 1.98   2 2.74   2 2.74   2 2.74   2 2.74
  14  0.500  0.500  0.200-   9 1.94  10 1.94   1 2.74   1 2.74   1 2.74   1 2.74
  15  0.500  0.500  0.998-   6 1.90  10 1.98   5 2.74   5 2.74   5 2.74   5 2.74
  16  0.500  0.000  0.900-   6 1.94   6 1.94   4 2.81   4 2.81
  17  0.500  0.000  0.700-   8 1.94   8 1.94   4 2.68   4 2.68   3 2.68   3 2.68
  18  0.500  0.000  0.500-   7 1.94   7 1.94   3 2.81   3 2.81
  19  0.500  0.000  0.301-   9 1.94   9 1.94   2 2.65   2 2.65   1 2.76   1 2.76
  20  0.500  0.000  0.099-  10 1.94  10 1.94   5 2.65   5 2.65   1 2.76   1 2.76
  21  0.000  0.500  0.900-   6 1.94   6 1.94   4 2.81   4 2.81
  22  0.000  0.500  0.700-   8 1.94   8 1.94   4 2.68   4 2.68   3 2.68   3 2.68
  23  0.000  0.500  0.500-   7 1.94   7 1.94   3 2.81   3 2.81
  24  0.000  0.500  0.301-   9 1.94   9 1.94   2 2.65   2 2.65   1 2.76   1 2.76
  25  0.000  0.500  0.099-  10 1.94  10 1.94   5 2.65   5 2.65   1 2.76   1 2.76

  LATTYP: Found a simple tetragonal cell.
 ALAT       =     3.8717857236
 C/A-ratio  =     5.0156232359

  Lattice vectors:

 A1 = (   3.8717857236,   0.0000000000,   0.0000000000)
 A2 = (   0.0000000000,   3.8717857236,   0.0000000000)
 A3 = (   0.0000000000,   0.0000000000,  19.4194184394)

Analysis of symmetry for initial positions (statically):
 Subroutine PRICEL returns:
 Original cell was already a primitive cell.

 Routine SETGRP: Setting up the symmetry group for a
 simple tetragonal supercell.

 Subroutine GETGRP returns: Found 16 space group operations
 (whereof  8 operations were pure point group operations)
 out of a pool of 16 trial point group operations.

The static configuration has the point symmetry C_4v.
 The point group associated with its full space group is D_4h.

Analysis of symmetry for dynamics (positions and initial velocities):
 Subroutine PRICEL returns:
 Original cell was already a primitive cell.

[...]

The dynamic configuration has the point symmetry C_4v.
 The point group associated with its full space group is D_4h.

Analysis of structural, dynamic, and magnetic symmetry:
 Subroutine PRICEL returns:
 Original cell was already a primitive cell.

 Routine SETGRP: Setting up the symmetry group for a
 simple tetragonal supercell.

 Subroutine GETGRP returns: Found 16 space group operations
 (whereof  8 operations were pure point group operations)
 out of a pool of 16 trial point group operations.

The magnetic configuration has the point symmetry C_4v.
 The point group associated with its full space group is D_4h.

 Subroutine INISYM returns: Found 16 space group operations
 (whereof  8 operations are pure point group operations),
 and found     1 'primitive' translations

 KPOINTS: Automatic mesh

Automatic generation of k-mesh.
 generate k-points for:    5    5    1
Space group operators:
 irot       det(A)        alpha          n_x          n_y          n_z        tau_x        tau_y        tau_z
    1     1.000000     0.000000     1.000000     0.000000     0.000000     0.000000     0.000000     0.000000
    2     1.000000    90.000000     0.000000     0.000000    -1.000000     0.000000     0.000000     0.000000
    3     1.000000   180.000000     0.000000     0.000000     1.000000     0.000000     0.000000     0.000000
    4     1.000000    90.000000     0.000000     0.000000     1.000000     0.000000     0.000000     0.000000
    5    -1.000000   179.999999     0.000000     1.000000     0.000000     0.000000     0.000000     0.000000
    6    -1.000000   180.000000     0.707107     0.707107     0.000000     0.000000     0.000000     0.000000
    7    -1.000000   180.000000     1.000000     0.000000     0.000000     0.000000     0.000000     0.000000
    8    -1.000000   180.000000     0.707107    -0.707107     0.000000     0.000000     0.000000     0.000000
    9    -1.000000     0.000000     1.000000     0.000000     0.000000     0.000000     0.000000     0.400000
   10    -1.000000    90.000000     0.000000     0.000000    -1.000000     0.000000     0.000000     0.400000
   11    -1.000000   180.000000     0.000000     0.000000     1.000000     0.000000     0.000000     0.400000
   12    -1.000000    90.000000     0.000000     0.000000     1.000000     0.000000     0.000000     0.400000
   13     1.000000   179.999999     0.000000     1.000000     0.000000     0.000000     0.000000     0.400000
   14     1.000000   180.000000     0.707107     0.707107     0.000000     0.000000     0.000000     0.400000
   15     1.000000   180.000000     1.000000     0.000000     0.000000     0.000000     0.000000     0.400000
   16     1.000000   180.000000     0.707107    -0.707107     0.000000     0.000000     0.000000     0.400000

 Subroutine IBZKPT returns following result:

 Found      6 irreducible k-points:

 Following reciprocal coordinates:
            Coordinates               Weight
  0.000000  0.000000  0.000000      1.000000
  0.200000  0.000000  0.000000      4.000000
  0.400000  0.000000  0.000000      4.000000
  0.200000  0.200000  0.000000      4.000000
  0.400000  0.200000  0.000000      8.000000
  0.400000  0.400000  0.000000      4.000000

 Following cartesian coordinates:
            Coordinates               Weight
  0.000000  0.000000  0.000000      1.000000
  0.051656  0.000000  0.000000      4.000000
  0.103312  0.000000  0.000000      4.000000
  0.051656  0.051656  0.000000      4.000000
  0.103312  0.051656  0.000000      8.000000
  0.103312  0.103312  0.000000      4.000000

 TETIRR: Found     31 inequivalent tetrahedra from      150

 SYSTEM =  final
 POSCAR =  SCEL5_1_1_5_0_0_0/4

 Startparameter for this run:
   NWRITE =      2    write-flag & timer
[...]
       1 -95.1960       2 -95.2617       3 -95.4055       4 -95.4056       5 -95.2617
       6 -42.9958       7 -42.9958       8 -83.7781       9 -83.8002      10 -83.8002
      11 -66.8974      12 -66.8974      13 -66.8578      14 -66.6104      15 -66.8578
      16 -67.0782      17 -66.7295      18 -67.0782      19 -66.6443      20 -66.6443
      21 -67.0782      22 -66.7295      23 -67.0782      24 -66.6443      25 -66.6443

 E-fermi :   7.5669     XC(G=0): -11.7515     alpha+bet :-16.6220

[...]

 k-point     1 :       0.0000    0.0000    0.0000
  band No.  band energies     occupation
      1     -23.9238      1.00000
      2     -23.8717      1.00000
      3     -23.7724      1.00000
      4     -23.7634      1.00000
      5     -23.6554      1.00000
      6     -11.2663      1.00000
      7     -11.1759      1.00000
      8     -10.9085      1.00000
      9     -10.8971      1.00000
     10     -10.7005      1.00000
     11      -9.7309      1.00000
     12      -9.6997      1.00000
     13      -9.6927      1.00000
     14      -9.6913      1.00000
     15      -9.6745      1.00000
     16      -9.5942      1.00000
     17      -9.4806      1.00000
     18      -9.3358      1.00000
     19      -9.3227      1.00000
     20      -9.3010      1.00000
     21      -7.4292      1.00000
     22      -7.4292      1.00000
     23      -7.3455      1.00000
     24      -7.3454      1.00000
     25      -7.3369      1.00000
     26      -7.2789      1.00000
     27      -7.2789      1.00000
     28      -7.2604      1.00000
     29      -7.2604      1.00000
     30      -7.1068      1.00000
     31      -7.1068      1.00000
     32      -7.0438      1.00000
     33      -6.8893      1.00000
     34      -6.5915      1.00000
     35      -6.4524      1.00000
     36       0.6208      1.00000
     37       0.6735      1.00000
     38       1.5823      1.00000
     39       2.2442      1.00000
     40       2.2442      1.00000
     41       2.2557      1.00000
     42       2.2557      1.00000
     43       2.3204      1.00000
     44       2.4698      1.00000
     45       2.4698      1.00000
     46       2.5371      1.00000
     47       2.5371      1.00000
     48       2.5876      1.00000
     49       2.6226      1.00000
     50       2.6308      1.00000
     51       2.7330      1.00000
     52       2.7330      1.00000
     53       2.8888      1.00000
     54       3.0040      1.00000
     55       3.0048      1.00000
     56       3.0311      1.00000
     57       3.0312      1.00000
     58       3.0313      1.00000
     59       3.0313      1.00000
     60       3.1033      1.00000
[...]
    108      10.6128      0.00000
    109      10.7032      0.00000
    110      10.7331      0.00000
    111      10.8740      0.00000
    112      10.9524      0.00000
    113      11.0092      0.00000
    114      11.0620      0.00000
    115      11.1339      0.00000
    116      11.1751      0.00000
    117      11.1988      0.00000
    118      11.2275      0.00000
    119      11.2704      0.00000
    120      11.3023      0.00000
    121      11.3514      0.00000
    122      11.4152      0.00000

[...]

 spin component 2

[...]

 k-point     6 :       0.4000    0.4000    0.0000
  band No.  band energies     occupation
      1     -23.8038      1.00000
      2     -23.7622      1.00000
      3     -23.6492      1.00000
      4     -23.6432      1.00000
      5     -23.5446      1.00000
      6     -10.5985      1.00000
      7     -10.4548      1.00000
      8     -10.3660      1.00000
      9     -10.2398      1.00000
     10     -10.0933      1.00000
     11     -10.0647      1.00000
     12     -10.0502      1.00000
     13     -10.0109      1.00000
     14      -9.7809      1.00000
     15      -9.7694      1.00000
     16      -9.7493      1.00000
     17      -9.7004      1.00000
     18      -9.6805      1.00000
     19      -9.6390      1.00000
     20      -9.4608      1.00000
     21      -7.7588      1.00000
     22      -7.7373      1.00000
     23      -7.6930      1.00000
     24      -7.6240      1.00000
     25      -7.4965      1.00000
     26      -7.4492      1.00000
     27      -7.3943      1.00000
     28      -7.3316      1.00000
     29      -7.1686      1.00000
     30      -7.0936      1.00000
     31      -7.0827      1.00000
     32      -6.9488      1.00000
     33      -6.9402      1.00000
     34      -6.8061      1.00000
     35      -6.7219      1.00000
     36       1.1438      1.00000
     37       1.1739      1.00000
     38       1.6210      1.00000
     39       1.6548      1.00000
     40       1.8275      1.00000
     41       1.9611      1.00000
     42       2.0710      1.00000
     43       2.2742      1.00000
     44       2.4927      1.00000
     45       2.5614      1.00000
     46       2.5918      1.00000
     47       2.6488      1.00000
     48       2.6649      1.00000
     49       2.6710      1.00000
     50       3.0036      1.00000
     51       3.0038      1.00000
     52       3.1628      1.00000
     53       3.1974      1.00000
     54       3.3215      1.00000
     55       3.5144      1.00000
     56       3.5147      1.00000
     57       3.6378      1.00000
     58       3.7073      1.00000
     59       3.7178      1.00000
     60       4.0056      1.00000
[...]
    108      11.1666      0.00000
    109      11.1711      0.00000
    110      11.1900      0.00000
    111      11.2115      0.00000
    112      11.2290      0.00000
    113      11.2465      0.00000
    114      11.2784      0.00000
    115      11.2955      0.00000
    116      11.3204      0.00000
    117      11.3285      0.00000
    118      11.3403      0.00000
    119      11.3601      0.00000
    120      11.3918      0.00000
    121      11.4359      0.00000
    122      11.4806      0.00000

 soft charge-density along one line, spin component           1
         0         1         2         3         4         5         6         7         8         9
 total charge-density along one line

 soft charge-density along one line, spin component           2
         0         1         2         3         4         5         6         7         8         9
 total charge-density along one line

------------------------ aborting loop because EDIFF is reached ----------------------------------------

 total charge

# of ion       s       p       d       f       tot
    1        1.999   5.698   0.482   0.186   8.367
    2        2.002   5.699   0.502   0.194   8.398
    3        2.001   5.699   0.495   0.192   8.388
    4        2.000   5.699   0.495   0.192   8.388
    5        2.002   5.699   0.502   0.194   8.398
    6        0.340   0.525   4.867   0.000   5.732
    7        0.340   0.525   4.868   0.000   5.733
    8        0.412   0.608   8.333   0.000   9.353
    9        0.420   0.625   8.318   0.000   9.363
   10        0.420   0.625   8.318   0.000   9.363
   11        1.562   3.453   0.000   0.000   5.015
   12        1.562   3.453   0.000   0.000   5.015
   13        1.562   3.453   0.000   0.000   5.015
   14        1.562   3.425   0.000   0.000   4.987
   15        1.562   3.453   0.000   0.000   5.015
   16        1.559   3.514   0.000   0.000   5.073
   17        1.556   3.507   0.000   0.000   5.063
   18        1.559   3.515   0.000   0.000   5.074
   19        1.558   3.512   0.000   0.000   5.069
   20        1.558   3.512   0.000   0.000   5.069
   21        1.571   3.381   0.000   0.000   4.953
   22        1.561   3.403   0.000   0.000   4.964
   23        1.571   3.382   0.000   0.000   4.953
   24        1.564   3.371   0.000   0.000   4.935
   25        1.564   3.371   0.000   0.000   4.934
tot         35.364  83.110  37.183   0.959 156.616

 magnetization (x)

[...]

  FORCE on cell =-STRESS in cart. coord.  units (eV):
  Direction    XX          YY          ZZ          XY          YZ          ZX
  Alpha Z   821.32966   821.32966   821.32966
  Ewald   -4257.35806 -4257.35806 -4550.48032    -0.00000    -0.00000    -0.00000
  Hartree  1117.72841  1117.72841   850.28104    -0.00000    -0.00000    -0.00000
  E(xc)    -882.14394  -882.14394  -882.36356     0.00000     0.00000     0.00000
  Local    -845.54755  -845.54755  -285.25605    -0.00000    -0.00000    -0.00000
  n-local   358.68324   350.23716   354.20874    -2.45987     0.00312     0.00095
  augment   479.94537   479.94537   480.19343    -0.00000     0.00000     0.00000
  Kinetic  3166.29690  3255.22809  3211.29024    -7.77055    -0.00641    -0.00238
  Fock        0.00000     0.00000     0.00000     0.00000     0.00000     0.00000
  Total      -0.82341    -0.82341    -0.79682     0.00000    -0.00000     0.00000
  in kB      -4.53179    -4.53179    -4.38544     0.00000    -0.00000     0.00000

 VOLUME and BASIS-vectors are now :
  energy-cutoff  :      520.00
  volume of cell :      291.11
      direct lattice vectors                 reciprocal lattice vectors
     3.871785724  0.000000000  0.000000000     0.258278756  0.000000000  0.000000000
     0.000000000  3.871785724  0.000000000     0.000000000  0.258278756  0.000000000
     0.000000000  0.000000000 19.419418439     0.000000000  0.000000000  0.051494848

  length of vectors
     3.871785724  3.871785724 19.419418439     0.258278756  0.258278756  0.051494848

 FORCES acting on ions
    electron-ion (+dipol)            ewald-force                    non-local-force                 convergence-correction
   0.417E-14 -.113E-13 -.108E-04   0.440E-14 0.319E-14 -.296E-11   0.000E+00 -.203E-19 0.000E+00   0.225E-14 -.665E-14 -.149E-05
   0.147E-13 -.176E-13 -.213E+03   0.735E-14 0.357E-14 0.211E+03   0.542E-19 0.000E+00 0.125E+01   0.578E-14 -.867E-15 -.172E+00
   0.585E-14 -.564E-14 0.109E+03   0.147E-13 -.135E-13 -.108E+03   -.432E-19 0.000E+00 -.833E+00   0.247E-14 -.502E-15 -.302E+00
   0.120E-13 0.342E-14 -.109E+03   -.176E-14 -.185E-13 0.108E+03   0.000E+00 0.000E+00 0.833E+00   0.293E-14 0.346E-14 0.302E+00
   0.585E-14 0.640E-13 0.213E+03   0.513E-14 0.220E-14 -.211E+03   -.813E-19 0.000E+00 -.125E+01   -.906E-14 0.282E-14 0.172E+00
   0.418E-13 0.659E-12 0.263E+02   0.188E-15 -.791E-14 -.265E+02   0.000E+00 -.847E-21 0.439E-01   0.375E-13 0.599E-14 0.170E+00
   0.502E-13 -.621E-13 -.263E+02   0.174E-14 -.838E-14 0.265E+02   0.000E+00 0.000E+00 -.439E-01   0.306E-13 0.240E-13 -.170E+00
   0.281E-12 0.185E-11 0.395E-05   0.730E-14 0.622E-14 -.993E-10   0.000E+00 0.000E+00 0.000E+00   0.800E-13 0.291E-13 -.162E-05
   0.226E-12 0.246E-11 -.851E+02   -.108E-13 -.432E-14 0.840E+02   -.847E-21 0.000E+00 0.107E+01   0.898E-13 0.705E-14 -.757E-01
   0.285E-12 0.144E-11 0.851E+02   -.110E-13 -.468E-14 -.840E+02   0.106E-20 0.000E+00 -.107E+01   0.797E-13 0.462E-13 0.757E-01
   0.103E-12 0.146E-13 -.661E+02   0.138E-13 0.103E-13 0.610E+02   0.000E+00 0.000E+00 0.493E+01   0.441E-13 -.203E-13 0.147E+00
   0.113E-12 0.984E-12 0.661E+02   0.210E-14 0.624E-14 -.610E+02   0.000E+00 0.000E+00 -.493E+01   0.365E-13 -.857E-15 -.147E+00
   0.105E-12 0.126E-11 -.126E+03   0.495E-14 -.586E-15 0.121E+03   0.339E-20 0.000E+00 0.442E+01   0.501E-13 -.786E-14 -.155E+00
   0.118E-12 -.246E-13 0.555E-04   0.158E-13 -.541E-15 -.888E-10   -.678E-20 0.000E+00 0.542E-19   0.370E-13 0.110E-14 0.599E-06
   0.111E-12 0.153E-11 0.126E+03   0.474E-14 -.528E-15 -.121E+03   -.339E-20 -.169E-20 -.442E+01   0.519E-13 -.106E-13 0.155E+00
   0.117E-12 0.349E-13 0.233E+02   -.376E-14 0.106E-13 -.233E+02   0.339E-20 -.339E-20 -.127E+00   0.382E-13 0.162E-13 0.150E+00
   0.123E-12 0.156E-13 0.416E-04   -.614E-14 -.120E-13 -.332E-10   0.000E+00 -.678E-20 -.163E-18   0.399E-13 0.323E-13 -.916E-06
   0.112E-12 0.308E-13 -.233E+02   -.223E-14 0.132E-13 0.233E+02   0.000E+00 0.339E-20 0.127E+00   0.350E-13 0.434E-14 -.150E+00
   0.104E-12 0.114E-16 -.459E+02   0.212E-15 -.501E-15 0.448E+02   0.847E-21 0.000E+00 0.113E+01   0.455E-13 0.389E-13 -.518E-01
   0.116E-12 0.110E-13 0.459E+02   -.131E-15 -.509E-15 -.448E+02   0.000E+00 0.000E+00 -.113E+01   0.368E-13 0.220E-13 0.518E-01
   0.477E-14 0.132E-12 0.233E+02   0.249E-14 0.145E-13 -.233E+02   0.339E-20 0.000E+00 -.127E+00   -.249E-14 -.148E-13 0.150E+00
   0.415E-14 0.123E-12 0.416E-04   -.119E-13 0.133E-13 -.391E-10   0.000E+00 0.000E+00 -.163E-18   0.873E-15 -.159E-13 -.916E-06
   0.264E-14 0.204E-12 -.233E+02   0.645E-15 0.140E-13 0.233E+02   -.169E-20 0.000E+00 0.127E+00   0.542E-14 -.149E-13 -.150E+00
   0.683E-14 0.118E-12 -.459E+02   -.124E-13 0.299E-14 0.448E+02   0.000E+00 0.000E+00 0.113E+01   -.577E-14 -.130E-13 -.518E-01
   0.433E-15 0.844E-13 0.459E+02   -.111E-13 0.237E-14 -.448E+02   -.339E-20 0.212E-21 -.113E+01   0.200E-14 -.127E-13 0.518E-01
   0.207E-11 0.109E-10 0.611E-04   0.143E-13 0.309E-13 0.128E-12   -.743E-19 -.294E-19 0.000E+00   0.737E-12 0.114E-12 -.106E-05

 POSITION                                       TOTAL-FORCE (eV/Angst)
      0.00000      0.00000      3.88388         0.000000      0.000000      0.000000
      0.00000      0.00000      7.64714        -0.000000      0.000000     -0.182861
      0.00000      0.00000     11.74312         0.000000      0.000000     -0.031726
      0.00000      0.00000     15.44406         0.000000      0.000000      0.031726
      0.00000      0.00000      0.12063         0.000000      0.000000      0.182861
      1.93589      1.93589     17.48366         0.000000      0.000000      0.052013
      1.93589      1.93589      9.70353         0.000000      0.000000     -0.052013
      1.93589      1.93589     13.59359         0.000000     -0.000000      0.000000
      1.93589      1.93589      5.81958         0.000000     -0.000000     -0.040157
      1.93589      1.93589      1.94819         0.000000     -0.000000      0.040157
      1.93589      1.93589     15.58663         0.000000      0.000000     -0.061303
      1.93589      1.93589     11.60056         0.000000      0.000000      0.061303
      1.93589      1.93589      7.79996         0.000000     -0.000000      0.034596
      1.93589      1.93589      3.88388        -0.000000      0.000000      0.000000
      1.93589      1.93589     19.38723         0.000000     -0.000000     -0.034596
      1.93589      0.00000     17.47465         0.000000      0.000000     -0.023928
      1.93589      0.00000     13.59359         0.000000      0.000000      0.000000
      1.93589      0.00000      9.71254         0.000000      0.000000      0.023928
      1.93589      0.00000      5.84439         0.000000      0.000000      0.024243
      1.93589      0.00000      1.92338         0.000000      0.000000     -0.024243
      0.00000      1.93589     17.47465         0.000000      0.000000     -0.023928
      0.00000      1.93589     13.59359         0.000000      0.000000      0.000000
      0.00000      1.93589      9.71254         0.000000     -0.000000      0.023928
      0.00000      1.93589      5.84439         0.000000      0.000000      0.024243
      0.00000      1.93589      1.92338         0.000000     -0.000000     -0.024243
    total drift:                                0.000000      0.000000      0.000060

  FREE ENERGIE OF THE ION-ELECTRON SYSTEM (eV)
  free  energy   TOTEN  =      -180.24182539 eV

  energy  without entropy=     -180.24182539  energy(sigma->0) =     -180.24182539

 total charge

[...]

 magnetization (x)

# of ion       s       p       d       f       tot
    1        0.001  -0.001   0.006   0.003   0.008
    2        0.001  -0.000   0.011   0.005   0.016
    3        0.001   0.000   0.009   0.004   0.014
    4        0.001   0.000   0.009   0.004   0.014
    5        0.001  -0.000   0.011   0.004   0.016
    6        0.024   0.021   3.434   0.000   3.479
    7        0.024   0.021   3.435   0.000   3.480
    8        0.015   0.010   1.564   0.000   1.588
    9        0.017   0.011   1.464   0.000   1.493
   10        0.017   0.011   1.464   0.000   1.493
   11        0.005  -0.026   0.000   0.000  -0.021
   12        0.005  -0.026   0.000   0.000  -0.021
   13        0.004  -0.030   0.000   0.000  -0.026
   14        0.006  -0.101   0.000   0.000  -0.095
   15        0.004  -0.030   0.000   0.000  -0.026
   16        0.008  -0.082   0.000   0.000  -0.074
   17        0.010  -0.024   0.000   0.000  -0.014
   18        0.008  -0.082   0.000   0.000  -0.073
   19        0.010  -0.039   0.000   0.000  -0.029
   20        0.010  -0.039   0.000   0.000  -0.029
   21       -0.001  -0.044   0.000   0.000  -0.045
   22        0.002  -0.040   0.000   0.000  -0.038
   23       -0.001  -0.044   0.000   0.000  -0.045
   24        0.001  -0.091   0.000   0.000  -0.089
   25        0.001  -0.091   0.000   0.000  -0.089
tot          0.174  -0.718  11.408   0.020  10.885

 BZINTS: Fermi energy:  7.566927;189.000000 electrons
         Band energy:-257.956568;  BLOECHL correction: -0.190451