 vasp.5.4.4.18Apr17-6-g9f103f2a35 (build Oct 03 2018 13:58:34) complex

 executed on             LinuxIFC date 2019.06.04  01:08:53

 INCAR:
 POTCAR:    PAW_PBE La 06Sep2000
 POTCAR:    PAW_PBE Mn 06Sep2000
 POTCAR:    PAW_PBE Ni 02Aug2007
 POTCAR:    PAW_PBE O 08Apr2002

 POTCAR:    PAW_PBE La 06Sep2000
   VRHFIN =La : [core=Kr4d]

   TITEL  = PAW_PBE La 06Sep2000
   POMASS =  138.900; ZVAL   =   11.000    mass and valenz
   ENMAX  =  219.292; ENMIN  =  164.469 eV

 POTCAR:    PAW_PBE Mn 06Sep2000
   VRHFIN =Mn: d6 s1

   TITEL  = PAW_PBE Mn 06Sep2000
   POMASS =   54.938; ZVAL   =    7.000    mass and valenz
   ENMAX  =  269.864; ENMIN  =  202.398 eV

 POTCAR:    PAW_PBE Ni 02Aug2007
   VRHFIN =Ni:

   TITEL  = PAW_PBE Ni 02Aug2007
   POMASS =   58.690; ZVAL   =   10.000    mass and valenz
   ENMAX  =  269.532; ENMIN  =  202.149 eV

 POTCAR:    PAW_PBE O 08Apr2002
   VRHFIN =O: s2p4

   TITEL  = PAW_PBE O 08Apr2002
   POMASS =   16.000; ZVAL   =    6.000    mass and valenz
   ENMAX  =  400.000; ENMIN  =  300.000 eV

 Optimization of the real space projectors (new method)

 maximal supplied QI-value         = 13.42
 optimisation between [QCUT,QGAM] = [ 11.67, 23.35] = [ 38.16,152.62] Ry
 Optimized for a Real-space Cutoff    1.63 Angstroem

   l    n(q)    QCUT    max X(q) W(low)/X(q) W(high)/X(q)  e(spline)
   0     11    11.673    13.882    0.27E-04    0.79E-05    0.11E-06
   0     11    11.673    12.184    0.39E-04    0.13E-04    0.19E-06
   1     11    11.673     4.523    0.73E-05    0.76E-05    0.12E-06
   1     11    11.673     4.424    0.87E-05    0.13E-04    0.19E-06
   2     10    11.673    52.481    0.65E-04    0.36E-04    0.18E-06
   2     10    11.673    38.501    0.61E-04    0.33E-04    0.17E-06
   3     10    11.673    65.631    0.17E-03    0.14E-03    0.37E-06
   3     10    11.673    56.854    0.17E-03    0.14E-03    0.37E-06
 Optimization of the real space projectors (new method)

[...]

   l    n(q)    QCUT    max X(q) W(low)/X(q) W(high)/X(q)  e(spline)
   2      9    11.539    60.317    0.19E-03    0.47E-04    0.16E-06
   2      9    11.539    55.921    0.19E-03    0.48E-04    0.16E-06
   0     10    11.539    51.690    0.80E-04    0.50E-04    0.24E-06
   0     10    11.539    30.015    0.73E-04    0.45E-04    0.22E-06
   1     10    11.539    18.849    0.87E-04    0.16E-03    0.71E-07
   1     10    11.539    14.624    0.73E-04    0.13E-03    0.64E-07
 Optimization of the real space projectors (new method)

 maximal supplied QI-value         = 24.76
 optimisation between [QCUT,QGAM] = [ 11.64, 23.27] = [ 37.91,151.63] Ry
 Optimized for a Real-space Cutoff    1.14 Angstroem

   l    n(q)    QCUT    max X(q) W(low)/X(q) W(high)/X(q)  e(spline)
   0      8    11.635    20.381    0.10E-03    0.33E-03    0.24E-06
   0      8    11.635    15.268    0.11E-03    0.35E-03    0.26E-06
   1      7    11.635     5.964    0.24E-03    0.31E-03    0.30E-06
   1      7    11.635     5.382    0.22E-03    0.25E-03    0.26E-06
  PAW_PBE La 06Sep2000                  :
  PAW_PBE Mn 06Sep2000                  :
  PAW_PBE Ni 02Aug2007                  :
  PAW_PBE O 08Apr2002                   :

 POSCAR: SCEL4_2_2_1_1_1_0/1
  positions in direct lattice
  velocities in cartesian coordinates
 exchange correlation table for  LEXCH =        8
   RHO(1)=    0.500       N(1)  =     2000
   RHO(2)=  100.500       N(2)  =     4000

 ion  position               nearest neighbor table
   1  0.500  0.000  0.500-  11 2.73  15 2.73  18 2.73  20 2.73  10 2.73  16 2.73  12 2.73  19 2.73
                            13 2.73  14 2.73   9 2.73  17 2.73   5 3.34   8 3.34   6 3.34   6 3.34
   2  0.000  0.500  0.500-  10 2.73  15 2.73  16 2.73  18 2.73  11 2.73  20 2.73  17 2.73  14 2.73
                            19 2.73   9 2.73  13 2.73  12 2.73   5 3.34   7 3.34   6 3.34   5 3.34
   3  0.500  0.500  0.000-  10 2.73  11 2.73  15 2.73  16 2.73  18 2.73  20 2.73   9 2.73  12 2.73
                            17 2.73  13 2.73  14 2.73  19 2.73   5 3.34   6 3.34   6 3.34   8 3.34
   4  0.000  0.000  0.000-  10 2.73  11 2.73  16 2.73  20 2.73  15 2.73  18 2.73  17 2.73  19 2.73
                            13 2.73   9 2.73  14 2.73  12 2.73   5 3.34   5 3.34   6 3.34   7 3.34
   5  0.000  0.000  0.500-   9 1.90  12 1.90  13 1.90  14 1.90  17 1.90  19 1.90   3 3.34   4 3.34
                             1 3.34   2 3.34   4 3.34   2 3.34   1 3.34   3 3.34
   6  0.500  0.500  0.500-  15 1.93  16 1.93  18 1.93  20 1.93   9 1.96  12 1.96   3 3.34   4 3.34
                             1 3.34   2 3.34   3 3.34   1 3.34   2 3.34   4 3.34
   7  0.000  0.500  0.000-  10 1.93  11 1.93  15 1.93  16 1.93  17 1.96  19 1.96   3 3.34   4 3.34
                             1 3.34   2 3.34   2 3.34   4 3.34   3 3.34   1 3.34
   8  0.500  0.000  0.000-  10 1.93  11 1.93  18 1.93  20 1.93  13 1.96  14 1.96   3 3.34   4 3.34
                             1 3.34   2 3.34   1 3.34   3 3.34   4 3.34   2 3.34
   9  0.754  0.754  0.500-   5 1.90   6 1.96   4 2.73   1 2.73   2 2.73   3 2.73
  10  0.250  0.750  0.000-   7 1.93   8 1.93   4 2.73   1 2.73   3 2.73   2 2.73
  11  0.750  0.250  0.000-   7 1.93   8 1.93   4 2.73   2 2.73   3 2.73   1 2.73
  12  0.246  0.246  0.500-   5 1.90   6 1.96   3 2.73   1 2.73   2 2.73   4 2.73
  13  0.754  0.000  0.254-   5 1.90   8 1.96   4 2.73   1 2.73   2 2.73   3 2.73
  14  0.246  0.000  0.746-   5 1.90   8 1.96   1 2.73   4 2.73   2 2.73   3 2.73
  15  0.750  0.500  0.750-   6 1.93   7 1.93   4 2.73   2 2.73   3 2.73   1 2.73
  16  0.250  0.500  0.250-   6 1.93   7 1.93   3 2.73   1 2.73   2 2.73   4 2.73
  17  0.000  0.754  0.254-   5 1.90   7 1.96   4 2.73   1 2.73   2 2.73   3 2.73
  18  0.500  0.750  0.750-   6 1.93   8 1.93   4 2.73   1 2.73   3 2.73   2 2.73
  19  0.000  0.246  0.746-   5 1.90   7 1.96   2 2.73   4 2.73   1 2.73   3 2.73
  20  0.500  0.250  0.250-   6 1.93   8 1.93   3 2.73   1 2.73   2 2.73   4 2.73

  LATTYP: Found a body centered cubic cell.
 ALAT       =     7.7185006779

  Lattice vectors:

 A1 = (  -3.8592503389,   3.8592503389,   3.8592503389)
 A2 = (   3.8592503389,  -3.8592503389,   3.8592503389)
 A3 = (   3.8592503389,   3.8592503389,  -3.8592503389)

Analysis of symmetry for initial positions (statically):
 Subroutine PRICEL returns:
 Original cell was already a primitive cell.

 Routine SETGRP: Setting up the symmetry group for a
 body centered cubic supercell.

 Subroutine GETGRP returns: Found 48 space group operations
 (whereof 12 operations were pure point group operations)
 out of a pool of 48 trial point group operations.

The static configuration has the point symmetry D_3d.
 The point group associated with its full space group is O_h .

Analysis of symmetry for dynamics (positions and initial velocities):
 Subroutine PRICEL returns:
 Original cell was already a primitive cell.

[...]

The dynamic configuration has the point symmetry D_3d.
 The point group associated with its full space group is O_h .

Analysis of structural, dynamic, and magnetic symmetry:
 Subroutine PRICEL returns:
 Original cell was already a primitive cell.

 Routine SETGRP: Setting up the symmetry group for a
 body centered cubic supercell.

 Subroutine GETGRP returns: Found 48 space group operations
 (whereof 12 operations were pure point group operations)
 out of a pool of 48 trial point group operations.

The magnetic configuration has the point symmetry D_3d.
 The point group associated with its full space group is O_h .

 Subroutine INISYM returns: Found 48 space group operations
 (whereof 12 operations are pure point group operations),
 and found     1 'primitive' translations

 KPOINTS: Automatic mesh

Automatic generation of k-mesh.
 generate k-points for:    4    4    4
Space group operators:
 irot       det(A)        alpha          n_x          n_y          n_z        tau_x        tau_y        tau_z
    1     1.000000     0.000001     1.000000     0.000000     0.000000     0.000000     0.000000     0.000000
    2    -1.000000     0.000001     1.000000     0.000000     0.000000     0.000000     0.000000     0.000000
    3     1.000000   180.000000     0.000000     0.707107     0.707107     0.000000     0.000000     0.000000
    4    -1.000000   180.000000     0.000000     0.707107     0.707107     0.000000     0.000000     0.000000
    5     1.000000   180.000000     0.707107     0.000000     0.707107     0.000000     0.000000     0.000000
    6    -1.000000   180.000000     0.707107     0.000000     0.707107     0.000000     0.000000     0.000000
    7     1.000000   120.000000    -0.577350    -0.577350     0.577350     0.000000     0.000000     0.000000
    8    -1.000000   120.000000    -0.577350    -0.577350     0.577350     0.000000     0.000000     0.000000
    9     1.000000   120.000000     0.577350     0.577350    -0.577350     0.000000     0.000000     0.000000
   10    -1.000000   120.000000     0.577350     0.577350    -0.577350     0.000000     0.000000     0.000000
   11     1.000000   180.000000     0.707107    -0.707107     0.000000     0.000000     0.000000     0.000000
   12    -1.000000   180.000000     0.707107    -0.707107     0.000000     0.000000     0.000000     0.000000
   13     1.000000   120.000000    -0.577350    -0.577350    -0.577350     0.500000     0.000000     0.500000
   14    -1.000000   120.000000    -0.577350    -0.577350    -0.577350     0.500000     0.000000     0.500000
   15     1.000000   120.000000     0.577350     0.577350     0.577350     0.000000     0.500000     0.500000
   16    -1.000000   120.000000     0.577350     0.577350     0.577350     0.000000     0.500000     0.500000
   17     1.000000    90.000000     0.000000     0.000000    -1.000000     0.000000     0.500000     0.500000
   18    -1.000000    90.000000     0.000000     0.000000    -1.000000     0.000000     0.500000     0.500000
   19     1.000000    90.000000     0.000000     1.000000     0.000000     0.500000     0.500000     0.000000
   20    -1.000000    90.000000     0.000000     1.000000     0.000000     0.500000     0.500000     0.000000
   21     1.000000   180.000000     0.000000     0.000000     1.000000     0.500000     0.500000     0.000000
   22    -1.000000   180.000000     0.000000     0.000000     1.000000     0.500000     0.500000     0.000000
   23     1.000000   120.000000    -0.577350     0.577350     0.577350     0.000000     0.500000     0.500000
   24    -1.000000   120.000000    -0.577350     0.577350     0.577350     0.000000     0.500000     0.500000
   25     1.000000   120.000000    -0.577350     0.577350    -0.577350     0.500000     0.000000     0.500000
   26    -1.000000   120.000000    -0.577350     0.577350    -0.577350     0.500000     0.000000     0.500000
   27     1.000000    90.000000     0.000000     0.000000     1.000000     0.500000     0.000000     0.500000
   28    -1.000000    90.000000     0.000000     0.000000     1.000000     0.500000     0.000000     0.500000
   29     1.000000    90.000000    -1.000000     0.000000     0.000000     0.500000     0.500000     0.000000
   30    -1.000000    90.000000    -1.000000     0.000000     0.000000     0.500000     0.500000     0.000000
[...]
  0.6304  0.5417  0.5417

[...]

--------------------------------------- Iteration      1(  19)  ---------------------------------------

atom =   1  type =  1  l = 0

[...]

  o =  0.7868  v =  0.0000  1.0000      0.0000  0.0000
  o =  0.7917  v =  1.0000  0.0000      0.0000  0.0000
atom =  20  type =  4  l = 0

 onsite density matrix

[...]

  0.7856

 occupancies and eigenvectors

  o =  0.7856  v =  0.0000  1.0000      0.0000  0.0000
  o =  0.7906  v =  1.0000  0.0000      0.0000  0.0000
 BZINTS: Fermi energy:  7.385210;153.000000 electrons
         Band energy:-178.955721;  BLOECHL correction: -0.037904

 eigenvalue-minimisations  :  2989
 total energy-change (2. order) :-0.7095153E-03  (-0.7578964E-03)
 number of electron     153.0000002 magnetization       6.9999272
 augmentation part       22.2587338 magnetization       5.7775562

 Free energy of the ion-electron system (eV)
  alpha Z        PSCENC =       662.35660528
  Ewald energy   TEWEN  =    -10805.42206903
  -Hartree energ DENC   =     -2526.39573499
  -exchange      EXHF   =         0.00000000
  -V(xc)+E(xc)   XCENC  =       551.62159465
  PAW double counting   =     13027.07249012   -13172.52538220
  entropy T*S    EENTRO =         0.00000000
  eigenvalues    EBANDS =      -178.95572091
  atomic energy  EATOM  =     12301.96174248
  Solvation  Ediel_sol  =         0.00000000
  free energy    TOTEN  =      -140.28647459 eV

  energy without entropy =     -140.28647459  energy(sigma->0) =     -140.28647459

 average (electrostatic) potential at core
  the test charge radii are     1.1480  1.0210  0.9791  0.7215
  (the norm of the test charge is              1.0000)
       1 -95.0550       2 -95.0550       3 -95.0550       4 -95.0550       5 -43.0079
       6 -83.8192       7 -83.8192       8 -83.8192       9 -66.7594      10 -66.6165
      11 -66.6165      12 -66.7594      13 -66.7594      14 -66.7594      15 -66.6165
      16 -66.6165      17 -66.7594      18 -66.6165      19 -66.7594      20 -66.6165

 E-fermi :   7.3852     XC(G=0): -11.8263     alpha+bet :-16.8631

[...]

 k-point     1 :       0.0000    0.0000    0.0000
  band No.  band energies     occupation
      1     -23.5855      1.00000
      2     -23.4562      1.00000
      3     -23.4562      1.00000
      4     -23.4562      1.00000
      5     -10.6733      1.00000
      6     -10.1803      1.00000
      7     -10.1803      1.00000
      8     -10.1803      1.00000
      9      -9.9674      1.00000
     10      -9.9674      1.00000
     11      -9.9674      1.00000
     12      -9.9418      1.00000
     13      -9.8771      1.00000
     14      -9.8771      1.00000
     15      -9.3281      1.00000
     16      -9.3281      1.00000
     17      -7.0955      1.00000
     18      -7.0955      1.00000
     19      -7.0955      1.00000
     20      -6.8843      1.00000
     21      -6.8299      1.00000
     22      -6.8299      1.00000
     23      -6.6406      1.00000
     24      -6.6406      1.00000
     25      -6.6406      1.00000
     26      -6.5559      1.00000
     27      -6.5559      1.00000
     28      -6.5559      1.00000
     29       0.2752      1.00000
     30       0.2753      1.00000
     31       0.3452      1.00000
     32       0.4908      1.00000
     33       0.9056      1.00000
     34       0.9056      1.00000
     35       1.0869      1.00000
     36       1.0869      1.00000
     37       1.0870      1.00000
     38       1.8752      1.00000
     39       1.8752      1.00000
     40       1.8752      1.00000
     41       1.9993      1.00000
     42       1.9993      1.00000
     43       1.9993      1.00000
     44       2.7092      1.00000
     45       2.7092      1.00000
     46       2.7092      1.00000
     47       3.5154      1.00000
     48       3.5154      1.00000
     49       3.5154      1.00000
     50       3.6519      1.00000
     51       3.6519      1.00000
     52       4.3974      1.00000
     53       4.3974      1.00000
     54       4.3974      1.00000
     55       4.6318      1.00000
     56       5.1415      1.00000
     57       5.1415      1.00000
     58       5.1415      1.00000
     59       5.5512      1.00000
     60       5.5512      1.00000
[...]
     84      10.5270      0.00000
     85      10.9015      0.00000
     86      11.0327      0.00000
     87      11.1538      0.00000
     88      11.1891      0.00000
     89      11.2331      0.00000
     90      11.3314      0.00000
     91      11.3920      0.00000
     92      11.4536      0.00000
     93      11.4631      0.00000
     94      11.4832      0.00000
     95      11.5029      0.00000
     96      11.5205      0.00000
     97      11.5321      0.00000
     98      11.5877      0.00000

[...]

 spin component 2

[...]

 k-point     8 :       0.5000    0.5000    0.5000
  band No.  band energies     occupation
      1     -23.5108      1.00000
      2     -23.5108      1.00000
      3     -23.5108      1.00000
      4     -23.4000      1.00000
      5     -11.2180      1.00000
      6     -11.0317      1.00000
      7     -11.0317      1.00000
      8      -9.5939      1.00000
      9      -9.5939      1.00000
     10      -9.5939      1.00000
     11      -9.4475      1.00000
     12      -9.4475      1.00000
     13      -9.4475      1.00000
     14      -9.1854      1.00000
     15      -9.1854      1.00000
     16      -8.9698      1.00000
     17      -7.6206      1.00000
     18      -7.6206      1.00000
     19      -7.6206      1.00000
     20      -6.9854      1.00000
     21      -6.9854      1.00000
     22      -6.9854      1.00000
     23      -6.9485      1.00000
     24      -6.9485      1.00000
     25      -6.9485      1.00000
     26      -6.2359      1.00000
     27      -6.1884      1.00000
     28      -6.1884      1.00000
     29       0.9171      1.00000
     30       2.5993      1.00000
     31       2.5993      1.00000
     32       2.5993      1.00000
     33       2.6849      1.00000
     34       2.6849      1.00000
     35       3.0184      1.00000
     36       3.0184      1.00000
     37       3.0185      1.00000
     38       3.1386      1.00000
     39       3.1386      1.00000
     40       3.1386      1.00000
     41       3.1880      1.00000
     42       3.1922      1.00000
     43       3.1922      1.00000
     44       3.1922      1.00000
     45       3.3203      1.00000
     46       3.3203      1.00000
     47       3.3203      1.00000
     48       3.7635      1.00000
     49       3.7635      1.00000
     50       4.5535      1.00000
     51       4.5535      1.00000
     52       4.5535      1.00000
     53       4.6483      1.00000
     54       4.6483      1.00000
     55       4.6484      1.00000
     56       4.9606      1.00000
     57       4.9606      1.00000
     58       4.9606      1.00000
     59       6.0525      1.00000
     60       6.0525      1.00000
[...]
     84      11.3320      0.00000
     85      11.3585      0.00000
     86      11.3931      0.00000
     87      11.4117      0.00000
     88      11.4318      0.00000
     89      11.4554      0.00000
     90      11.4712      0.00000
     91      11.4830      0.00000
     92      11.5039      0.00000
     93      11.5228      0.00000
     94      11.5814      0.00000
     95      11.6094      0.00000
     96      11.6335      0.00000
     97      11.6554      0.00000
     98      11.6797      0.00000

 soft charge-density along one line, spin component           1
         0         1         2         3         4         5         6         7         8         9
 total charge-density along one line

 soft charge-density along one line, spin component           2
         0         1         2         3         4         5         6         7         8         9
 total charge-density along one line

------------------------ aborting loop because EDIFF is reached ----------------------------------------

 total charge

# of ion       s       p       d       f       tot
    1        2.000   5.701   0.497   0.193   8.390
    2        2.000   5.701   0.496   0.193   8.389
    3        2.000   5.701   0.497   0.193   8.391
    4        2.000   5.702   0.493   0.193   8.388
    5        0.366   0.587   4.878   0.000   5.831
    6        0.416   0.620   8.305   0.000   9.341
    7        0.415   0.623   8.313   0.000   9.351
    8        0.416   0.620   8.322   0.000   9.359
    9        1.563   3.445   0.000   0.000   5.008
   10        1.561   3.430   0.000   0.000   4.991
   11        1.561   3.431   0.000   0.000   4.992
   12        1.563   3.445   0.000   0.000   5.008
   13        1.564   3.466   0.000   0.000   5.029
   14        1.564   3.466   0.000   0.000   5.029
   15        1.561   3.432   0.000   0.000   4.993
   16        1.561   3.432   0.000   0.000   4.994
   17        1.563   3.471   0.000   0.000   5.034
   18        1.561   3.439   0.000   0.000   5.000
   19        1.563   3.471   0.000   0.000   5.034
   20        1.561   3.439   0.000   0.000   5.000
tot         28.358  66.623  31.802   0.771 127.555

 magnetization (x)

[...]

  FORCE on cell =-STRESS in cart. coord.  units (eV):
  Direction    XX          YY          ZZ          XY          YZ          ZX
  Alpha Z   662.35661   662.35661   662.35661
  Ewald   -3601.81707 -3601.81707 -3601.81707     0.00000    -0.00000     0.00000
  Hartree   842.10669   842.10669   842.10669    -0.00000    -0.00000    -0.00000
  E(xc)    -718.12905  -718.12905  -718.12905    -0.00002    -0.00002    -0.00002
  Local    -523.28846  -523.28846  -523.28846    -0.00035    -0.00035    -0.00035
  n-local   290.30730   290.83573   290.80132     0.31461    -1.30321    -0.48176
  augment   471.49807   471.49807   471.49807     0.00031     0.00031     0.00031
  Kinetic  2578.06355  2577.58088  2574.56874    -1.50934     2.66501     0.76860
  Fock        0.00000     0.00000     0.00000     0.00000     0.00000     0.00000
  Total       0.11262     0.11262     0.11262    -0.00000     0.00000    -0.00000
  in kB       0.78480     0.78480     0.78480    -0.00000     0.00000    -0.00000

 VOLUME and BASIS-vectors are now :
  energy-cutoff  :      520.00
  volume of cell :      229.92
      direct lattice vectors                 reciprocal lattice vectors
    -3.859250339  3.859250339  3.859250339     0.000000000  0.129558841  0.129558841
     3.859250339 -3.859250339  3.859250339     0.129558841  0.000000000  0.129558841
     3.859250339  3.859250339 -3.859250339     0.129558841  0.129558841  0.000000000

  length of vectors
     6.684417666  6.684417666  6.684417666     0.183223870  0.183223870  0.183223870

 FORCES acting on ions
    electron-ion (+dipol)            ewald-force                    non-local-force                 convergence-correction
   0.410E-11 0.432E-11 -.413E-11   0.206E-13 0.355E-13 0.711E-13   0.163E-18 -.271E-19 0.136E-18   -.752E-13 -.212E-12 -.659E-13
   0.117E-12 0.116E-12 -.182E-13   0.342E-13 0.142E-13 0.355E-13   0.115E-18 -.183E-18 0.474E-19   -.423E-13 0.116E-12 0.150E-12
   0.106E-11 -.493E-11 0.463E-11   0.571E-13 0.355E-13 0.711E-13   -.271E-19 -.203E-19 -.102E-18   0.205E-12 0.196E-13 -.125E-12
   0.231E-13 0.133E-12 0.135E-13   0.127E-13 0.284E-13 0.426E-13   -.108E-18 0.000E+00 -.542E-19   0.111E-12 0.320E-12 0.192E-12
   0.115E-13 0.110E-13 0.338E-13   -.459E-13 -.115E-12 -.172E-12   -.169E-20 -.339E-20 0.000E+00   -.835E-13 0.403E-13 0.107E-12
   0.621E-11 -.699E-11 0.703E-11   0.853E-13 -.109E-14 -.198E-14   0.381E-20 0.381E-20 0.466E-20   -.123E-12 -.270E-12 -.188E-12
   0.111E-12 -.119E-12 0.212E-12   0.692E-13 0.143E-14 -.509E-13   -.508E-20 -.339E-20 0.102E-19   0.130E-12 0.377E-12 0.243E-12
   -.103E-10 -.105E-10 0.104E-10   0.568E-13 0.593E-13 -.806E-13   0.678E-20 0.000E+00 0.000E+00   0.235E-12 0.299E-13 -.299E-12
   -.260E-06 -.260E-06 -.411E+02   0.675E-13 0.980E-13 0.363E+02   0.190E-16 -.184E-17 0.480E+01   -.849E-08 -.849E-08 -.872E-02
   0.596E-07 -.596E-07 -.746E-12   -.320E-13 -.321E-13 0.782E-13   -.228E-17 0.217E-18 0.434E-17   -.111E-08 0.111E-08 0.133E-13
   -.596E-07 0.596E-07 0.149E-11   -.213E-13 -.130E-13 0.853E-13   -.195E-17 -.173E-17 -.293E-17   0.111E-08 -.111E-08 0.535E-13
   0.260E-06 0.260E-06 0.411E+02   -.103E-12 -.104E-12 -.363E+02   -.336E-17 -.336E-17 -.480E+01   0.849E-08 0.849E-08 0.872E-02
   -.355E-07 -.411E+02 -.851E-07   0.355E-14 0.363E+02 0.776E-13   0.000E+00 0.480E+01 0.000E+00   -.849E-08 -.872E-02 -.849E-08
   0.355E-07 0.411E+02 0.851E-07   -.426E-13 -.363E+02 -.119E-12   0.000E+00 -.480E+01 0.000E+00   0.849E-08 0.872E-02 0.849E-08
   -.911E-07 -.398E-07 0.164E-07   0.355E-14 -.284E-13 -.634E-13   0.412E-17 0.867E-18 -.282E-17   0.111E-08 -.282E-14 -.111E-08
   0.911E-07 0.398E-07 -.164E-07   -.142E-13 0.142E-13 -.538E-13   -.455E-17 0.651E-18 0.239E-17   -.111E-08 0.121E-13 0.111E-08
   -.411E+02 -.355E-07 -.851E-07   0.363E+02 0.335E-13 0.107E-12   0.480E+01 -.694E-17 0.694E-17   -.872E-02 -.849E-08 -.849E-08
   -.398E-07 -.911E-07 0.164E-07   -.807E-13 -.510E-13 -.288E-13   -.542E-18 0.347E-17 -.173E-17   -.165E-13 0.111E-08 -.111E-08
   0.411E+02 0.355E-07 0.851E-07   -.363E+02 -.424E-13 -.120E-12   -.480E+01 0.694E-17 0.000E+00   0.872E-02 0.849E-08 0.849E-08
   0.398E-07 0.911E-07 -.164E-07   -.807E-14 -.190E-13 -.175E-13   0.239E-17 -.759E-18 -.976E-18   -.606E-15 -.111E-08 0.111E-08
   -.699E-11 -.412E-10 0.445E-10   0.559E-13 -.100E-12 -.262E-13   0.239E-17 0.423E-17 0.379E-17   0.104E-12 0.327E-12 -.583E-13

 POSITION                                       TOTAL-FORCE (eV/Angst)
      0.00000      3.85925      0.00000        -0.000000      0.000000     -0.000000
      3.85925      0.00000      0.00000        -0.000000      0.000000     -0.000000
      0.00000      0.00000      3.85925        -0.000000      0.000000     -0.000000
      0.00000      0.00000      0.00000        -0.000000      0.000000     -0.000000
      1.92963      1.92963     -1.92963        -0.000000      0.000000     -0.000000
      1.92963      1.92963      1.92963        -0.000000      0.000000     -0.000000
      1.92963     -1.92963      1.92963        -0.000000      0.000000     -0.000000
     -1.92963      1.92963      1.92963        -0.000000      0.000000     -0.000000
      1.92963      1.92963      3.89286        -0.000000      0.000000     -0.003887
      1.92963     -1.92963      3.85925        -0.000000      0.000000      0.000000
     -1.92963      1.92963      3.85925        -0.000000      0.000000     -0.000000
      1.92963      1.92963     -0.03361        -0.000000      0.000000      0.003887
     -1.92963      3.89286      1.92963        -0.000000     -0.003887     -0.000000
      1.92963      3.82564     -1.92963        -0.000000      0.003887     -0.000000
      1.92963      3.85925      1.92963         0.000000      0.000000      0.000000
      1.92963      0.00000      1.92963        -0.000000      0.000000     -0.000000
      3.89286     -1.92963      1.92963        -0.003887      0.000000     -0.000000
      3.85925      1.92963      1.92963         0.000000      0.000000     -0.000000
      3.82564      1.92963     -1.92963         0.003887      0.000000     -0.000000
      0.00000      1.92963      1.92963         0.000000      0.000000      0.000000
    total drift:                               -0.000000     -0.000000      0.000000

  FREE ENERGIE OF THE ION-ELECTRON SYSTEM (eV)
  free  energy   TOTEN  =      -140.28647459 eV

  energy  without entropy=     -140.28647459  energy(sigma->0) =     -140.28647459

 total charge

[...]

 magnetization (x)

# of ion       s       p       d       f       tot
    1        0.000   0.000   0.005   0.003   0.009
    2        0.000   0.000   0.007   0.003   0.010
    3        0.000   0.001   0.004   0.004   0.008
    4        0.001  -0.000   0.010   0.001   0.012
    5        0.028   0.035   3.203   0.000   3.265
    6        0.012   0.004   1.426   0.000   1.442
    7        0.012   0.006   1.438   0.000   1.457
    8        0.012   0.004   1.445   0.000   1.461
    9        0.004  -0.041   0.000   0.000  -0.037
   10        0.004  -0.086   0.000   0.000  -0.082
   11        0.004  -0.085   0.000   0.000  -0.081
   12        0.004  -0.041   0.000   0.000  -0.037
   13        0.005  -0.023   0.000   0.000  -0.017
   14        0.005  -0.023   0.000   0.000  -0.017
   15        0.005  -0.088   0.000   0.000  -0.083
   16        0.005  -0.087   0.000   0.000  -0.082
   17        0.006  -0.026   0.000   0.000  -0.020
   18        0.005  -0.091   0.000   0.000  -0.085
   19        0.006  -0.026   0.000   0.000  -0.020
   20        0.005  -0.091   0.000   0.000  -0.085
tot          0.125  -0.656   7.538   0.011   7.018

 BZINTS: Fermi energy:  7.385210;153.000000 electrons
         Band energy:-178.955721;  BLOECHL correction: -0.037904