 vasp.5.4.4.18Apr17-6-g9f103f2a35 (build Oct 03 2018 13:58:34) complex

 executed on             LinuxIFC date 2019.06.04  01:15:08

 INCAR:
 POTCAR:    PAW_PBE La 06Sep2000
 POTCAR:    PAW_PBE Mn 06Sep2000
 POTCAR:    PAW_PBE Ni 02Aug2007
 POTCAR:    PAW_PBE O 08Apr2002

 POTCAR:    PAW_PBE La 06Sep2000
   VRHFIN =La : [core=Kr4d]

   TITEL  = PAW_PBE La 06Sep2000
   POMASS =  138.900; ZVAL   =   11.000    mass and valenz
   ENMAX  =  219.292; ENMIN  =  164.469 eV

 POTCAR:    PAW_PBE Mn 06Sep2000
   VRHFIN =Mn: d6 s1

   TITEL  = PAW_PBE Mn 06Sep2000
   POMASS =   54.938; ZVAL   =    7.000    mass and valenz
   ENMAX  =  269.864; ENMIN  =  202.398 eV

 POTCAR:    PAW_PBE Ni 02Aug2007
   VRHFIN =Ni:

   TITEL  = PAW_PBE Ni 02Aug2007
   POMASS =   58.690; ZVAL   =   10.000    mass and valenz
   ENMAX  =  269.532; ENMIN  =  202.149 eV

 POTCAR:    PAW_PBE O 08Apr2002
   VRHFIN =O: s2p4

   TITEL  = PAW_PBE O 08Apr2002
   POMASS =   16.000; ZVAL   =    6.000    mass and valenz
   ENMAX  =  400.000; ENMIN  =  300.000 eV

 Optimization of the real space projectors (new method)

 maximal supplied QI-value         = 13.42
 optimisation between [QCUT,QGAM] = [ 11.67, 23.35] = [ 38.16,152.62] Ry
 Optimized for a Real-space Cutoff    1.63 Angstroem

   l    n(q)    QCUT    max X(q) W(low)/X(q) W(high)/X(q)  e(spline)
   0     11    11.673    13.882    0.27E-04    0.79E-05    0.11E-06
   0     11    11.673    12.184    0.39E-04    0.13E-04    0.19E-06
   1     11    11.673     4.523    0.73E-05    0.76E-05    0.12E-06
   1     11    11.673     4.424    0.87E-05    0.13E-04    0.19E-06
   2     10    11.673    52.481    0.65E-04    0.36E-04    0.18E-06
   2     10    11.673    38.501    0.61E-04    0.33E-04    0.17E-06
   3     10    11.673    65.631    0.17E-03    0.14E-03    0.37E-06
   3     10    11.673    56.854    0.17E-03    0.14E-03    0.37E-06
 Optimization of the real space projectors (new method)

[...]

   l    n(q)    QCUT    max X(q) W(low)/X(q) W(high)/X(q)  e(spline)
   2      9    11.539    60.317    0.19E-03    0.47E-04    0.16E-06
   2      9    11.539    55.921    0.19E-03    0.48E-04    0.16E-06
   0     10    11.539    51.690    0.80E-04    0.50E-04    0.24E-06
   0     10    11.539    30.015    0.73E-04    0.45E-04    0.22E-06
   1     10    11.539    18.849    0.87E-04    0.16E-03    0.71E-07
   1     10    11.539    14.624    0.73E-04    0.13E-03    0.64E-07
 Optimization of the real space projectors (new method)

 maximal supplied QI-value         = 24.76
 optimisation between [QCUT,QGAM] = [ 11.64, 23.27] = [ 37.91,151.63] Ry
 Optimized for a Real-space Cutoff    1.14 Angstroem

   l    n(q)    QCUT    max X(q) W(low)/X(q) W(high)/X(q)  e(spline)
   0      8    11.635    20.381    0.10E-03    0.33E-03    0.24E-06
   0      8    11.635    15.268    0.11E-03    0.35E-03    0.26E-06
   1      7    11.635     5.964    0.24E-03    0.31E-03    0.30E-06
   1      7    11.635     5.382    0.22E-03    0.25E-03    0.26E-06
  PAW_PBE La 06Sep2000                  :
  PAW_PBE Mn 06Sep2000                  :
  PAW_PBE Ni 02Aug2007                  :
  PAW_PBE O 08Apr2002                   :

 POSCAR: SCEL6_1_2_3_1_0_0/1
  positions in direct lattice
  velocities in cartesian coordinates
 exchange correlation table for  LEXCH =        8
   RHO(1)=    0.500       N(1)  =     2000
   RHO(2)=  100.500       N(2)  =     4000

 ion  position               nearest neighbor table
   1  0.000  0.183  0.333-  17 2.67  17 2.67  30 2.69  29 2.69  24 2.78  24 2.78  23 2.78  23 2.78
                            12 3.31  12 3.31  11 3.31  11 3.31   4 3.64
   2  0.000  0.337  0.661-  29 2.65  23 2.70  23 2.70  16 2.72  16 2.72  26 2.73  28 2.76  13 2.80
                            13 2.80  22 2.81  22 2.81  11 3.30  11 3.30   7 3.38   7 3.38  10 3.39
   3  0.000  0.496  0.006-  30 2.65  21 2.70  21 2.70  18 2.72  18 2.72  27 2.73  25 2.76  15 2.80
                            15 2.80  22 2.81  22 2.81  12 3.30  12 3.30   9 3.38   9 3.38   8 3.39
   4  0.000  0.650  0.333-  17 2.67  17 2.67  30 2.69  29 2.69  21 2.78  21 2.78  20 2.78  20 2.78
                            12 3.31  12 3.31  11 3.31  11 3.31   1 3.64
   5  0.000  0.824  0.661-  29 2.65  20 2.70  20 2.70  16 2.72  16 2.72  26 2.73  28 2.76  13 2.80
                            13 2.80  19 2.81  19 2.81  11 3.30  11 3.30   7 3.38   7 3.38  10 3.39
   6  0.000  0.009  0.006-  30 2.65  24 2.70  24 2.70  18 2.72  18 2.72  27 2.73  25 2.76  15 2.80
                            15 2.80  19 2.81  19 2.81  12 3.30  12 3.30   9 3.38   9 3.38   8 3.39
   7  0.500  1.000  0.499-  23 1.90  20 1.90  14 1.94  26 1.95  26 1.95  13 1.99   2 3.38   2 3.38
                             5 3.38   5 3.38
   8  0.500  0.166  0.833-  18 1.91  13 1.92  25 1.95  25 1.95  22 1.95  19 1.95   3 3.39   3 3.39
                             6 3.39   6 3.39
   9  0.500  0.834  0.168-  21 1.90  24 1.90  14 1.94  27 1.95  27 1.95  15 1.99   3 3.38   3 3.38
                             6 3.38   6 3.38
  10  0.500  0.667  0.834-  16 1.91  15 1.92  28 1.95  28 1.95  22 1.95  19 1.95   5 3.39   5 3.39
                             2 3.39   2 3.39
  11  0.500  0.501  0.501-  29 1.95  29 1.95  17 1.96  16 1.99  20 2.00  23 2.00   5 3.30   5 3.30
                             2 3.30   2 3.30   1 3.31   1 3.31   4 3.31   4 3.31
  12  0.500  0.333  0.166-  30 1.95  30 1.95  17 1.96  18 1.99  24 2.00  21 2.00   6 3.30   6 3.30
                             3 3.30   3 3.30   1 3.31   1 3.31   4 3.31   4 3.31
  13  0.500  0.084  0.669-   8 1.92   7 1.99   5 2.80   5 2.80   2 2.80   2 2.80
  14  0.500  0.917  0.333-   9 1.94   7 1.94
  15  0.500  0.749  0.998-  10 1.92   9 1.99   6 2.80   6 2.80   3 2.80   3 2.80
  16  0.500  0.585  0.671-  10 1.91  11 1.99   2 2.72   2 2.72   5 2.72   5 2.72
  17  0.500  0.417  0.333-  12 1.96  11 1.96   1 2.67   4 2.67   1 2.67   4 2.67
  18  0.500  0.248  0.996-   8 1.91  12 1.99   3 2.72   3 2.72   6 2.72   6 2.72
  19  0.500  0.917  0.833-   8 1.95  10 1.95   5 2.81   5 2.81   6 2.81   6 2.81
  20  0.500  0.757  0.502-   7 1.90  11 2.00   5 2.70   5 2.70   4 2.78   4 2.78
  21  0.500  0.589  0.165-   9 1.90  12 2.00   3 2.70   3 2.70   4 2.78   4 2.78
  22  0.500  0.417  0.833-   8 1.95  10 1.95   2 2.81   2 2.81   3 2.81   3 2.81
  23  0.500  0.245  0.502-   7 1.90  11 2.00   2 2.70   2 2.70   1 2.78   1 2.78
  24  0.500  0.076  0.165-   9 1.90  12 2.00   6 2.70   6 2.70   1 2.78   1 2.78
  25  0.000  0.167  0.834-   8 1.95   8 1.95   3 2.76   6 2.76
  26  0.000  0.001  0.503-   7 1.95   7 1.95   2 2.73   5 2.73
  27  0.000  0.832  0.164-   9 1.95   9 1.95   3 2.73   6 2.73
  28  0.000  0.666  0.832-  10 1.95  10 1.95   5 2.76   2 2.76
  29  0.000  0.501  0.503-  11 1.95  11 1.95   5 2.65   2 2.65   1 2.69   4 2.69
  30  0.000  0.332  0.164-  12 1.95  12 1.95   6 2.65   3 2.65   1 2.69   4 2.69

  LATTYP: Found a base centered orthorhombic cell.
 ALAT       =     7.8028012918
 B/A-ratio  =     3.0016654133
 C/A-ratio  =     0.4998899378

  Lattice vectors:

 A1 = (   0.0000000000,   3.9014006410,  11.7106993824)
 A2 = (   0.0000000000,   3.9014006508, -11.7106993824)
 A3 = (  -3.9005418525,   0.0000000000,   0.0000000000)

Analysis of symmetry for initial positions (statically):
 Subroutine PRICEL returns:
 Original cell was already a primitive cell.

 Routine SETGRP: Setting up the symmetry group for a
 base centered orthorhombic supercell.

 Subroutine GETGRP returns: Found  8 space group operations
 (whereof  2 operations were pure point group operations)
 out of a pool of  8 trial point group operations.

The static configuration has the point symmetry C_1h.
 The point group associated with its full space group is D_2h.

Analysis of symmetry for dynamics (positions and initial velocities):
 Subroutine PRICEL returns:
 Original cell was already a primitive cell.

[...]

The dynamic configuration has the point symmetry C_1h.
 The point group associated with its full space group is D_2h.

Analysis of structural, dynamic, and magnetic symmetry:
 Subroutine PRICEL returns:
 Original cell was already a primitive cell.

 Routine SETGRP: Setting up the symmetry group for a
 base centered orthorhombic supercell.

 Subroutine GETGRP returns: Found  8 space group operations
 (whereof  2 operations were pure point group operations)
 out of a pool of  8 trial point group operations.

The magnetic configuration has the point symmetry C_1h.
 The point group associated with its full space group is D_2h.

 Subroutine INISYM returns: Found  8 space group operations
 (whereof  2 operations are pure point group operations),
 and found     1 'primitive' translations

 KPOINTS: Automatic mesh

Automatic generation of k-mesh.
 generate k-points for:    5    3    2
Space group operators:
 irot       det(A)        alpha          n_x          n_y          n_z        tau_x        tau_y        tau_z
    1     1.000000     0.000000     1.000000     0.000000     0.000000     0.000000     0.000000     0.000000
    2    -1.000000   180.000000     1.000000     0.000000     0.000000     0.000000     0.000000     0.000000
    3    -1.000000     0.000000     1.000000     0.000000     0.000000     0.000000     0.833333     0.666667
    4     1.000000   180.000000     1.000000     0.000000     0.000000     0.000000     0.833333     0.666667
    5     1.000000   180.000000     0.000000    -0.000000     1.000000     0.000000     0.500000    -0.000000
    6    -1.000000   180.000000     0.000000    -0.000000     1.000000     0.000000     0.333333    -0.333333
    7     1.000000   180.000000     0.000000    -1.000000    -0.000000     0.000000     0.333333    -0.333333
    8    -1.000000   180.000000     0.000000    -1.000000    -0.000000     0.000000     0.500000    -0.000000

 Subroutine IBZKPT returns following result:

 Found     12 irreducible k-points:

 Following reciprocal coordinates:
            Coordinates               Weight
  0.000000  0.000000  0.000000      1.000000
  0.200000  0.000000  0.000000      2.000000
  0.400000  0.000000  0.000000      2.000000
  0.000000  0.333333 -0.000000      2.000000
  0.200000  0.333333 -0.000000      4.000000
  0.400000  0.333333 -0.000000      4.000000
  0.000000  0.000000  0.500000      1.000000
  0.200000  0.000000  0.500000      2.000000
  0.400000  0.000000  0.500000      2.000000
  0.000000  0.333333  0.500000      2.000000
  0.200000  0.333333  0.500000      4.000000
  0.400000  0.333333  0.500000      4.000000

 Following cartesian coordinates:
            Coordinates               Weight
  0.000000  0.000000  0.000000      1.000000
  0.051275  0.000000  0.000000      2.000000
  0.102550  0.000000  0.000000      2.000000
  0.000000  0.042720  0.014232      2.000000
  0.051275  0.042720  0.014232      4.000000
  0.102550  0.042720  0.014232      4.000000
  0.000000 -0.000000  0.042696      1.000000
  0.051275 -0.000000  0.042696      2.000000
  0.102550 -0.000000  0.042696      2.000000
  0.000000  0.042720  0.056928      2.000000
  0.051275  0.042720  0.056928      4.000000
  0.102550  0.042720  0.056928      4.000000

 TETIRR: Found     87 inequivalent tetrahedra from      180

 SYSTEM =  final
 POSCAR =  SCEL6_1_2_3_1_0_0/1

[...]
     30      -7.6645      1.00000
     31      -7.6402      1.00000
     32      -7.6271      1.00000
     33      -7.6217      1.00000
     34      -7.5506      1.00000
     35      -7.5290      1.00000
     36      -7.5130      1.00000
     37      -7.2828      1.00000
     38      -7.2682      1.00000
     39      -7.1100      1.00000
     40      -7.0963      1.00000
     41      -6.9946      1.00000
     42      -6.9475      1.00000
     43       0.2920      1.00000
     44       0.4435      1.00000
     45       0.5408      1.00000
     46       0.8714      1.00000
     47       1.0163      1.00000
     48       1.1638      1.00000
     49       1.3247      1.00000
     50       1.7190      1.00000
     51       1.7979      1.00000
     52       1.8734      1.00000
     53       1.8752      1.00000
     54       2.0221      1.00000
     55       2.1262      1.00000
     56       2.1653      1.00000
     57       2.2754      1.00000
     58       2.2831      1.00000
     59       2.3770      1.00000
     60       2.3867      1.00000
[...]
    130      10.4939      0.00000
    131      10.5105      0.00000
    132      10.5710      0.00000
    133      10.6570      0.00000
    134      10.6880      0.00000
    135      10.7142      0.00000
    136      10.7309      0.00000
    137      10.7378      0.00000
    138      10.7471      0.00000
    139      10.7767      0.00000
    140      10.7990      0.00000
    141      10.8245      0.00000
    142      10.8461      0.00000
    143      10.8548      0.00000
    144      10.8936      0.00000

[...]

 spin component 2

[...]

 k-point    12 :       0.4000    0.3333    0.5000
  band No.  band energies     occupation
      1     -24.1757      1.00000
      2     -24.1550      1.00000
      3     -24.1402      1.00000
      4     -24.1302      1.00000
      5     -24.1167      1.00000
      6     -24.0985      1.00000
      7     -11.1975      1.00000
      8     -11.0051      1.00000
      9     -10.9082      1.00000
     10     -10.6416      1.00000
     11     -10.5836      1.00000
     12     -10.4034      1.00000
     13     -10.3587      1.00000
     14     -10.3193      1.00000
     15     -10.1635      1.00000
     16     -10.1441      1.00000
     17     -10.0489      1.00000
     18     -10.0189      1.00000
     19      -9.9456      1.00000
     20      -9.9056      1.00000
     21      -9.8803      1.00000
     22      -9.7941      1.00000
     23      -9.7491      1.00000
     24      -9.5339      1.00000
     25      -8.0668      1.00000
     26      -7.9925      1.00000
     27      -7.9082      1.00000
     28      -7.7998      1.00000
     29      -7.7586      1.00000
     30      -7.7478      1.00000
     31      -7.6807      1.00000
     32      -7.6366      1.00000
     33      -7.5887      1.00000
     34      -7.4779      1.00000
     35      -7.4520      1.00000
     36      -7.4114      1.00000
     37      -7.3755      1.00000
     38      -7.2857      1.00000
     39      -7.2601      1.00000
     40      -7.2388      1.00000
     41      -7.1478      1.00000
     42      -6.9875      1.00000
     43       1.2963      1.00000
     44       1.5138      1.00000
     45       1.6354      1.00000
     46       1.8771      1.00000
     47       1.9403      1.00000
     48       2.1463      1.00000
     49       2.2276      1.00000
     50       2.2694      1.00000
     51       2.5691      1.00000
     52       2.6073      1.00000
     53       2.7585      1.00000
     54       2.8697      1.00000
     55       2.9842      1.00000
     56       3.0126      1.00000
     57       3.0610      1.00000
     58       3.0821      1.00000
     59       3.0964      1.00000
     60       3.1218      1.00000
[...]
    130      10.7722      0.00000
    131      10.7877      0.00000
    132      10.7972      0.00000
    133      10.8056      0.00000
    134      10.8131      0.00000
    135      10.8252      0.00000
    136      10.8401      0.00000
    137      10.8532      0.00000
    138      10.8625      0.00000
    139      10.8704      0.00000
    140      10.9027      0.00000
    141      10.9136      0.00000
    142      10.9510      0.00000
    143      11.0120      0.00000
    144      11.2942      0.00000

 soft charge-density along one line, spin component           1
         0         1         2         3         4         5         6         7         8         9
 total charge-density along one line

 soft charge-density along one line, spin component           2
         0         1         2         3         4         5         6         7         8         9
 total charge-density along one line

------------------------ aborting loop because EDIFF is reached ----------------------------------------

 total charge

# of ion       s       p       d       f       tot
    1        1.999   5.695   0.481   0.185   8.360
    2        2.000   5.697   0.487   0.189   8.373
    3        2.000   5.697   0.487   0.189   8.373
    4        1.999   5.695   0.481   0.185   8.360
    5        2.000   5.697   0.487   0.189   8.373
    6        2.000   5.697   0.487   0.189   8.373
    7        0.331   0.508   4.868   0.000   5.706
    8        0.329   0.504   4.869   0.000   5.701
    9        0.331   0.508   4.868   0.000   5.706
   10        0.329   0.504   4.869   0.000   5.701
   11        0.396   0.572   8.333   0.000   9.301
   12        0.396   0.572   8.334   0.000   9.301
   13        1.564   3.458   0.000   0.000   5.022
   14        1.566   3.445   0.000   0.000   5.011
   15        1.564   3.458   0.000   0.000   5.022
   16        1.562   3.459   0.000   0.000   5.021
   17        1.555   3.461   0.000   0.000   5.017
   18        1.562   3.459   0.000   0.000   5.021
   19        1.564   3.454   0.000   0.000   5.018
   20        1.561   3.460   0.000   0.000   5.021
   21        1.561   3.460   0.000   0.000   5.021
   22        1.564   3.454   0.000   0.000   5.018
   23        1.561   3.460   0.000   0.000   5.021
   24        1.561   3.460   0.000   0.000   5.021
   25        1.564   3.454   0.000   0.000   5.018
   26        1.564   3.455   0.000   0.000   5.019
   27        1.564   3.455   0.000   0.000   5.019
   28        1.564   3.454   0.000   0.000   5.018
   29        1.555   3.464   0.000   0.000   5.019
   30        1.555   3.464   0.000   0.000   5.019
tot         42.216  99.581  39.052   1.126 181.974

 magnetization (x)

[...]

  FORCE on cell =-STRESS in cart. coord.  units (eV):
  Direction    XX          YY          ZZ          XY          YZ          ZX
  Alpha Z   973.33606   973.33606   973.33606
  Ewald   -4919.31889 -5070.93213 -5013.91739     0.00000     0.00004     0.00000
  Hartree  1176.31919  1031.61091  1089.10546     0.00000    -0.00001    -0.00000
  E(xc)   -1025.65640 -1025.79449 -1025.77527    -0.00000    -0.00001    -0.00000
  Local    -788.89253  -487.30720  -605.03152    -0.00000    -0.00031     0.00000
  n-local   402.42365   403.05409   402.84453     0.58175     0.01189    -0.00302
  augment   345.18587   342.73025   344.04100    -0.00000     0.00021    -0.00000
  Kinetic  3837.43633  3832.78418  3835.67552    -1.35694    -0.05659     0.01351
  Fock        0.00000     0.00000     0.00000     0.00000     0.00000     0.00000
  Total       0.83329    -0.51832     0.27839     0.00000    -0.00000     0.00000
  in kB       3.74582    -2.32998     1.25145     0.00000    -0.00000     0.00000

 VOLUME and BASIS-vectors are now :
  energy-cutoff  :      520.00
  volume of cell :      356.42
      direct lattice vectors                 reciprocal lattice vectors
     3.900541853  0.000000000  0.000000000     0.256374637  0.000000000  0.000000000
     0.000000000  7.802801292  0.000000000     0.000000000  0.128159101  0.042695998
     0.000000000 -3.901400651 11.710699382     0.000000000 -0.000000000  0.085391996

  length of vectors
     3.900541853  7.802801292 12.343476296     0.256374637  0.135084061  0.085391996

 FORCES acting on ions
    electron-ion (+dipol)            ewald-force                    non-local-force                 convergence-correction
   -.101E-13 0.137E+03 0.657E-03   0.522E-14 -.135E+03 0.331E-03   -.217E-18 -.119E+01 -.492E-11   0.688E-14 -.332E-01 -.978E-05
   -.783E-15 0.675E+02 -.893E+02   -.420E-13 -.670E+02 0.885E+02   0.136E-19 -.489E+00 0.715E+00   0.109E-13 -.292E-01 0.614E-02
   -.246E-14 -.675E+02 0.893E+02   -.105E-13 0.670E+02 -.885E+02   0.000E+00 0.489E+00 -.715E+00   0.929E-14 0.292E-01 -.613E-02
   0.207E-14 -.137E+03 0.690E-03   0.984E-14 0.135E+03 0.307E-03   0.217E-18 0.119E+01 0.492E-11   0.941E-14 0.332E-01 -.138E-04
   0.668E-14 -.675E+02 -.893E+02   -.190E-13 0.670E+02 0.885E+02   0.217E-18 0.489E+00 0.715E+00   0.122E-13 0.292E-01 0.614E-02
   -.393E-15 0.675E+02 0.893E+02   0.668E-13 -.670E+02 -.885E+02   -.217E-18 -.489E+00 -.715E+00   0.711E-14 -.292E-01 -.613E-02
   0.638E-13 0.110E-03 -.518E+01   0.358E-13 -.140E-05 0.478E+01   0.169E-20 -.166E-09 0.398E+00   0.193E-13 -.133E-07 0.120E-01
   0.436E-13 0.108E-03 0.264E+02   0.123E-13 0.293E-04 -.262E+02   0.000E+00 0.658E-10 -.157E+00   0.952E-14 0.402E-06 -.113E-01
   0.402E-13 0.643E-04 0.518E+01   -.153E-13 -.759E-05 -.478E+01   0.000E+00 0.166E-09 -.398E+00   0.201E-13 -.170E-05 -.120E-01
   0.608E-13 0.107E-03 -.264E+02   0.408E-13 0.307E-04 0.262E+02   0.000E+00 -.658E-10 0.157E+00   0.195E-13 -.404E-06 0.113E-01
   0.269E-12 0.175E-03 -.446E+02   -.652E-13 -.613E-05 0.432E+02   0.000E+00 -.578E-09 0.138E+01   0.484E-13 0.128E-05 -.140E-01
   0.299E-12 0.879E-04 0.446E+02   0.760E-13 -.425E-04 -.432E+02   0.000E+00 0.578E-09 -.138E+01   0.326E-13 0.103E-05 0.140E-01
   0.117E-12 0.110E-03 -.146E+02   0.403E-14 -.379E-04 0.126E+02   0.000E+00 -.854E-09 0.204E+01   0.221E-13 0.546E-06 -.150E-01
   0.111E-12 -.845E-03 0.583E-03   -.303E-14 0.313E-04 0.347E-03   0.000E+00 -.169E-20 0.000E+00   0.248E-13 -.101E-05 -.738E-05
   0.996E-13 -.354E-03 0.146E+02   -.192E-13 -.535E-05 -.126E+02   0.847E-21 0.854E-09 -.204E+01   0.238E-13 -.120E-05 0.150E-01
   0.109E-12 0.125E-03 -.784E+02   0.293E-13 -.592E-04 0.739E+02   0.000E+00 -.187E-08 0.448E+01   0.227E-13 0.790E-08 0.166E-01
   0.113E-12 -.908E-03 0.519E-03   0.157E-13 0.823E-04 0.417E-03   0.000E+00 -.339E-20 0.000E+00   0.248E-13 0.758E-06 -.769E-05
   0.115E-12 -.363E-03 0.784E+02   -.443E-13 0.931E-05 -.739E+02   0.000E+00 0.187E-08 -.448E+01   0.217E-13 0.700E-06 -.166E-01
   0.116E-12 -.813E-03 0.673E-03   -.193E-13 0.301E-06 0.202E-03   0.000E+00 -.237E-19 -.136E-19   0.325E-13 0.369E-06 0.934E-06
   0.120E-12 -.703E+02 -.110E+02   -.196E-14 0.651E+02 0.104E+02   -.867E-18 0.517E+01 0.617E+00   0.351E-13 0.400E-01 0.242E-02
   0.117E-12 -.703E+02 0.110E+02   0.527E-14 0.651E+02 -.104E+02   0.000E+00 0.517E+01 -.617E+00   0.401E-13 0.400E-01 -.242E-02
   0.117E-12 -.759E-03 0.647E-03   -.861E-15 -.202E-04 0.223E-03   0.000E+00 0.136E-19 0.000E+00   0.311E-13 -.264E-06 0.137E-05
   0.115E-12 0.703E+02 -.110E+02   0.129E-13 -.651E+02 0.104E+02   0.000E+00 -.517E+01 0.617E+00   0.249E-13 -.400E-01 0.242E-02
   0.120E-12 0.703E+02 0.110E+02   -.485E-13 -.651E+02 -.104E+02   0.867E-18 -.517E+01 -.617E+00   0.327E-13 -.400E-01 -.242E-02
   -.984E-14 -.885E-03 0.241E+02   -.145E-14 -.448E-04 -.247E+02   -.265E-22 -.237E-09 0.567E+00   0.244E-13 0.420E-06 -.997E-02
   -.529E-14 -.395E-03 0.748E+00   0.700E-14 -.464E-05 -.149E+01   0.678E-20 -.336E-09 0.802E+00   0.146E-13 -.532E-06 0.313E-02
   0.510E-15 0.105E-03 -.748E+00   0.119E-13 0.646E-04 0.149E+01   -.136E-19 0.336E-09 -.802E+00   0.137E-13 -.106E-05 -.313E-02
   0.327E-14 -.892E-03 -.241E+02   -.313E-13 -.451E-04 0.247E+02   0.000E+00 0.237E-09 -.567E+00   0.147E-13 -.325E-06 0.998E-02
   -.228E-15 -.414E-03 -.253E+02   -.710E-14 -.696E-05 0.251E+02   0.000E+00 -.774E-10 0.185E+00   0.160E-13 0.395E-06 0.976E-03
   -.494E-14 0.808E-04 0.253E+02   -.498E-14 0.485E-04 -.251E+02   0.000E+00 0.774E-10 -.185E+00   0.290E-13 0.938E-06 -.977E-03
   0.212E-11 -.825E-02 0.521E-02   -.107E-14 -.602E-13 0.711E-14   0.929E-20 0.267E-14 0.333E-15   0.654E-12 0.878E-06 0.582E-06

 POSITION                                       TOTAL-FORCE (eV/Angst)
      0.00000      0.12837      3.90357        -0.000000      0.042442      0.000000
      0.00000      0.05176      7.74080         0.000000      0.026170     -0.071604
      0.00000      3.84964      0.06634        -0.000000     -0.026170      0.071604
      0.00000      3.77303      3.90357         0.000000     -0.042442     -0.000000
      0.00000      3.84964      7.74080        -0.000000     -0.026170     -0.071604
      0.00000      0.05176      0.06634        -0.000000      0.026170      0.071604
      1.95027      5.85210      5.84452        -0.000000     -0.000000      0.014001
      1.95027     -1.95070      9.75019        -0.000000      0.000000     -0.033346
      1.95027      5.85210      1.96261         0.000000      0.000000     -0.014001
      1.95027      1.95070      9.76765        -0.000000     -0.000000      0.033346
      1.95027      1.95070      5.86831        -0.000000     -0.000000      0.002302
      1.95027      1.95070      1.93883        -0.000000      0.000000     -0.002302
      1.95027     -1.95070      7.83188        -0.000000     -0.000000      0.010614
      1.95027      5.85210      3.90357        -0.000000     -0.000000     -0.000000
      1.95027      1.95070     11.68596        -0.000000      0.000000     -0.010614
      1.95027      1.95070      7.85618        -0.000000      0.000000     -0.019564
      1.95027      1.95070      3.90357        -0.000000     -0.000000     -0.000000
      1.95027     -1.95070     11.66166        -0.000000     -0.000000      0.019564
      1.95027      3.90140      9.75892        -0.000000     -0.000000     -0.000000
      1.95027      3.95007      5.87765        -0.000000      0.022414      0.024374
      1.95027      3.95007      1.92949        -0.000000      0.022414     -0.024374
      1.95027      0.00000      9.75892        -0.000000     -0.000000     -0.000000
      1.95027     -0.04867      5.87765        -0.000000     -0.022414      0.024374
      1.95027     -0.04867      1.92949        -0.000000     -0.022414     -0.024374
      0.00000     -1.95070      9.77123        -0.000000     -0.000000      0.033678
      0.00000     -1.95070      5.88505        -0.000000     -0.000000      0.064153
      0.00000      5.85210      1.92209        -0.000000      0.000000     -0.064153
      0.00000      1.95070      9.74660        -0.000000      0.000000     -0.033678
      0.00000      1.95070      5.88546        -0.000000     -0.000000      0.026244
      0.00000      1.95070      1.92168        -0.000000      0.000000     -0.026244
    total drift:                                0.000000     -0.008249      0.005211

  FREE ENERGIE OF THE ION-ELECTRON SYSTEM (eV)
  free  energy   TOTEN  =      -226.61075930 eV

  energy  without entropy=     -226.61075930  energy(sigma->0) =     -226.61075930

 total charge

[...]

 magnetization (x)

# of ion       s       p       d       f       tot
    1        0.000   0.000   0.005   0.003   0.009
    2        0.001   0.001   0.010   0.005   0.017
    3        0.001   0.001   0.010   0.005   0.017
    4        0.000   0.000   0.005   0.003   0.009
    5        0.001   0.001   0.010   0.005   0.017
    6        0.001   0.001   0.010   0.005   0.017
    7        0.025   0.027   3.562   0.000   3.614
    8        0.023   0.023   3.577   0.000   3.623
    9        0.025   0.027   3.562   0.000   3.614
   10        0.023   0.023   3.577   0.000   3.623
   11        0.012   0.008   1.691   0.000   1.711
   12        0.012   0.008   1.691   0.000   1.711
   13        0.004  -0.033   0.000   0.000  -0.028
   14        0.007  -0.054   0.000   0.000  -0.047
   15        0.004  -0.033   0.000   0.000  -0.028
   16        0.005  -0.027   0.000   0.000  -0.022
   17        0.007   0.037   0.000   0.000   0.044
   18        0.005  -0.027   0.000   0.000  -0.022
   19        0.004  -0.046   0.000   0.000  -0.042
   20        0.005  -0.009   0.000   0.000  -0.004
   21        0.005  -0.009   0.000   0.000  -0.004
   22        0.004  -0.047   0.000   0.000  -0.042
   23        0.005  -0.009   0.000   0.000  -0.004
   24        0.005  -0.009   0.000   0.000  -0.004
   25        0.005  -0.046   0.000   0.000  -0.041
   26        0.004  -0.045   0.000   0.000  -0.041
   27        0.004  -0.045   0.000   0.000  -0.041
   28        0.005  -0.046   0.000   0.000  -0.041
   29        0.006   0.020   0.000   0.000   0.026
   30        0.006   0.020   0.000   0.000   0.026
tot          0.216  -0.289  17.710   0.027  17.664

 BZINTS: Fermi energy:  7.776054;222.000000 electrons
         Band energy:-375.707193;  BLOECHL correction: -0.130911