 vasp.5.4.4.18Apr17-6-g9f103f2a35 (build Oct 03 2018 13:58:34) complex

 executed on             LinuxIFC date 2019.06.04  01:08:06

 INCAR:
 POTCAR:    PAW_PBE La 06Sep2000
 POTCAR:    PAW_PBE Mn 06Sep2000
 POTCAR:    PAW_PBE Ni 02Aug2007
 POTCAR:    PAW_PBE O 08Apr2002

 POTCAR:    PAW_PBE La 06Sep2000
   VRHFIN =La : [core=Kr4d]

   TITEL  = PAW_PBE La 06Sep2000
   POMASS =  138.900; ZVAL   =   11.000    mass and valenz
   ENMAX  =  219.292; ENMIN  =  164.469 eV

 POTCAR:    PAW_PBE Mn 06Sep2000
   VRHFIN =Mn: d6 s1

   TITEL  = PAW_PBE Mn 06Sep2000
   POMASS =   54.938; ZVAL   =    7.000    mass and valenz
   ENMAX  =  269.864; ENMIN  =  202.398 eV

 POTCAR:    PAW_PBE Ni 02Aug2007
   VRHFIN =Ni:

   TITEL  = PAW_PBE Ni 02Aug2007
   POMASS =   58.690; ZVAL   =   10.000    mass and valenz
   ENMAX  =  269.532; ENMIN  =  202.149 eV

 POTCAR:    PAW_PBE O 08Apr2002
   VRHFIN =O: s2p4

   TITEL  = PAW_PBE O 08Apr2002
   POMASS =   16.000; ZVAL   =    6.000    mass and valenz
   ENMAX  =  400.000; ENMIN  =  300.000 eV

 Optimization of the real space projectors (new method)

 maximal supplied QI-value         = 13.42
 optimisation between [QCUT,QGAM] = [ 11.67, 23.35] = [ 38.16,152.62] Ry
 Optimized for a Real-space Cutoff    1.63 Angstroem

   l    n(q)    QCUT    max X(q) W(low)/X(q) W(high)/X(q)  e(spline)
   0     11    11.673    13.882    0.27E-04    0.79E-05    0.11E-06
   0     11    11.673    12.184    0.39E-04    0.13E-04    0.19E-06
   1     11    11.673     4.523    0.73E-05    0.76E-05    0.12E-06
   1     11    11.673     4.424    0.87E-05    0.13E-04    0.19E-06
   2     10    11.673    52.481    0.65E-04    0.36E-04    0.18E-06
   2     10    11.673    38.501    0.61E-04    0.33E-04    0.17E-06
   3     10    11.673    65.631    0.17E-03    0.14E-03    0.37E-06
   3     10    11.673    56.854    0.17E-03    0.14E-03    0.37E-06
 Optimization of the real space projectors (new method)

[...]

   l    n(q)    QCUT    max X(q) W(low)/X(q) W(high)/X(q)  e(spline)
   2      9    11.539    60.317    0.19E-03    0.47E-04    0.16E-06
   2      9    11.539    55.921    0.19E-03    0.48E-04    0.16E-06
   0     10    11.539    51.690    0.80E-04    0.50E-04    0.24E-06
   0     10    11.539    30.015    0.73E-04    0.45E-04    0.22E-06
   1     10    11.539    18.849    0.87E-04    0.16E-03    0.71E-07
   1     10    11.539    14.624    0.73E-04    0.13E-03    0.64E-07
 Optimization of the real space projectors (new method)

 maximal supplied QI-value         = 24.76
 optimisation between [QCUT,QGAM] = [ 11.64, 23.27] = [ 37.91,151.63] Ry
 Optimized for a Real-space Cutoff    1.14 Angstroem

   l    n(q)    QCUT    max X(q) W(low)/X(q) W(high)/X(q)  e(spline)
   0      8    11.635    20.381    0.10E-03    0.33E-03    0.24E-06
   0      8    11.635    15.268    0.11E-03    0.35E-03    0.26E-06
   1      7    11.635     5.964    0.24E-03    0.31E-03    0.30E-06
   1      7    11.635     5.382    0.22E-03    0.25E-03    0.26E-06
  PAW_PBE La 06Sep2000                  :
  PAW_PBE Mn 06Sep2000                  :
  PAW_PBE Ni 02Aug2007                  :
  PAW_PBE O 08Apr2002                   :

 POSCAR: SCEL4_1_1_4_0_0_0/2
  positions in direct lattice
  velocities in cartesian coordinates
 exchange correlation table for  LEXCH =        8
   RHO(1)=    0.500       N(1)  =     2000
   RHO(2)=  100.500       N(2)  =     4000

 ion  position               nearest neighbor table
   1  0.000  0.000  0.252-  15 2.71  19 2.71  19 2.71  15 2.71  11 2.73  11 2.73  11 2.73  11 2.73
                            16 2.76  20 2.76  16 2.76  20 2.76   7 3.33   7 3.33   7 3.33   7 3.33
   2  0.000  0.000  0.498-  15 2.71  19 2.71  19 2.71  15 2.71  10 2.73  10 2.73  10 2.73  10 2.73
                            18 2.76  14 2.76  18 2.76  14 2.76   7 3.33   7 3.33   7 3.33   7 3.33
   3  0.000  0.000  0.743-  14 2.64  18 2.64  18 2.64  14 2.64   9 2.73   9 2.73   9 2.73   9 2.73
                            17 2.81  13 2.81  17 2.81  13 2.81   8 3.29   8 3.29   8 3.29   8 3.29
   4  0.000  0.000  0.007-  16 2.64  20 2.64  20 2.64  16 2.64  12 2.73  12 2.73  12 2.73  12 2.73
                            17 2.81  13 2.81  17 2.81  13 2.81   6 3.29   6 3.29   6 3.29   6 3.29
   5  0.500  0.500  0.875-   9 1.89  12 1.89  13 1.93  17 1.93  13 1.93  17 1.93   3 3.41   4 3.41
                             3 3.41   3 3.41   4 3.41   4 3.41   3 3.41   4 3.41
   6  0.500  0.500  0.126-  16 1.93  20 1.93  16 1.93  20 1.93  11 1.95  12 1.98   4 3.29   4 3.29
                             4 3.29   4 3.29   1 3.35   1 3.35   1 3.35   1 3.35
   7  0.500  0.500  0.375-  10 1.90  11 1.90  15 1.93  19 1.93  15 1.93  19 1.93   1 3.33   2 3.33
                             1 3.33   1 3.33   2 3.33   2 3.33   1 3.33   2 3.33
   8  0.500  0.500  0.624-  14 1.93  18 1.93  14 1.93  18 1.93  10 1.95   9 1.98   3 3.29   3 3.29
                             3 3.29   3 3.29   2 3.35   2 3.35   2 3.35   2 3.35
   9  0.500  0.500  0.752-   5 1.89   8 1.98   3 2.73   3 2.73   3 2.73   3 2.73
  10  0.500  0.500  0.498-   7 1.90   8 1.95   2 2.73   2 2.73   2 2.73   2 2.73
  11  0.500  0.500  0.252-   7 1.90   6 1.95   1 2.73   1 2.73   1 2.73   1 2.73
  12  0.500  0.500  0.998-   5 1.89   6 1.98   4 2.73   4 2.73   4 2.73   4 2.73
  13  0.500  0.000  0.875-   5 1.93   5 1.93   3 2.81   4 2.81   3 2.81   4 2.81
  14  0.500  0.000  0.626-   8 1.93   8 1.93   3 2.64   3 2.64   2 2.76   2 2.76
  15  0.500  0.000  0.375-   7 1.93   7 1.93   1 2.71   2 2.71   1 2.71   2 2.71
  16  0.500  0.000  0.124-   6 1.93   6 1.93   4 2.64   4 2.64   1 2.76   1 2.76
  17  0.000  0.500  0.875-   5 1.93   5 1.93   3 2.81   3 2.81   4 2.81   4 2.81
  18  0.000  0.500  0.626-   8 1.93   8 1.93   3 2.64   3 2.64   2 2.76   2 2.76
  19  0.000  0.500  0.375-   7 1.93   7 1.93   1 2.71   1 2.71   2 2.71   2 2.71
  20  0.000  0.500  0.124-   6 1.93   6 1.93   4 2.64   4 2.64   1 2.76   1 2.76

  LATTYP: Found a simple tetragonal cell.
 ALAT       =     3.8578594745
 C/A-ratio  =     4.0033153617

  Lattice vectors:

 A1 = (   3.8578594745,   0.0000000000,   0.0000000000)
 A2 = (   0.0000000000,   3.8578594745,   0.0000000000)
 A3 = (   0.0000000000,   0.0000000000,  15.4442280974)

Analysis of symmetry for initial positions (statically):
 Subroutine PRICEL returns:
 Original cell was already a primitive cell.

 Routine SETGRP: Setting up the symmetry group for a
 simple tetragonal supercell.

 Subroutine GETGRP returns: Found 16 space group operations
 (whereof  8 operations were pure point group operations)
 out of a pool of 16 trial point group operations.

The static configuration has the point symmetry C_4v.
 The point group associated with its full space group is D_4h.

Analysis of symmetry for dynamics (positions and initial velocities):
 Subroutine PRICEL returns:
 Original cell was already a primitive cell.

[...]

The dynamic configuration has the point symmetry C_4v.
 The point group associated with its full space group is D_4h.

Analysis of structural, dynamic, and magnetic symmetry:
 Subroutine PRICEL returns:
 Original cell was already a primitive cell.

 Routine SETGRP: Setting up the symmetry group for a
 simple tetragonal supercell.

 Subroutine GETGRP returns: Found 16 space group operations
 (whereof  8 operations were pure point group operations)
 out of a pool of 16 trial point group operations.

The magnetic configuration has the point symmetry C_4v.
 The point group associated with its full space group is D_4h.

 Subroutine INISYM returns: Found 16 space group operations
 (whereof  8 operations are pure point group operations),
 and found     1 'primitive' translations

 KPOINTS: Automatic mesh

Automatic generation of k-mesh.
 generate k-points for:    5    5    1
Space group operators:
 irot       det(A)        alpha          n_x          n_y          n_z        tau_x        tau_y        tau_z
    1     1.000000     0.000000     1.000000     0.000000     0.000000     0.000000     0.000000     0.000000
    2     1.000000    90.000000     0.000000     0.000000    -1.000000     0.000000     0.000000     0.000000
    3     1.000000   180.000000     0.000000     0.000000     1.000000     0.000000     0.000000     0.000000
    4     1.000000    90.000000     0.000000     0.000000     1.000000     0.000000     0.000000     0.000000
    5    -1.000000   180.000000     0.000000     1.000000     0.000000     0.000000     0.000000     0.000000
    6    -1.000000   180.000000     0.707107     0.707107     0.000000     0.000000     0.000000     0.000000
    7    -1.000000   180.000000     1.000000     0.000000     0.000000     0.000000     0.000000     0.000000
    8    -1.000000   180.000000     0.707107    -0.707107     0.000000     0.000000     0.000000     0.000000
    9    -1.000000     0.000000     1.000000     0.000000     0.000000     0.000000     0.000000     0.750000
   10    -1.000000    90.000000     0.000000     0.000000    -1.000000     0.000000     0.000000     0.750000
   11    -1.000000   180.000000     0.000000     0.000000     1.000000     0.000000     0.000000     0.750000
   12    -1.000000    90.000000     0.000000     0.000000     1.000000     0.000000     0.000000     0.750000
   13     1.000000   180.000000     0.000000     1.000000     0.000000     0.000000     0.000000     0.750000
   14     1.000000   180.000000     0.707107     0.707107     0.000000     0.000000     0.000000     0.750000
   15     1.000000   180.000000     1.000000     0.000000     0.000000     0.000000     0.000000     0.750000
   16     1.000000   180.000000     0.707107    -0.707107     0.000000     0.000000     0.000000     0.750000

 Subroutine IBZKPT returns following result:

 Found      6 irreducible k-points:

 Following reciprocal coordinates:
            Coordinates               Weight
  0.000000  0.000000  0.000000      1.000000
  0.200000  0.000000  0.000000      4.000000
  0.400000  0.000000  0.000000      4.000000
  0.200000  0.200000  0.000000      4.000000
  0.400000  0.200000  0.000000      8.000000
  0.400000  0.400000  0.000000      4.000000

 Following cartesian coordinates:
            Coordinates               Weight
  0.000000  0.000000  0.000000      1.000000
  0.051842  0.000000  0.000000      4.000000
  0.103684  0.000000  0.000000      4.000000
  0.051842  0.051842  0.000000      4.000000
  0.103684  0.051842  0.000000      8.000000
  0.103684  0.103684  0.000000      4.000000

 TETIRR: Found     31 inequivalent tetrahedra from      150

 SYSTEM =  final
 POSCAR =  SCEL4_1_1_4_0_0_0/2

 Startparameter for this run:
   NWRITE =      2    write-flag & timer
   PREC   = accura    normal or accurate (medium, high low for compatibility)
   ISTART =      0    job   : 0-new  1-cont  2-samecut
   ICHARG =      1    charge: 1-file 2-atom 10-const
   ISPIN  =      2    spin polarized calculation?
   LNONCOLLINEAR =      F non collinear calculations
   LSORBIT =      F    spin-orbit coupling
   INIWAV =      1    electr: 0-lowe 1-rand  2-diag
   LASPH  =      F    aspherical Exc in radial PAW
   METAGGA=      F    non-selfconsistent MetaGGA calc.

 Electronic Relaxation 1
[...]
  0.5937  0.6229  0.6229

[...]

--------------------------------------- Iteration      1(  19)  ---------------------------------------

atom =   1  type =  1  l = 0

[...]

  o =  0.7862  v =  0.0000  1.0000      0.0000  0.0000
  o =  0.7922  v =  1.0000  0.0000      0.0000  0.0000
atom =  20  type =  4  l = 0

 onsite density matrix

[...]

  0.7852

 occupancies and eigenvectors

  o =  0.7852  v =  0.0000  1.0000      0.0000  0.0000
  o =  0.7909  v =  1.0000  0.0000      0.0000  0.0000
 BZINTS: Fermi energy:  7.592318;153.000000 electrons
         Band energy:-178.001792;  BLOECHL correction: -0.124712

 eigenvalue-minimisations  :  2287
 total energy-change (2. order) :-0.7350451E-03  (-0.6650307E-03)
 number of electron     153.0000083 magnetization       7.0302467
 augmentation part       22.2437495 magnetization       5.8253747

 Free energy of the ion-electron system (eV)
  alpha Z        PSCENC =       662.52413014
  Ewald energy   TEWEN  =    -10729.34552588
  -Hartree energ DENC   =     -2603.43020550
  -exchange      EXHF   =         0.00000000
  -V(xc)+E(xc)   XCENC  =       551.94136162
  PAW double counting   =     13059.92240157   -13205.64561314
  entropy T*S    EENTRO =         0.00000000
  eigenvalues    EBANDS =      -178.00179184
  atomic energy  EATOM  =     12301.96174248
  Solvation  Ediel_sol  =         0.00000000
  free energy    TOTEN  =      -140.07350054 eV

  energy without entropy =     -140.07350054  energy(sigma->0) =     -140.07350054

 average (electrostatic) potential at core
  the test charge radii are     1.1480  1.0210  0.9791  0.7215
  (the norm of the test charge is              1.0000)
       1 -94.9855       2 -94.9855       3 -95.0661       4 -95.0661       5 -42.8790
       6 -83.7604       7 -83.9479       8 -83.7604       9 -66.7677      10 -66.6373
      11 -66.6373      12 -66.7677      13 -66.9379      14 -66.5896      15 -66.6170
      16 -66.5896      17 -66.9379      18 -66.5896      19 -66.6170      20 -66.5896

 E-fermi :   7.5923     XC(G=0): -11.8244     alpha+bet :-16.8673

[...]

 k-point     1 :       0.0000    0.0000    0.0000
  band No.  band energies     occupation
      1     -23.5981      1.00000
      2     -23.5774      1.00000
      3     -23.4887      1.00000
      4     -23.4493      1.00000
      5     -11.1381      1.00000
      6     -10.8612      1.00000
      7     -10.7767      1.00000
      8     -10.6016      1.00000
      9      -9.6043      1.00000
     10      -9.5838      1.00000
     11      -9.5464      1.00000
     12      -9.3386      1.00000
     13      -9.3087      1.00000
     14      -9.2600      1.00000
     15      -9.2533      1.00000
     16      -9.2148      1.00000
     17      -7.1146      1.00000
     18      -7.1146      1.00000
     19      -7.0788      1.00000
     20      -7.0788      1.00000
     21      -7.0565      1.00000
     22      -6.9718      1.00000
     23      -6.9718      1.00000
     24      -6.9060      1.00000
     25      -6.9060      1.00000
     26      -6.6002      1.00000
     27      -6.5214      1.00000
     28      -6.1799      1.00000
     29       0.5315      1.00000
     30       1.2151      1.00000
     31       1.8175      1.00000
     32       2.1978      1.00000
     33       2.1978      1.00000
     34       2.4133      1.00000
     35       2.4133      1.00000
     36       2.4592      1.00000
     37       2.4592      1.00000
     38       2.5995      1.00000
     39       2.6614      1.00000
     40       2.6619      1.00000
     41       2.7711      1.00000
     42       2.7711      1.00000
     43       3.0390      1.00000
     44       3.1525      1.00000
     45       3.1538      1.00000
     46       3.1574      1.00000
     47       3.1574      1.00000
     48       3.1576      1.00000
     49       3.3992      1.00000
     50       3.3992      1.00000
     51       3.4804      1.00000
     52       3.4804      1.00000
     53       3.5077      1.00000
     54       3.5498      1.00000
     55       3.5498      1.00000
     56       3.6678      1.00000
     57       4.4419      1.00000
     58       4.5632      1.00000
     59       4.7714      1.00000
     60       5.0501      1.00000
[...]
     84       8.3306      0.00000
     85      10.5368      0.00000
     86      10.5524      0.00000
     87      11.0188      0.00000
     88      11.0487      0.00000
     89      11.1706      0.00000
     90      11.2214      0.00000
     91      11.3555      0.00000
     92      11.3898      0.00000
     93      11.4623      0.00000
     94      11.5115      0.00000
     95      11.5520      0.00000
     96      11.5877      0.00000
     97      11.6234      0.00000
     98      11.6363      0.00000

[...]

 spin component 2

[...]

 k-point     6 :       0.4000    0.4000    0.0000
  band No.  band energies     occupation
      1     -23.4742      1.00000
      2     -23.4597      1.00000
      3     -23.3719      1.00000
      4     -23.3415      1.00000
      5     -10.4735      1.00000
      6     -10.2207      1.00000
      7     -10.2136      1.00000
      8     -10.0934      1.00000
      9      -9.8420      1.00000
     10      -9.8372      1.00000
     11      -9.8115      1.00000
     12      -9.6780      1.00000
     13      -9.6212      1.00000
     14      -9.5323      1.00000
     15      -9.4750      1.00000
     16      -9.4453      1.00000
     17      -7.5252      1.00000
     18      -7.4238      1.00000
     19      -7.3651      1.00000
     20      -7.2968      1.00000
     21      -7.2370      1.00000
     22      -7.0981      1.00000
     23      -6.9634      1.00000
     24      -6.8585      1.00000
     25      -6.8283      1.00000
     26      -6.7330      1.00000
     27      -6.5873      1.00000
     28      -6.5241      1.00000
     29       1.0782      1.00000
     30       1.5215      1.00000
     31       1.5955      1.00000
     32       1.8091      1.00000
     33       2.0028      1.00000
     34       2.1681      1.00000
     35       2.3152      1.00000
     36       2.3805      1.00000
     37       2.4191      1.00000
     38       2.6452      1.00000
     39       2.6553      1.00000
     40       2.6716      1.00000
     41       2.6832      1.00000
     42       3.0887      1.00000
     43       3.2828      1.00000
     44       3.4935      1.00000
     45       3.6335      1.00000
     46       3.8203      1.00000
     47       3.8228      1.00000
     48       3.8749      1.00000
     49       3.9953      1.00000
     50       3.9962      1.00000
     51       4.0807      1.00000
     52       4.3644      1.00000
     53       5.4123      1.00000
     54       5.6543      1.00000
     55       5.6804      1.00000
     56       5.9243      1.00000
     57       5.9738      1.00000
     58       6.0494      1.00000
     59       6.0698      1.00000
     60       6.1405      1.00000
[...]
     84      11.3576      0.00000
     85      11.3700      0.00000
     86      11.4037      0.00000
     87      11.4166      0.00000
     88      11.4464      0.00000
     89      11.4791      0.00000
     90      11.4965      0.00000
     91      11.5173      0.00000
     92      11.5352      0.00000
     93      11.5537      0.00000
     94      11.5705      0.00000
     95      11.6031      0.00000
     96      11.6410      0.00000
     97      11.6581      0.00000
     98      11.6909      0.00000

 soft charge-density along one line, spin component           1
         0         1         2         3         4         5         6         7         8         9
 total charge-density along one line

 soft charge-density along one line, spin component           2
         0         1         2         3         4         5         6         7         8         9
 total charge-density along one line

------------------------ aborting loop because EDIFF is reached ----------------------------------------

 total charge

# of ion       s       p       d       f       tot
    1        2.000   5.700   0.493   0.191   8.384
    2        2.000   5.700   0.493   0.191   8.384
    3        2.002   5.701   0.509   0.197   8.409
    4        2.002   5.701   0.509   0.197   8.409
    5        0.343   0.534   4.872   0.000   5.749
    6        0.420   0.627   8.321   0.000   9.368
    7        0.439   0.670   8.318   0.000   9.427
    8        0.420   0.627   8.321   0.000   9.368
    9        1.562   3.460   0.000   0.000   5.022
   10        1.563   3.432   0.000   0.000   4.994
   11        1.563   3.432   0.000   0.000   4.994
   12        1.562   3.459   0.000   0.000   5.022
   13        1.558   3.525   0.000   0.000   5.084
   14        1.557   3.516   0.000   0.000   5.073
   15        1.560   3.507   0.000   0.000   5.067
   16        1.557   3.516   0.000   0.000   5.073
   17        1.572   3.389   0.000   0.000   4.960
   18        1.564   3.376   0.000   0.000   4.941
   19        1.567   3.361   0.000   0.000   4.927
   20        1.564   3.376   0.000   0.000   4.940
tot         28.378  66.608  31.835   0.776 127.596

 magnetization (x)

[...]

  FORCE on cell =-STRESS in cart. coord.  units (eV):
  Direction    XX          YY          ZZ          XY          YZ          ZX
  Alpha Z   662.52413   662.52413   662.52413
  Ewald   -3507.32541 -3507.32541 -3714.72488     0.00000    -0.00000    -0.00000
  Hartree   933.49185   933.49185   736.10241    -0.00000    -0.00000    -0.00000
  E(xc)    -718.24549  -718.24549  -718.34377     0.00000     0.00000    -0.00000
  Local    -709.87145  -709.87145  -303.24150    -0.00000     0.00000     0.00000
  n-local   295.07889   287.14361   291.14082    -2.10350     0.00019    -0.00140
  augment   471.16345   471.16345   470.46673     0.00000    -0.00000     0.00000
  Kinetic  2540.41535  2615.14613  2576.68254    -5.60990    -0.00084     0.00063
  Fock        0.00000     0.00000     0.00000     0.00000     0.00000     0.00000
  Total       0.62907     0.62907     0.60648     0.00000     0.00000     0.00000
  in kB       4.38483     4.38483     4.22734     0.00000     0.00000     0.00000

 VOLUME and BASIS-vectors are now :
  energy-cutoff  :      520.00
  volume of cell :      229.86
      direct lattice vectors                 reciprocal lattice vectors
     3.857859474  0.000000000  0.000000000     0.259211101  0.000000000  0.000000000
     0.000000000  3.857859474  0.000000000     0.000000000  0.259211101  0.000000000
     0.000000000  0.000000000 15.444228097     0.000000000  0.000000000  0.064749108

  length of vectors
     3.857859474  3.857859474 15.444228097     0.259211101  0.259211101  0.064749108

 FORCES acting on ions
    electron-ion (+dipol)            ewald-force                    non-local-force                 convergence-correction
   -.334E-14 -.142E-13 0.760E+02   -.247E-14 -.875E-14 -.756E+02   0.000E+00 0.271E-19 -.334E+00   0.112E-15 0.827E-15 -.355E-01
   0.742E-15 -.131E-13 -.760E+02   0.193E-13 -.749E-14 0.756E+02   0.000E+00 -.271E-19 0.334E+00   0.114E-13 0.908E-14 0.355E-01
   -.523E-14 0.234E-13 -.199E+03   -.268E-13 0.175E-14 0.197E+03   0.271E-19 -.610E-19 0.116E+01   0.648E-14 -.437E-14 0.870E-03
   -.139E-14 -.275E-13 0.199E+03   0.132E-13 0.244E-14 -.197E+03   -.271E-19 0.542E-19 -.116E+01   0.416E-14 -.419E-14 -.870E-03
   0.401E-13 0.686E-12 -.150E-11   0.309E-13 0.634E-14 0.171E-12   0.000E+00 0.424E-21 0.847E-21   0.145E-13 0.248E-13 0.336E-13
   0.252E-12 0.119E-11 0.104E+03   -.275E-14 -.126E-13 -.103E+03   -.424E-21 0.847E-21 -.615E+00   0.622E-13 0.496E-14 -.167E-01
   0.279E-12 -.105E-13 0.224E-11   -.299E-13 -.125E-14 -.142E-12   0.000E+00 0.000E+00 0.000E+00   0.529E-13 0.154E-14 -.203E-12
   0.257E-12 0.192E-11 -.104E+03   -.214E-13 0.183E-14 0.103E+03   0.000E+00 -.318E-21 0.615E+00   0.481E-13 0.103E-13 0.167E-01
   0.114E-12 0.140E-11 -.116E+03   0.219E-13 0.466E-14 0.112E+03   0.000E+00 -.678E-20 0.464E+01   0.352E-14 0.338E-15 -.209E-01
   0.113E-12 0.117E-11 -.519E+02   0.589E-14 0.352E-14 0.537E+02   0.000E+00 0.000E+00 -.188E+01   0.125E-13 -.225E-13 0.194E-01
   0.124E-12 0.166E-11 0.519E+02   0.289E-15 0.523E-14 -.537E+02   0.000E+00 0.000E+00 0.188E+01   0.260E-13 -.105E-13 -.194E-01
   0.114E-12 0.120E-11 0.116E+03   0.197E-13 -.899E-14 -.112E+03   0.000E+00 0.678E-20 -.464E+01   0.206E-13 -.726E-14 0.209E-01
   0.110E-12 0.139E-13 -.284E-11   -.868E-14 0.480E-15 0.185E-12   0.000E+00 0.000E+00 0.542E-19   0.263E-13 -.484E-14 0.669E-13
   0.108E-12 0.129E-12 -.596E+02   -.477E-14 0.101E-13 0.588E+02   0.678E-20 0.847E-21 0.874E+00   0.235E-13 0.342E-13 0.133E-02
   0.112E-12 0.183E-13 0.217E-11   -.206E-13 0.830E-14 -.853E-13   -.339E-20 0.169E-20 0.136E-19   0.269E-13 0.384E-13 -.149E-12
   0.115E-12 -.129E-12 0.596E+02   -.207E-13 0.127E-13 -.588E+02   -.678E-20 0.000E+00 -.874E+00   0.333E-13 0.313E-13 -.133E-02
   -.309E-14 0.233E-12 0.637E-12   -.514E-13 -.507E-14 0.185E-12   0.169E-20 0.000E+00 0.542E-19   0.165E-13 -.839E-14 0.731E-13
   -.696E-14 -.261E-12 -.596E+02   0.109E-13 -.562E-14 0.588E+02   0.000E+00 -.339E-20 0.874E+00   0.920E-14 -.155E-13 0.133E-02
   -.271E-14 0.131E-12 0.628E-13   0.406E-14 0.105E-13 -.142E-12   0.339E-20 0.000E+00 -.271E-19   0.241E-14 -.159E-13 -.120E-12
   -.304E-14 0.169E-12 0.596E+02   0.224E-13 -.873E-14 -.588E+02   -.339E-20 0.678E-20 -.874E+00   0.251E-15 -.126E-13 -.133E-02
   0.171E-11 0.948E-11 0.579E-11   -.408E-13 0.946E-14 0.355E-12   -.212E-20 0.106E-21 0.000E+00   0.401E-12 0.497E-13 -.268E-14

 POSITION                                       TOTAL-FORCE (eV/Angst)
      0.00000      0.00000      3.88716        -0.000000      0.000000      0.041522
      0.00000      0.00000      7.69601        -0.000000      0.000000     -0.041522
      0.00000      0.00000     11.47241        -0.000000      0.000000     -0.146606
      0.00000      0.00000      0.11076         0.000000      0.000000      0.146606
      1.92893      1.92893     13.51370        -0.000000      0.000000     -0.000000
      1.92893      1.92893      1.94285        -0.000000      0.000000      0.025604
      1.92893      1.92893      5.79159        -0.000000      0.000000     -0.000000
      1.92893      1.92893      9.64032        -0.000000      0.000000     -0.025604
      1.92893      1.92893     11.61898        -0.000000     -0.000000     -0.044833
      1.92893      1.92893      7.69182        -0.000000      0.000000     -0.063302
      1.92893      1.92893      3.89135        -0.000000     -0.000000      0.063302
      1.92893      1.92893     15.40842        -0.000000      0.000000      0.044833
      1.92893      0.00000     13.51370        -0.000000     -0.000000     -0.000000
      1.92893      0.00000      9.67203        -0.000000     -0.000000     -0.015051
      1.92893      0.00000      5.79159        -0.000000      0.000000     -0.000000
      1.92893      0.00000      1.91114        -0.000000      0.000000      0.015051
      0.00000      1.92893     13.51370         0.000000     -0.000000     -0.000000
      0.00000      1.92893      9.67203        -0.000000      0.000000     -0.015051
      0.00000      1.92893      5.79159        -0.000000     -0.000000     -0.000000
      0.00000      1.92893      1.91114         0.000000      0.000000      0.015051
    total drift:                                0.000000      0.000000      0.000000

  FREE ENERGIE OF THE ION-ELECTRON SYSTEM (eV)
  free  energy   TOTEN  =      -140.07350054 eV

  energy  without entropy=     -140.07350054  energy(sigma->0) =     -140.07350054

 total charge

[...]

 magnetization (x)

# of ion       s       p       d       f       tot
    1        0.001  -0.001   0.007   0.003   0.009
    2        0.000  -0.001   0.007   0.003   0.009
    3        0.000   0.000   0.009   0.004   0.014
    4        0.000   0.000   0.009   0.004   0.014
    5        0.023   0.020   3.410   0.000   3.453
    6        0.016   0.008   1.463   0.000   1.487
    7        0.020   0.013   1.285   0.000   1.318
    8        0.016   0.008   1.463   0.000   1.487
    9        0.005  -0.031   0.000   0.000  -0.026
   10        0.005  -0.106   0.000   0.000  -0.100
   11        0.005  -0.106   0.000   0.000  -0.100
   12        0.005  -0.031   0.000   0.000  -0.026
   13        0.008  -0.076   0.000   0.000  -0.068
   14        0.010  -0.044   0.000   0.000  -0.034
   15        0.011  -0.066   0.000   0.000  -0.054
   16        0.010  -0.044   0.000   0.000  -0.034
   17       -0.001  -0.038   0.000   0.000  -0.039
   18        0.001  -0.095   0.000   0.000  -0.093
   19        0.001  -0.119   0.000   0.000  -0.118
   20        0.001  -0.095   0.000   0.000  -0.093
tot          0.139  -0.802   7.651   0.013   7.003

 BZINTS: Fermi energy:  7.592318;153.000000 electrons
         Band energy:-178.001792;  BLOECHL correction: -0.124712