 vasp.5.4.4.18Apr17-6-g9f103f2a35 (build Oct 03 2018 13:58:34) complex

 executed on             LinuxIFC date 2019.06.04  01:16:19

 INCAR:
 POTCAR:    PAW_PBE La 06Sep2000
 POTCAR:    PAW_PBE Mn 06Sep2000
 POTCAR:    PAW_PBE Ni 02Aug2007
 POTCAR:    PAW_PBE O 08Apr2002

 POTCAR:    PAW_PBE La 06Sep2000
   VRHFIN =La : [core=Kr4d]

   TITEL  = PAW_PBE La 06Sep2000
   POMASS =  138.900; ZVAL   =   11.000    mass and valenz
   ENMAX  =  219.292; ENMIN  =  164.469 eV

 POTCAR:    PAW_PBE Mn 06Sep2000
   VRHFIN =Mn: d6 s1

   TITEL  = PAW_PBE Mn 06Sep2000
   POMASS =   54.938; ZVAL   =    7.000    mass and valenz
   ENMAX  =  269.864; ENMIN  =  202.398 eV

 POTCAR:    PAW_PBE Ni 02Aug2007
   VRHFIN =Ni:

   TITEL  = PAW_PBE Ni 02Aug2007
   POMASS =   58.690; ZVAL   =   10.000    mass and valenz
   ENMAX  =  269.532; ENMIN  =  202.149 eV

 POTCAR:    PAW_PBE O 08Apr2002
   VRHFIN =O: s2p4

   TITEL  = PAW_PBE O 08Apr2002
   POMASS =   16.000; ZVAL   =    6.000    mass and valenz
   ENMAX  =  400.000; ENMIN  =  300.000 eV

 Optimization of the real space projectors (new method)

 maximal supplied QI-value         = 13.42
 optimisation between [QCUT,QGAM] = [ 11.67, 23.35] = [ 38.16,152.62] Ry
 Optimized for a Real-space Cutoff    1.63 Angstroem

   l    n(q)    QCUT    max X(q) W(low)/X(q) W(high)/X(q)  e(spline)
   0     11    11.673    13.882    0.27E-04    0.79E-05    0.11E-06
   0     11    11.673    12.184    0.39E-04    0.13E-04    0.19E-06
   1     11    11.673     4.523    0.73E-05    0.76E-05    0.12E-06
   1     11    11.673     4.424    0.87E-05    0.13E-04    0.19E-06
   2     10    11.673    52.481    0.65E-04    0.36E-04    0.18E-06
   2     10    11.673    38.501    0.61E-04    0.33E-04    0.17E-06
   3     10    11.673    65.631    0.17E-03    0.14E-03    0.37E-06
   3     10    11.673    56.854    0.17E-03    0.14E-03    0.37E-06
 Optimization of the real space projectors (new method)

[...]

   l    n(q)    QCUT    max X(q) W(low)/X(q) W(high)/X(q)  e(spline)
   2      9    11.539    60.317    0.19E-03    0.47E-04    0.16E-06
   2      9    11.539    55.921    0.19E-03    0.48E-04    0.16E-06
   0     10    11.539    51.690    0.80E-04    0.50E-04    0.24E-06
   0     10    11.539    30.015    0.73E-04    0.45E-04    0.22E-06
   1     10    11.539    18.849    0.87E-04    0.16E-03    0.71E-07
   1     10    11.539    14.624    0.73E-04    0.13E-03    0.64E-07
 Optimization of the real space projectors (new method)

 maximal supplied QI-value         = 24.76
 optimisation between [QCUT,QGAM] = [ 11.64, 23.27] = [ 37.91,151.63] Ry
 Optimized for a Real-space Cutoff    1.14 Angstroem

   l    n(q)    QCUT    max X(q) W(low)/X(q) W(high)/X(q)  e(spline)
   0      8    11.635    20.381    0.10E-03    0.33E-03    0.24E-06
   0      8    11.635    15.268    0.11E-03    0.35E-03    0.26E-06
   1      7    11.635     5.964    0.24E-03    0.31E-03    0.30E-06
   1      7    11.635     5.382    0.22E-03    0.25E-03    0.26E-06
  PAW_PBE La 06Sep2000                  :
  PAW_PBE Mn 06Sep2000                  :
  PAW_PBE Ni 02Aug2007                  :
  PAW_PBE O 08Apr2002                   :

 POSCAR: SCEL6_6_1_1_0_5_5/1
  positions in direct lattice
  velocities in cartesian coordinates
 exchange correlation table for  LEXCH =        8
   RHO(1)=    0.500       N(1)  =     2000
   RHO(2)=  100.500       N(2)  =     4000

 ion  position               nearest neighbor table
   1  0.667  0.333  0.843-  17 2.64  23 2.64  29 2.64  22 2.76  16 2.76  28 2.76  28 2.76  16 2.76
                            22 2.76  11 3.24  10 3.34  10 3.34  10 3.34   9 3.43   9 3.43   9 3.43
   2  0.333  0.667  0.667-  28 2.73  22 2.73  16 2.73  14 2.73  20 2.73  26 2.73  21 2.76  27 2.76
                            15 2.76  15 2.76  21 2.76  27 2.76   8 3.38  10 3.38   9 3.38   9 3.38
   3  0.000  0.000  0.491-  13 2.64  19 2.64  25 2.64  14 2.76  20 2.76  26 2.76  26 2.76  20 2.76
                            14 2.76  12 3.24   8 3.34   8 3.34   8 3.34   7 3.43   7 3.43   7 3.43
   4  0.667  0.333  0.314-  30 2.56  24 2.56  18 2.56  19 2.78  13 2.78  25 2.78  25 2.78  13 2.78
                            19 2.78  11 3.15  12 3.30  12 3.30  12 3.30
   5  0.333  0.667  0.167-  18 2.76  24 2.76  30 2.76  18 2.76  24 2.76  30 2.76  25 2.79  19 2.79
                            13 2.79  17 2.79  23 2.79  29 2.79   8 3.40  10 3.40
   6  0.000  0.000  0.019-  18 2.56  24 2.56  30 2.56  17 2.78  23 2.78  29 2.78  29 2.78  17 2.78
                            23 2.78  12 3.15  11 3.30  11 3.30  11 3.30
   7  0.667  0.333  0.584-  27 1.95  21 1.95  15 1.95  14 1.97  20 1.97  26 1.97   2 3.38   2 3.38
                             2 3.38   3 3.43   3 3.43   3 3.43
   8  0.333  0.667  0.417-  25 1.91  19 1.91  13 1.91  20 1.93  14 1.93  26 1.93   3 3.34   3 3.34
                             3 3.34   2 3.38   5 3.40
   9  0.000  0.000  0.750-  15 1.95  21 1.95  27 1.95  22 1.97  16 1.97  28 1.97   2 3.38   2 3.38
                             2 3.38   1 3.43   1 3.43   1 3.43
  10  0.333  0.667  0.916-  17 1.91  23 1.91  29 1.91  28 1.93  22 1.93  16 1.93   1 3.34   1 3.34
                             1 3.34   2 3.38   5 3.40
  11  0.667  0.333  0.082-  30 1.97  24 1.97  18 1.97  17 1.99  23 1.99  29 1.99   4 3.15   1 3.24
                             6 3.30   6 3.30   6 3.30
  12  0.000  0.000  0.252-  18 1.97  24 1.97  30 1.97  13 1.99  19 1.99  25 1.99   6 3.15   3 3.24
                             4 3.30   4 3.30   4 3.30
  13  0.661  0.831  0.337-   8 1.91  12 1.99   3 2.64   4 2.78   4 2.78   5 2.79
  14  0.007  0.504  0.501-   8 1.93   7 1.97   2 2.73   3 2.76   3 2.76
  15  0.333  0.167  0.667-   9 1.95   7 1.95   2 2.76   2 2.76
  16  0.659  0.830  0.832-  10 1.93   9 1.97   2 2.73   1 2.76   1 2.76
  17  0.006  0.503  0.997-  10 1.91  11 1.99   1 2.64   6 2.78   6 2.78   5 2.79
  18  0.333  0.167  0.167-  12 1.97  11 1.97   4 2.56   6 2.56   5 2.76   5 2.76
  19  0.169  0.339  0.337-   8 1.91  12 1.99   3 2.64   4 2.78   4 2.78   5 2.79
  20  0.496  0.993  0.501-   8 1.93   7 1.97   2 2.73   3 2.76   3 2.76
  21  0.833  0.667  0.667-   9 1.95   7 1.95   2 2.76   2 2.76
  22  0.170  0.341  0.832-  10 1.93   9 1.97   2 2.73   1 2.76   1 2.76
  23  0.497  0.994  0.997-  10 1.91  11 1.99   1 2.64   6 2.78   6 2.78   5 2.79
  24  0.833  0.667  0.167-  12 1.97  11 1.97   4 2.56   6 2.56   5 2.76   5 2.76
  25  0.169  0.831  0.337-   8 1.91  12 1.99   3 2.64   4 2.78   4 2.78   5 2.79
  26  0.496  0.504  0.501-   8 1.93   7 1.97   2 2.73   3 2.76   3 2.76
  27  0.833  0.167  0.667-   9 1.95   7 1.95   2 2.76   2 2.76
  28  0.170  0.830  0.832-  10 1.93   9 1.97   2 2.73   1 2.76   1 2.76
  29  0.497  0.503  0.997-  10 1.91  11 1.99   1 2.64   6 2.78   6 2.78   5 2.79
  30  0.833  0.167  0.167-  12 1.97  11 1.97   4 2.56   6 2.56   5 2.76   5 2.76

  LATTYP: Found a hexagonal cell.
 ALAT       =     5.5197860346
 C/A-ratio  =     2.4547873462

  Lattice vectors:

 A1 = (   3.9030781358,   0.0000000000,  -3.9030781358)
 A2 = (  -3.9030781358,   3.9030781358,   0.0000000000)
 A3 = (   7.8230389388,   7.8230389388,   7.8230389388)

Analysis of symmetry for initial positions (statically):
 Subroutine PRICEL returns:
 Original cell was already a primitive cell.

 Routine SETGRP: Setting up the symmetry group for a
 hexagonal supercell.

 Subroutine GETGRP returns: Found 12 space group operations
 (whereof  6 operations were pure point group operations)
 out of a pool of 24 trial point group operations.

The static configuration has the point symmetry C_3v.
 The point group associated with its full space group is D_3d.

Analysis of symmetry for dynamics (positions and initial velocities):
 Subroutine PRICEL returns:
 Original cell was already a primitive cell.

[...]

The dynamic configuration has the point symmetry C_3v.
 The point group associated with its full space group is D_3d.

Analysis of structural, dynamic, and magnetic symmetry:
 Subroutine PRICEL returns:
 Original cell was already a primitive cell.

 Routine SETGRP: Setting up the symmetry group for a
 hexagonal supercell.

 Subroutine GETGRP returns: Found 12 space group operations
 (whereof  6 operations were pure point group operations)
 out of a pool of 24 trial point group operations.

The magnetic configuration has the point symmetry C_3v.
 The point group associated with its full space group is D_3d.

 Subroutine INISYM returns: Found 12 space group operations
 (whereof  6 operations are pure point group operations),
 and found     1 'primitive' translations

 KPOINTS: Automatic mesh

Automatic generation of k-mesh.
 generate k-points for:    4    4    1
Space group operators:
 irot       det(A)        alpha          n_x          n_y          n_z        tau_x        tau_y        tau_z
    1     1.000000     0.000000     1.000000     0.000000     0.000000     0.000000     0.000000     0.000000
    2     1.000000   120.000000    -0.577350    -0.577350    -0.577350     0.000000     0.000000     0.000000
    3     1.000000   120.000000     0.577350     0.577350     0.577350     0.000000     0.000000     0.000000
    4    -1.000000   180.000000     0.707107     0.000000    -0.707107     0.000000     0.000000     0.000000
    5    -1.000000   180.000000     0.707107    -0.707107     0.000000     0.000000     0.000000     0.000000
    6    -1.000000   180.000000     0.000000    -0.707107     0.707107     0.000000     0.000000     0.000000
    7    -1.000000     0.000000     1.000000     0.000000     0.000000     0.666667     0.333333     0.333333
    8    -1.000000   120.000000    -0.577350    -0.577350    -0.577350     0.666667     0.333333     0.333333
    9    -1.000000   120.000000     0.577350     0.577350     0.577350     0.666667     0.333333     0.333333
   10     1.000000   180.000000     0.707107     0.000000    -0.707107     0.666667     0.333333     0.333333
   11     1.000000   180.000000     0.707107    -0.707107     0.000000     0.666667     0.333333     0.333333
   12     1.000000   180.000000     0.000000    -0.707107     0.707107     0.666667     0.333333     0.333333

 Subroutine IBZKPT returns following result:

 Found      4 irreducible k-points:

 Following reciprocal coordinates:
            Coordinates               Weight
  0.000000  0.000000  0.000000      1.000000
  0.250000  0.000000  0.000000      6.000000
  0.500000  0.000000  0.000000      3.000000
  0.250000  0.250000  0.000000      6.000000

 Following cartesian coordinates:
            Coordinates               Weight
  0.000000  0.000000  0.000000      1.000000
  0.021351  0.021351 -0.042701      6.000000
  0.042701  0.042701 -0.085403      3.000000
  0.000000  0.064052 -0.064052      6.000000

 TETIRR: Found     10 inequivalent tetrahedra from       96

 SYSTEM =  final
 POSCAR =  SCEL6_6_1_1_0_5_5/1

 Startparameter for this run:
   NWRITE =      2    write-flag & timer
   PREC   = accura    normal or accurate (medium, high low for compatibility)
   ISTART =      0    job   : 0-new  1-cont  2-samecut
   ICHARG =      1    charge: 1-file 2-atom 10-const
   ISPIN  =      2    spin polarized calculation?
   LNONCOLLINEAR =      F non collinear calculations
[...]
     30      -7.8805      1.00000
     31      -7.8805      1.00000
     32      -7.7903      1.00000
     33      -7.7685      1.00000
     34      -7.7684      1.00000
     35      -7.6499      1.00000
     36      -7.6499      1.00000
     37      -7.4803      1.00000
     38      -7.4795      1.00000
     39      -7.4795      1.00000
     40      -7.4768      1.00000
     41      -7.3225      1.00000
     42      -6.9475      1.00000
     43       0.1996      1.00000
     44       0.1996      1.00000
     45       0.6535      1.00000
     46       0.9667      1.00000
     47       0.9667      1.00000
     48       1.1127      1.00000
     49       1.2400      1.00000
     50       1.3700      1.00000
     51       1.3700      1.00000
     52       1.5822      1.00000
     53       1.6099      1.00000
     54       1.6305      1.00000
     55       1.6305      1.00000
     56       1.6353      1.00000
     57       1.6353      1.00000
     58       1.7708      1.00000
     59       1.9639      1.00000
     60       1.9639      1.00000
[...]
    130      10.5518      0.00000
    131      10.5731      0.00000
    132      10.6036      0.00000
    133      10.6200      0.00000
    134      10.6433      0.00000
    135      10.6554      0.00000
    136      10.6745      0.00000
    137      10.6972      0.00000
    138      10.7336      0.00000
    139      10.7484      0.00000
    140      10.7884      0.00000
    141      10.8164      0.00000
    142      10.8338      0.00000
    143      10.8649      0.00000
    144      10.9290      0.00000

[...]

 spin component 2

[...]

 k-point     4 :       0.2500    0.2500    0.0000
  band No.  band energies     occupation
      1     -24.2408      1.00000
      2     -24.2323      1.00000
      3     -24.2291      1.00000
      4     -24.1674      1.00000
      5     -24.0782      1.00000
      6     -24.0768      1.00000
      7     -11.2992      1.00000
      8     -11.2140      1.00000
      9     -11.1213      1.00000
     10     -10.9085      1.00000
     11     -10.8869      1.00000
     12     -10.8500      1.00000
     13     -10.3805      1.00000
     14     -10.3512      1.00000
     15     -10.2512      1.00000
     16     -10.1776      1.00000
     17     -10.1225      1.00000
     18     -10.0710      1.00000
     19      -9.9428      1.00000
     20      -9.8973      1.00000
     21      -9.8061      1.00000
     22      -9.7972      1.00000
     23      -9.6939      1.00000
     24      -9.4403      1.00000
     25      -7.9881      1.00000
     26      -7.7787      1.00000
     27      -7.7583      1.00000
     28      -7.6618      1.00000
     29      -7.6436      1.00000
     30      -7.6387      1.00000
     31      -7.5175      1.00000
     32      -7.4818      1.00000
     33      -7.4666      1.00000
     34      -7.4344      1.00000
     35      -7.4295      1.00000
     36      -7.3804      1.00000
     37      -7.3304      1.00000
     38      -7.2568      1.00000
     39      -7.2119      1.00000
     40      -7.1234      1.00000
     41      -6.9647      1.00000
     42      -6.8648      1.00000
     43       1.6760      1.00000
     44       1.7503      1.00000
     45       1.8655      1.00000
     46       2.0361      1.00000
     47       2.1637      1.00000
     48       2.1918      1.00000
     49       2.2168      1.00000
     50       2.2900      1.00000
     51       2.6513      1.00000
     52       2.7473      1.00000
     53       2.8077      1.00000
     54       2.8327      1.00000
     55       2.9706      1.00000
     56       3.0071      1.00000
     57       3.0392      1.00000
     58       3.0430      1.00000
     59       3.0746      1.00000
     60       3.0758      1.00000
[...]
    130      10.7688      0.00000
    131      10.7811      0.00000
    132      10.7860      0.00000
    133      10.8007      0.00000
    134      10.8139      0.00000
    135      10.8240      0.00000
    136      10.8389      0.00000
    137      10.8528      0.00000
    138      10.8551      0.00000
    139      10.8708      0.00000
    140      10.9018      0.00000
    141      10.9317      0.00000
    142      10.9668      0.00000
    143      10.9770      0.00000
    144      11.0888      0.00000

 soft charge-density along one line, spin component           1
         0         1         2         3         4         5         6         7         8         9
 total charge-density along one line

 soft charge-density along one line, spin component           2
         0         1         2         3         4         5         6         7         8         9
 total charge-density along one line

------------------------ aborting loop because EDIFF is reached ----------------------------------------

 total charge

# of ion       s       p       d       f       tot
    1        1.999   5.697   0.485   0.189   8.371
    2        1.999   5.699   0.489   0.190   8.378
    3        1.999   5.697   0.485   0.189   8.371
    4        2.002   5.694   0.506   0.194   8.396
    5        1.998   5.694   0.479   0.184   8.356
    6        2.002   5.694   0.506   0.194   8.397
    7        0.308   0.459   4.882   0.000   5.649
    8        0.346   0.547   4.851   0.000   5.744
    9        0.308   0.459   4.882   0.000   5.649
   10        0.346   0.547   4.850   0.000   5.743
   11        0.394   0.568   8.334   0.000   9.296
   12        0.394   0.568   8.334   0.000   9.296
   13        1.561   3.498   0.000   0.000   5.059
   14        1.563   3.486   0.000   0.000   5.050
   15        1.567   3.472   0.000   0.000   5.038
   16        1.563   3.486   0.000   0.000   5.050
   17        1.561   3.498   0.000   0.000   5.059
   18        1.556   3.514   0.000   0.000   5.070
   19        1.561   3.444   0.000   0.000   5.006
   20        1.562   3.451   0.000   0.000   5.013
   21        1.565   3.437   0.000   0.000   5.002
   22        1.562   3.451   0.000   0.000   5.013
   23        1.561   3.444   0.000   0.000   5.006
   24        1.556   3.457   0.000   0.000   5.012
   25        1.562   3.420   0.000   0.000   4.982
   26        1.562   3.440   0.000   0.000   5.002
   27        1.565   3.435   0.000   0.000   4.999
   28        1.562   3.440   0.000   0.000   5.002
   29        1.562   3.420   0.000   0.000   4.982
   30        1.555   3.436   0.000   0.000   4.992
tot         42.203  99.552  39.086   1.141 181.982

 magnetization (x)

[...]

  FORCE on cell =-STRESS in cart. coord.  units (eV):
  Direction    XX          YY          ZZ          XY          YZ          ZX
  Alpha Z   970.30864   970.30864   970.30864
  Ewald   -4971.02097 -4971.02096 -4971.02096   -66.02081   -66.02079   -66.02081
  Hartree  1125.65270  1125.65270  1125.65270   -73.54761   -73.54761   -73.54761
  E(xc)   -1025.72914 -1025.72915 -1025.72915     0.04767     0.04769     0.04767
  Local    -681.14415  -681.14478  -681.14478   139.97065   139.97124   139.97065
  n-local   400.44238   401.96292   404.42147    -2.35179     0.73100    -0.44613
  augment   343.99740   343.99781   343.99781    -0.03038    -0.03079    -0.03038
  Kinetic  3851.59350  3839.34787  3815.88583   -10.42865     8.02858     3.27543
  Fock        0.00000     0.00000     0.00000     0.00000     0.00000     0.00000
  Total      -0.05101    -0.05101    -0.05101     0.02244     0.02244     0.02244
  in kB      -0.22859    -0.22859    -0.22859     0.10058     0.10058     0.10058

 VOLUME and BASIS-vectors are now :
  energy-cutoff  :      520.00
  volume of cell :      357.53
      direct lattice vectors                 reciprocal lattice vectors
     3.903078136  0.000000000 -3.903078136     0.085402680  0.085402680 -0.170805360
    -3.903078136  3.903078136  0.000000000    -0.085402680  0.170805360 -0.085402680
     7.823038939  7.823038939  7.823038939     0.042609188  0.042609188  0.042609188

  length of vectors
     5.519786035  5.519786035 13.549900912     0.209192989  0.209192989  0.073801278

 FORCES acting on ions
    electron-ion (+dipol)            ewald-force                    non-local-force                 convergence-correction
   0.916E+02 0.916E+02 0.916E+02   -.909E+02 -.909E+02 -.909E+02   -.632E+00 -.632E+00 -.632E+00   -.153E-01 -.153E-01 -.153E-01
   -.125E-03 -.560E-03 -.560E-03   -.166E-03 -.246E-03 -.246E-03   0.244E-18 -.542E-19 0.271E-19   0.148E-05 0.134E-05 0.134E-05
   -.916E+02 -.916E+02 -.916E+02   0.909E+02 0.909E+02 0.909E+02   0.632E+00 0.632E+00 0.632E+00   0.153E-01 0.153E-01 0.153E-01
   -.132E+03 -.132E+03 -.132E+03   0.130E+03 0.130E+03 0.130E+03   0.130E+01 0.130E+01 0.130E+01   0.172E-01 0.172E-01 0.172E-01
   -.212E-03 -.609E-03 -.609E-03   -.825E-04 -.204E-03 -.204E-03   -.813E-19 0.271E-19 -.542E-19   0.151E-05 0.134E-05 0.134E-05
   0.132E+03 0.132E+03 0.132E+03   -.130E+03 -.130E+03 -.130E+03   -.130E+01 -.130E+01 -.130E+01   -.172E-01 -.172E-01 -.172E-01
   -.107E+02 -.107E+02 -.107E+02   0.107E+02 0.107E+02 0.107E+02   -.237E-01 -.237E-01 -.237E-01   0.191E-02 0.191E-02 0.191E-02
   -.497E+02 -.497E+02 -.497E+02   0.495E+02 0.495E+02 0.495E+02   0.214E+00 0.214E+00 0.214E+00   0.859E-02 0.859E-02 0.859E-02
   0.107E+02 0.107E+02 0.107E+02   -.107E+02 -.107E+02 -.107E+02   0.237E-01 0.237E-01 0.237E-01   -.191E-02 -.191E-02 -.191E-02
   0.497E+02 0.497E+02 0.497E+02   -.495E+02 -.495E+02 -.495E+02   -.214E+00 -.214E+00 -.214E+00   -.859E-02 -.859E-02 -.859E-02
   0.581E+02 0.581E+02 0.581E+02   -.566E+02 -.566E+02 -.566E+02   -.145E+01 -.145E+01 -.145E+01   -.358E-02 -.358E-02 -.358E-02
   -.581E+02 -.581E+02 -.581E+02   0.566E+02 0.566E+02 0.566E+02   0.145E+01 0.145E+01 0.145E+01   0.358E-02 0.358E-02 0.358E-02
   -.387E+02 -.387E+02 -.805E+02   0.381E+02 0.381E+02 0.759E+02   0.519E+00 0.519E+00 0.461E+01   0.102E-01 0.102E-01 0.348E-01
   -.207E+02 -.207E+02 -.532E+02   0.201E+02 0.201E+02 0.551E+02   0.663E+00 0.663E+00 -.185E+01   0.733E-02 0.733E-02 0.147E-01
   -.163E-03 -.649E-03 -.497E-03   -.131E-03 -.589E-04 -.310E-03   -.407E-19 -.136E-19 0.339E-19   0.911E-06 0.961E-06 0.953E-06
   0.207E+02 0.207E+02 0.532E+02   -.201E+02 -.201E+02 -.551E+02   -.663E+00 -.663E+00 0.185E+01   -.733E-02 -.734E-02 -.147E-01
   0.387E+02 0.387E+02 0.805E+02   -.381E+02 -.381E+02 -.759E+02   -.519E+00 -.519E+00 -.461E+01   -.102E-01 -.102E-01 -.348E-01
   -.170E-03 -.697E-03 -.444E-03   -.129E-03 -.103E-04 -.345E-03   -.404E-19 0.138E-19 0.341E-19   0.911E-06 0.969E-06 0.887E-06
   -.387E+02 -.805E+02 -.387E+02   0.381E+02 0.759E+02 0.381E+02   0.519E+00 0.461E+01 0.519E+00   0.102E-01 0.348E-01 0.102E-01
   -.207E+02 -.532E+02 -.207E+02   0.201E+02 0.551E+02 0.201E+02   0.663E+00 -.185E+01 0.663E+00   0.733E-02 0.147E-01 0.733E-02
   -.163E-03 -.497E-03 -.649E-03   -.131E-03 -.310E-03 -.589E-04   0.203E-19 -.136E-19 0.136E-19   0.911E-06 0.953E-06 0.961E-06
   0.207E+02 0.532E+02 0.207E+02   -.201E+02 -.551E+02 -.201E+02   -.663E+00 0.185E+01 -.663E+00   -.733E-02 -.147E-01 -.734E-02
   0.387E+02 0.805E+02 0.387E+02   -.381E+02 -.759E+02 -.381E+02   -.519E+00 -.461E+01 -.519E+00   -.102E-01 -.348E-01 -.102E-01
   -.170E-03 -.444E-03 -.697E-03   -.129E-03 -.345E-03 -.103E-04   -.424E-19 -.491E-19 0.847E-20   0.911E-06 0.887E-06 0.969E-06
   -.805E+02 -.387E+02 -.387E+02   0.759E+02 0.381E+02 0.381E+02   0.461E+01 0.519E+00 0.519E+00   0.348E-01 0.102E-01 0.102E-01
   -.532E+02 -.207E+02 -.207E+02   0.551E+02 0.201E+02 0.201E+02   -.185E+01 0.663E+00 0.663E+00   0.147E-01 0.733E-02 0.733E-02
   -.147E-03 -.668E-03 -.668E-03   -.108E-03 -.823E-04 -.823E-04   -.491E-19 -.220E-19 0.203E-19   0.976E-06 0.899E-06 0.899E-06
   0.532E+02 0.207E+02 0.207E+02   -.551E+02 -.201E+02 -.201E+02   0.185E+01 -.663E+00 -.663E+00   -.147E-01 -.733E-02 -.733E-02
   0.805E+02 0.387E+02 0.387E+02   -.759E+02 -.381E+02 -.381E+02   -.461E+01 -.519E+00 -.519E+00   -.348E-01 -.102E-01 -.102E-01
   -.183E-03 -.693E-03 -.693E-03   -.656E-04 -.739E-04 -.739E-04   0.500E-19 -.424E-20 0.296E-19   0.982E-06 0.885E-06 0.885E-06
   -.373E-02 -.369E-02 -.369E-02   0.213E-13 -.137E-13 0.205E-12   -.888E-15 0.266E-14 0.555E-15   0.588E-06 0.688E-06 0.688E-06

 POSITION                                       TOTAL-FORCE (eV/Angst)
      7.89338      7.89338      3.99030        -0.019928     -0.019928     -0.019928
      3.91433      7.81741      3.91433         0.000000      0.000000      0.000000
      3.83836      3.83836      3.83836         0.019928      0.019928      0.019928
      3.76101      3.76101     -0.14207        -0.009162     -0.009162     -0.009162
      0.00281      3.90589      0.00281         0.000000      0.000000      0.000000
      0.14770      0.14770      0.14770         0.009162      0.009162      0.009162
      5.86579      5.86579      1.96271        -0.003344     -0.003344     -0.003344
      1.96445      5.86753      1.96445        -0.034811     -0.034811     -0.034811
      5.86595      5.86595      5.86595         0.003344      0.003344      0.003344
      5.86421      9.76729      5.86421         0.034811      0.034811      0.034811
      1.93963      1.93963     -1.96344         0.003368      0.003368      0.003368
      1.96907      1.96907      1.96907        -0.003368     -0.003368     -0.003368
      1.97310      5.87618      0.05427        -0.014075     -0.014075      0.011764
      1.98509      5.88817      3.89350         0.020023      0.020023      0.017033
      5.86587      5.86587      3.91433         0.000000      0.000000      0.000000
      5.84357      9.74665      3.93517        -0.020023     -0.020023     -0.017033
      5.85556      9.75864      7.77440         0.014075      0.014075     -0.011764
      1.95435      1.95435      0.00281         0.000000      0.000000      0.000000
      1.97310      3.95735      1.97310        -0.014075      0.011764     -0.014075
      1.98509      7.79658      1.98509         0.020023      0.017033      0.020023
      5.86587      7.81741      1.96279         0.000000      0.000000      0.000000
      5.84357      7.83824      5.84357        -0.020023     -0.017033     -0.020023
      5.85556     11.67748      5.85556         0.014075     -0.011764      0.014075
      1.95435      3.90589     -1.94872         0.000000      0.000000      0.000000
      0.05427      5.87618      1.97310         0.011764     -0.014075     -0.014075
      3.89350      5.88817      1.98509         0.017033      0.020023      0.020023
      7.81741      5.86587      1.96279         0.000000      0.000000      0.000000
      3.93517      9.74665      5.84357        -0.017033     -0.020023     -0.020023
      7.77440      9.75864      5.85556        -0.011764      0.014075      0.014075
      3.90589      1.95435     -1.94872         0.000000      0.000000      0.000000
    total drift:                               -0.003734     -0.003688     -0.003688

  FREE ENERGIE OF THE ION-ELECTRON SYSTEM (eV)
  free  energy   TOTEN  =      -226.57502913 eV

  energy  without entropy=     -226.57502913  energy(sigma->0) =     -226.57502913

 total charge

[...]

 magnetization (x)

# of ion       s       p       d       f       tot
    1        0.001   0.001   0.012   0.006   0.020
    2        0.001   0.001   0.013   0.007   0.022
    3        0.001   0.001   0.012   0.006   0.020
    4        0.000   0.000   0.005   0.003   0.008
    5        0.000   0.000   0.003   0.001   0.004
    6        0.000   0.000   0.005   0.003   0.008
    7        0.021   0.019   3.775   0.000   3.814
    8        0.024   0.031   3.349   0.000   3.404
    9        0.021   0.019   3.775   0.000   3.814
   10        0.024   0.031   3.349   0.000   3.404
   11        0.012   0.008   1.698   0.000   1.718
   12        0.012   0.008   1.698   0.000   1.718
   13        0.005  -0.016   0.000   0.000  -0.011
   14        0.005  -0.025   0.000   0.000  -0.020
   15        0.007  -0.078   0.000   0.000  -0.071
   16        0.005  -0.025   0.000   0.000  -0.020
   17        0.005  -0.016   0.000   0.000  -0.011
   18        0.008   0.044   0.000   0.000   0.052
   19        0.005  -0.028   0.000   0.000  -0.023
   20        0.003  -0.027   0.000   0.000  -0.024
   21        0.004  -0.075   0.000   0.000  -0.071
   22        0.003  -0.027   0.000   0.000  -0.024
   23        0.005  -0.028   0.000   0.000  -0.023
   24        0.007   0.047   0.000   0.000   0.054
   25        0.005  -0.035   0.000   0.000  -0.030
   26        0.003  -0.024   0.000   0.000  -0.021
   27        0.003  -0.061   0.000   0.000  -0.058
   28        0.003  -0.024   0.000   0.000  -0.021
   29        0.005  -0.035   0.000   0.000  -0.030
   30        0.006   0.050   0.000   0.000   0.056
tot          0.205  -0.263  17.692   0.026  17.660

 BZINTS: Fermi energy:  7.604409;222.000000 electrons
         Band energy:-383.680033;  BLOECHL correction:  0.000000