 vasp.5.4.4.18Apr17-6-g9f103f2a35 (build Oct 03 2018 13:58:34) complex

 executed on             LinuxIFC date 2019.06.04  01:47:57

 INCAR:
 POTCAR:    PAW_PBE La 06Sep2000
 POTCAR:    PAW_PBE Mn 06Sep2000
 POTCAR:    PAW_PBE Ni 02Aug2007
 POTCAR:    PAW_PBE O 08Apr2002

 POTCAR:    PAW_PBE La 06Sep2000
   VRHFIN =La : [core=Kr4d]

   TITEL  = PAW_PBE La 06Sep2000
   POMASS =  138.900; ZVAL   =   11.000    mass and valenz
   ENMAX  =  219.292; ENMIN  =  164.469 eV

 POTCAR:    PAW_PBE Mn 06Sep2000
   VRHFIN =Mn: d6 s1

   TITEL  = PAW_PBE Mn 06Sep2000
   POMASS =   54.938; ZVAL   =    7.000    mass and valenz
   ENMAX  =  269.864; ENMIN  =  202.398 eV

 POTCAR:    PAW_PBE Ni 02Aug2007
   VRHFIN =Ni:

   TITEL  = PAW_PBE Ni 02Aug2007
   POMASS =   58.690; ZVAL   =   10.000    mass and valenz
   ENMAX  =  269.532; ENMIN  =  202.149 eV

 POTCAR:    PAW_PBE O 08Apr2002
   VRHFIN =O: s2p4

   TITEL  = PAW_PBE O 08Apr2002
   POMASS =   16.000; ZVAL   =    6.000    mass and valenz
   ENMAX  =  400.000; ENMIN  =  300.000 eV

 Optimization of the real space projectors (new method)

 maximal supplied QI-value         = 13.42
 optimisation between [QCUT,QGAM] = [ 11.67, 23.35] = [ 38.16,152.62] Ry
 Optimized for a Real-space Cutoff    1.63 Angstroem

   l    n(q)    QCUT    max X(q) W(low)/X(q) W(high)/X(q)  e(spline)
   0     11    11.673    13.882    0.27E-04    0.79E-05    0.11E-06
   0     11    11.673    12.184    0.39E-04    0.13E-04    0.19E-06
   1     11    11.673     4.523    0.73E-05    0.76E-05    0.12E-06
   1     11    11.673     4.424    0.87E-05    0.13E-04    0.19E-06
   2     10    11.673    52.481    0.65E-04    0.36E-04    0.18E-06
   2     10    11.673    38.501    0.61E-04    0.33E-04    0.17E-06
   3     10    11.673    65.631    0.17E-03    0.14E-03    0.37E-06
   3     10    11.673    56.854    0.17E-03    0.14E-03    0.37E-06
 Optimization of the real space projectors (new method)

[...]

   l    n(q)    QCUT    max X(q) W(low)/X(q) W(high)/X(q)  e(spline)
   2      9    11.539    60.317    0.19E-03    0.47E-04    0.16E-06
   2      9    11.539    55.921    0.19E-03    0.48E-04    0.16E-06
   0     10    11.539    51.690    0.80E-04    0.50E-04    0.24E-06
   0     10    11.539    30.015    0.73E-04    0.45E-04    0.22E-06
   1     10    11.539    18.849    0.87E-04    0.16E-03    0.71E-07
   1     10    11.539    14.624    0.73E-04    0.13E-03    0.64E-07
 Optimization of the real space projectors (new method)

 maximal supplied QI-value         = 24.76
 optimisation between [QCUT,QGAM] = [ 11.64, 23.27] = [ 37.91,151.63] Ry
 Optimized for a Real-space Cutoff    1.14 Angstroem

   l    n(q)    QCUT    max X(q) W(low)/X(q) W(high)/X(q)  e(spline)
   0      8    11.635    20.381    0.10E-03    0.33E-03    0.24E-06
   0      8    11.635    15.268    0.11E-03    0.35E-03    0.26E-06
   1      7    11.635     5.964    0.24E-03    0.31E-03    0.30E-06
   1      7    11.635     5.382    0.22E-03    0.25E-03    0.26E-06
  PAW_PBE La 06Sep2000                  :
  PAW_PBE Mn 06Sep2000                  :
  PAW_PBE Ni 02Aug2007                  :
  PAW_PBE O 08Apr2002                   :

 POSCAR: SCEL6_2_1_3_0_0_1/1
  positions in direct lattice
  velocities in cartesian coordinates
 exchange correlation table for  LEXCH =        8
   RHO(1)=    0.500       N(1)  =     2000
   RHO(2)=  100.500       N(2)  =     4000

 ion  position               nearest neighbor table
   1  0.500  0.500  0.329-  20 2.72  23 2.72  26 2.72  29 2.72  14 2.75  14 2.75  17 2.75  17 2.75
                            28 2.79  19 2.79  25 2.79  22 2.79  11 3.35  11 3.35   7 3.35   7 3.35
   2  0.000  0.000  0.671-  21 2.72  24 2.72  27 2.72  30 2.72  13 2.75  13 2.75  16 2.75  16 2.75
                            28 2.79  19 2.79  25 2.79  22 2.79  12 3.35  12 3.35   9 3.35   9 3.35
   3  0.500  0.500  0.000-  15 2.75  18 2.75  18 2.75  15 2.75  23 2.76  24 2.76  26 2.76  27 2.76
                            29 2.76  30 2.76  20 2.76  21 2.76   7 3.37   7 3.37   9 3.37   9 3.37
   4  0.000  0.000  0.329-  20 2.72  23 2.72  26 2.72  29 2.72  14 2.75  14 2.75  17 2.75  17 2.75
                            28 2.79  19 2.79  25 2.79  22 2.79  11 3.35  11 3.35   7 3.35   7 3.35
   5  0.500  0.500  0.671-  21 2.72  24 2.72  27 2.72  30 2.72  13 2.75  13 2.75  16 2.75  16 2.75
                            28 2.79  19 2.79  25 2.79  22 2.79  12 3.35  12 3.35   9 3.35   9 3.35
   6  0.000  0.000  0.000-  15 2.75  18 2.75  15 2.75  18 2.75  23 2.76  24 2.76  26 2.76  27 2.76
                            29 2.76  30 2.76  20 2.76  21 2.76   9 3.37   7 3.37   7 3.37   9 3.37
   7  0.500  0.000  0.166-  20 1.91  23 1.91  26 1.91  29 1.91  18 1.93  14 1.96   1 3.35   4 3.35
                             1 3.35   4 3.35   3 3.37   3 3.37   6 3.37   6 3.37
   8  0.000  0.500  0.499-  19 1.95  22 1.95  25 1.95  28 1.95  17 1.95  13 1.98   1 3.40   4 3.40
                             4 3.40   1 3.40   2 3.41   2 3.41   5 3.41   5 3.41
   9  0.000  0.500  0.834-  21 1.91  24 1.91  27 1.91  30 1.91  15 1.93  13 1.96   2 3.35   5 3.35
                             2 3.35   5 3.35   3 3.37   6 3.37   3 3.37   6 3.37
  10  0.500  0.000  0.501-  19 1.95  22 1.95  25 1.95  28 1.95  16 1.95  14 1.98   2 3.40   5 3.40
                             5 3.40   2 3.40   1 3.41   4 3.41   1 3.41   4 3.41
  11  0.000  0.500  0.167-  17 1.95  15 1.96  20 1.98  23 1.98  26 1.98  29 1.98   1 3.35   4 3.35
                             4 3.35   1 3.35   3 3.37   6 3.37   6 3.37   3 3.37
  12  0.500  0.000  0.833-  16 1.95  18 1.96  21 1.98  24 1.98  27 1.98  30 1.98   2 3.35   5 3.35
                             5 3.35   2 3.35   3 3.37   3 3.37   6 3.37   6 3.37
  13  0.000  0.500  0.667-   9 1.96   8 1.98   2 2.75   5 2.75   2 2.75   5 2.75
  14  0.500  0.000  0.333-   7 1.96  10 1.98   1 2.75   4 2.75   1 2.75   4 2.75
  15  0.000  0.500  0.999-   9 1.93  11 1.96   3 2.75   6 2.75   6 2.75   3 2.75
  16  0.500  0.000  0.667-  10 1.95  12 1.95   2 2.75   5 2.75   5 2.75   2 2.75
  17  0.000  0.500  0.333-   8 1.95  11 1.95   1 2.75   4 2.75   4 2.75   1 2.75
  18  0.500  0.000  0.001-   7 1.93  12 1.96   3 2.75   6 2.75   3 2.75   6 2.75
  19  0.750  0.750  0.500-   8 1.95  10 1.95   4 2.79   5 2.79   1 2.79   2 2.79
  20  0.255  0.245  0.167-   7 1.91  11 1.98   1 2.72   4 2.72   3 2.76   6 2.76
  21  0.755  0.745  0.833-   9 1.91  12 1.98   2 2.72   5 2.72   3 2.76   6 2.76
  22  0.250  0.250  0.500-   8 1.95  10 1.95   4 2.79   5 2.79   1 2.79   2 2.79
  23  0.745  0.755  0.167-   7 1.91  11 1.98   1 2.72   4 2.72   3 2.76   6 2.76
  24  0.245  0.255  0.833-   9 1.91  12 1.98   2 2.72   5 2.72   3 2.76   6 2.76
  25  0.750  0.250  0.500-   8 1.95  10 1.95   4 2.79   5 2.79   1 2.79   2 2.79
  26  0.255  0.755  0.167-   7 1.91  11 1.98   1 2.72   4 2.72   3 2.76   6 2.76
  27  0.755  0.255  0.833-   9 1.91  12 1.98   2 2.72   5 2.72   3 2.76   6 2.76
  28  0.250  0.750  0.500-   8 1.95  10 1.95   4 2.79   5 2.79   1 2.79   2 2.79
  29  0.745  0.245  0.167-   7 1.91  11 1.98   1 2.72   4 2.72   3 2.76   6 2.76
  30  0.245  0.745  0.833-   9 1.91  12 1.98   2 2.72   5 2.72   3 2.76   6 2.76

  LATTYP: Found a simple tetragonal cell.
 ALAT       =     5.5019278951
 C/A-ratio  =     2.1322495208

  Lattice vectors:

 A1 = (   3.8904505242,   3.8904505242,   0.0000000000)
 A2 = (   3.8904505242,  -3.8904505242,   0.0000000000)
 A3 = (   0.0000000000,   0.0000000000, -11.7314831179)

Analysis of symmetry for initial positions (statically):
 Subroutine PRICEL returns:
 Original cell was already a primitive cell.

 Routine SETGRP: Setting up the symmetry group for a
 simple tetragonal supercell.

 Subroutine GETGRP returns: Found 16 space group operations
 (whereof  8 operations were pure point group operations)
 out of a pool of 16 trial point group operations.

The static configuration has the point symmetry D_2d.
 The point group associated with its full space group is D_4h.

Analysis of symmetry for dynamics (positions and initial velocities):
 Subroutine PRICEL returns:
 Original cell was already a primitive cell.

[...]

The dynamic configuration has the point symmetry D_2d.
 The point group associated with its full space group is D_4h.

Analysis of structural, dynamic, and magnetic symmetry:
 Subroutine PRICEL returns:
 Original cell was already a primitive cell.

 Routine SETGRP: Setting up the symmetry group for a
 simple tetragonal supercell.

 Subroutine GETGRP returns: Found 16 space group operations
 (whereof  8 operations were pure point group operations)
 out of a pool of 16 trial point group operations.

The magnetic configuration has the point symmetry D_2d.
 The point group associated with its full space group is D_4h.

 Subroutine INISYM returns: Found 16 space group operations
 (whereof  8 operations are pure point group operations),
 and found     1 'primitive' translations

 KPOINTS: Automatic mesh

Automatic generation of k-mesh.
 generate k-points for:    4    4    2
Space group operators:
 irot       det(A)        alpha          n_x          n_y          n_z        tau_x        tau_y        tau_z
    1     1.000000     0.000000     1.000000     0.000000     0.000000     0.000000     0.000000     0.000000
    2    -1.000000    90.000000     0.000000     0.000000     1.000000     0.000000     0.000000     0.000000
    3     1.000000   180.000000     0.000000     0.000000     1.000000     0.000000     0.000000     0.000000
    4    -1.000000    90.000000     0.000000     0.000000    -1.000000     0.000000     0.000000     0.000000
    5    -1.000000   180.000000     0.707107    -0.707107     0.000000     0.000000     0.000000     0.000000
    6     1.000000   180.000000     1.000000     0.000000     0.000000     0.000000     0.000000     0.000000
    7    -1.000000   180.000000     0.707107     0.707107     0.000000     0.000000     0.000000     0.000000
    8     1.000000   180.000000     0.000000     1.000000     0.000000     0.000000     0.000000     0.000000
    9    -1.000000     0.000000     1.000000     0.000000     0.000000     0.500000     0.500000     0.000000
   10     1.000000    90.000000     0.000000     0.000000     1.000000     0.500000     0.500000     0.000000
   11    -1.000000   180.000000     0.000000     0.000000     1.000000     0.500000     0.500000     0.000000
   12     1.000000    90.000000     0.000000     0.000000    -1.000000     0.500000     0.500000     0.000000
   13     1.000000   180.000000     0.707107    -0.707107     0.000000     0.500000     0.500000     0.000000
   14    -1.000000   180.000000     1.000000     0.000000     0.000000     0.500000     0.500000     0.000000
   15     1.000000   180.000000     0.707107     0.707107     0.000000     0.500000     0.500000     0.000000
   16    -1.000000   180.000000     0.000000     1.000000     0.000000     0.500000     0.500000     0.000000

 Subroutine IBZKPT returns following result:

 Found     12 irreducible k-points:

 Following reciprocal coordinates:
            Coordinates               Weight
  0.000000  0.000000  0.000000      1.000000
  0.250000  0.000000  0.000000      4.000000
  0.500000  0.000000  0.000000      2.000000
[...]
     30      -7.8699      1.00000
     31      -7.7258      1.00000
     32      -7.7157      1.00000
     33      -7.7157      1.00000
     34      -7.6375      1.00000
     35      -7.6375      1.00000
     36      -7.6345      1.00000
     37      -7.6345      1.00000
     38      -7.5056      1.00000
     39      -7.2421      1.00000
     40      -7.2421      1.00000
     41      -7.0535      1.00000
     42      -7.0503      1.00000
     43       0.2441      1.00000
     44       0.3332      1.00000
     45       0.3374      1.00000
     46       0.3400      1.00000
     47       0.8802      1.00000
     48       0.9654      1.00000
     49       1.0593      1.00000
     50       1.1124      1.00000
     51       1.3287      1.00000
     52       1.4869      1.00000
     53       1.6115      1.00000
     54       1.6239      1.00000
     55       1.6679      1.00000
     56       1.7502      1.00000
     57       1.7502      1.00000
     58       1.7855      1.00000
     59       1.7855      1.00000
     60       2.0124      1.00000
[...]
    130      10.6328      0.00000
    131      10.6543      0.00000
    132      10.6924      0.00000
    133      10.6982      0.00000
    134      10.7300      0.00000
    135      10.7565      0.00000
    136      10.7716      0.00000
    137      10.7949      0.00000
    138      10.8155      0.00000
    139      10.8440      0.00000
    140      10.8562      0.00000
    141      10.8884      0.00000
    142      10.9029      0.00000
    143      10.9425      0.00000
    144      10.9631      0.00000

[...]

 spin component 2

[...]

 k-point    12 :       0.5000    0.5000    0.5000
  band No.  band energies     occupation
      1     -24.1481      1.00000
      2     -24.1481      1.00000
      3     -24.1170      1.00000
      4     -24.1170      1.00000
      5     -24.0903      1.00000
      6     -24.0903      1.00000
      7     -11.3055      1.00000
      8     -11.3055      1.00000
      9     -11.1401      1.00000
     10     -11.1400      1.00000
     11     -10.4498      1.00000
     12     -10.4498      1.00000
     13     -10.4256      1.00000
     14     -10.4256      1.00000
     15     -10.1603      1.00000
     16     -10.1603      1.00000
     17     -10.0214      1.00000
     18     -10.0214      1.00000
     19      -9.9915      1.00000
     20      -9.9914      1.00000
     21      -9.6376      1.00000
     22      -9.6376      1.00000
     23      -9.4731      1.00000
     24      -9.4731      1.00000
     25      -7.5863      1.00000
     26      -7.5863      1.00000
     27      -7.5538      1.00000
     28      -7.5538      1.00000
     29      -7.5165      1.00000
     30      -7.5165      1.00000
     31      -7.4831      1.00000
     32      -7.4831      1.00000
     33      -7.4736      1.00000
     34      -7.4736      1.00000
     35      -7.2266      1.00000
     36      -7.2266      1.00000
     37      -7.2106      1.00000
     38      -7.2106      1.00000
     39      -6.9704      1.00000
     40      -6.9704      1.00000
     41      -6.9142      1.00000
     42      -6.9142      1.00000
     43       1.6683      1.00000
     44       1.6683      1.00000
     45       1.8678      1.00000
     46       1.8679      1.00000
     47       2.1850      1.00000
     48       2.1850      1.00000
     49       2.5311      1.00000
     50       2.5311      1.00000
     51       2.5934      1.00000
     52       2.5935      1.00000
     53       2.8486      1.00000
     54       2.8486      1.00000
     55       2.9531      1.00000
     56       2.9531      1.00000
     57       3.0781      1.00000
     58       3.0781      1.00000
     59       3.1756      1.00000
     60       3.1756      1.00000
[...]
    130      10.8003      0.00000
    131      10.8095      0.00000
    132      10.8189      0.00000
    133      10.8239      0.00000
    134      10.8341      0.00000
    135      10.8449      0.00000
    136      10.8559      0.00000
    137      10.8659      0.00000
    138      10.8737      0.00000
    139      10.8792      0.00000
    140      10.8893      0.00000
    141      10.8938      0.00000
    142      10.9083      0.00000
    143      10.9197      0.00000
    144      10.9222      0.00000

 soft charge-density along one line, spin component           1
         0         1         2         3         4         5         6         7         8         9
 total charge-density along one line

 soft charge-density along one line, spin component           2
         0         1         2         3         4         5         6         7         8         9
 total charge-density along one line

------------------------ aborting loop because EDIFF is reached ----------------------------------------

 total charge

# of ion       s       p       d       f       tot
    1        1.999   5.697   0.487   0.187   8.370
    2        1.999   5.697   0.487   0.187   8.370
    3        1.998   5.697   0.479   0.186   8.360
    4        1.999   5.698   0.483   0.189   8.369
    5        1.999   5.698   0.483   0.189   8.369
    6        1.998   5.697   0.479   0.186   8.360
    7        0.348   0.554   4.864   0.000   5.766
    8        0.319   0.484   4.893   0.000   5.696
    9        0.348   0.554   4.859   0.000   5.761
   10        0.319   0.484   4.897   0.000   5.700
   11        0.388   0.557   8.321   0.000   9.266
   12        0.388   0.556   8.324   0.000   9.268
   13        1.564   3.457   0.000   0.000   5.021
   14        1.564   3.457   0.000   0.000   5.021
   15        1.560   3.453   0.000   0.000   5.013
   16        1.559   3.458   0.000   0.000   5.017
   17        1.559   3.455   0.000   0.000   5.014
   18        1.560   3.456   0.000   0.000   5.016
   19        1.566   3.468   0.000   0.000   5.033
   20        1.561   3.462   0.000   0.000   5.023
   21        1.561   3.463   0.000   0.000   5.024
   22        1.566   3.468   0.000   0.000   5.034
   23        1.561   3.463   0.000   0.000   5.023
   24        1.561   3.462   0.000   0.000   5.023
   25        1.563   3.449   0.000   0.000   5.012
   26        1.560   3.456   0.000   0.000   5.016
   27        1.560   3.457   0.000   0.000   5.017
   28        1.563   3.449   0.000   0.000   5.013
   29        1.560   3.457   0.000   0.000   5.017
   30        1.560   3.456   0.000   0.000   5.017
tot         42.210  99.618  39.056   1.124 182.008

 magnetization (x)

[...]

  FORCE on cell =-STRESS in cart. coord.  units (eV):
  Direction    XX          YY          ZZ          XY          YZ          ZX
  Alpha Z   976.87372   976.87372   976.87372
  Ewald   -4988.14266 -4988.14266 -5085.93220     0.00000     0.00000    -0.00000
  Hartree  1107.35633  1107.35633  1034.89307     0.00000    -0.00000     0.00000
  E(xc)   -1025.98298 -1025.98298 -1025.86689     0.00000     0.00000    -0.00000
  Local    -650.73024  -650.73024  -485.51327    -0.00000    -0.00000     0.00000
  n-local   403.59062   403.26093   402.33198    -1.93115     0.00356     0.00169
  augment   343.79628   343.79628   345.73554     0.00000    -0.00000     0.00000
  Kinetic  3831.55980  3836.49372  3837.58103   -13.45504    -0.01169    -0.01249
  Fock        0.00000     0.00000     0.00000     0.00000     0.00000     0.00000
  Total       0.62298     0.62298     0.10299     0.00000    -0.00000     0.00000
  in kB       2.81062     2.81062     0.46463     0.00000    -0.00000     0.00000

 VOLUME and BASIS-vectors are now :
  energy-cutoff  :      520.00
  volume of cell :      355.13
      direct lattice vectors                 reciprocal lattice vectors
     3.890450524  3.890450524  0.000000000     0.128519820  0.128519820  0.000000000
     3.890450524 -3.890450524  0.000000000     0.128519820 -0.128519820  0.000000000
     0.000000000  0.000000000-11.731483118     0.000000000  0.000000000 -0.085240714

  length of vectors
     5.501927895  5.501927895 11.731483118     0.181754472  0.181754472  0.085240714

 FORCES acting on ions
    electron-ion (+dipol)            ewald-force                    non-local-force                 convergence-correction
   0.195E-11 -.196E-11 0.911E+02   -.198E-13 -.222E-14 -.906E+02   -.542E-19 -.163E-18 -.450E+00   0.192E-13 -.136E-13 -.360E-01
   -.215E-13 0.195E-13 -.911E+02   -.133E-13 0.213E-13 0.906E+02   0.542E-19 0.542E-19 0.450E+00   0.282E-13 0.238E-13 0.360E-01
   0.935E-13 -.938E-13 0.287E-11   -.933E-14 0.000E+00 0.995E-13   0.271E-18 0.271E-18 0.000E+00   0.135E-13 -.238E-14 -.113E-11
   -.371E-12 0.366E-12 0.911E+02   0.964E-14 0.382E-13 -.906E+02   -.163E-18 -.542E-19 -.450E+00   -.174E-13 -.347E-14 -.360E-01
   0.127E-11 -.127E-11 -.911E+02   0.114E-13 0.355E-13 0.906E+02   0.163E-18 0.813E-19 0.450E+00   0.109E-14 -.411E-13 0.360E-01
   0.171E-12 -.178E-12 -.141E-11   -.999E-15 -.426E-13 0.142E-13   -.298E-18 -.352E-18 0.000E+00   -.752E-15 -.102E-13 -.108E-11
   -.158E-12 0.419E-12 0.282E+02   -.506E-13 0.339E-13 -.277E+02   0.678E-20 0.678E-20 -.479E+00   -.250E-14 0.103E-13 -.296E-01
   0.106E-12 -.120E-12 0.929E+01   0.320E-13 0.139E-14 -.850E+01   0.136E-19 0.136E-19 -.766E+00   -.622E-14 -.458E-14 -.586E-02
   0.466E-12 -.469E-12 -.282E+02   -.284E-13 0.291E-13 0.277E+02   0.678E-20 0.678E-20 0.479E+00   -.206E-14 -.961E-14 0.296E-01
   0.122E-12 0.148E-12 -.929E+01   0.639E-13 -.178E-13 0.850E+01   0.136E-19 0.136E-19 0.766E+00   -.297E-13 -.118E-13 0.586E-02
   0.774E-12 -.757E-12 0.266E+02   -.426E-13 0.152E-13 -.270E+02   -.108E-18 -.542E-19 0.421E+00   -.646E-13 -.512E-13 -.356E-01
   0.783E-12 0.692E-12 -.266E+02   -.114E-12 -.274E-13 0.270E+02   0.136E-18 0.271E-19 -.421E+00   -.614E-13 -.337E-13 0.356E-01
   0.246E-12 -.240E-12 -.439E+02   0.213E-13 0.784E-14 0.449E+02   0.542E-19 0.542E-19 -.979E+00   -.501E-14 0.106E-15 0.799E-02
   0.116E-12 0.208E-12 0.439E+02   0.966E-14 0.128E-13 -.449E+02   -.542E-19 -.542E-19 0.979E+00   -.318E-14 0.179E-15 -.799E-02
   -.348E-12 0.351E-12 -.399E+02   -.249E-13 -.522E-14 0.363E+02   0.136E-19 0.000E+00 0.359E+01   -.111E-13 -.306E-13 0.886E-02
   0.103E-12 0.242E-12 -.857E+02   0.107E-13 0.141E-13 0.833E+02   -.169E-20 0.000E+00 0.249E+01   -.373E-13 -.375E-13 0.159E-01
   0.280E-12 -.268E-12 0.857E+02   0.133E-13 0.154E-14 -.833E+02   0.000E+00 0.000E+00 -.249E+01   -.107E-13 -.134E-13 -.159E-01
   0.629E-12 -.289E-12 0.399E+02   0.355E-13 -.636E-14 -.363E+02   -.271E-19 -.203E-19 -.359E+01   -.193E-13 -.747E-15 -.886E-02
   0.131E-11 -.219E-11 -.240E-11   0.690E-14 -.149E-13 -.426E-13   -.542E-19 0.000E+00 0.000E+00   0.361E-14 -.784E-13 0.658E-12
   0.202E-07 -.335E+02 0.194E+02   -.965E-14 0.285E+02 -.193E+02   0.000E+00 0.494E+01 -.117E+00   0.853E-14 0.559E-02 -.216E-01
   -.202E-07 -.335E+02 -.194E+02   -.355E-14 0.285E+02 0.193E+02   0.000E+00 0.494E+01 0.117E+00   0.268E-13 0.559E-02 0.216E-01
   0.194E-12 -.208E-13 -.240E-12   -.562E-15 0.123E-13 -.924E-13   0.542E-19 -.108E-18 0.000E+00   -.400E-14 0.601E-13 0.640E-12
   0.202E-07 0.335E+02 0.194E+02   0.262E-13 -.285E+02 -.193E+02   0.000E+00 -.494E+01 -.117E+00   -.577E-15 -.559E-02 -.216E-01
   -.202E-07 0.335E+02 -.194E+02   0.107E-13 -.285E+02 0.193E+02   0.000E+00 -.494E+01 0.117E+00   -.416E-13 -.559E-02 0.216E-01
   0.196E-11 -.258E-11 -.884E-12   -.106E-12 -.190E-13 -.128E-12   0.542E-19 -.108E-18 0.000E+00   -.580E-13 -.298E-14 0.644E-12
   -.335E+02 0.640E-13 0.194E+02   0.285E+02 -.543E-14 -.193E+02   0.494E+01 0.000E+00 -.117E+00   0.559E-02 0.190E-13 -.216E-01
   -.335E+02 -.881E-12 -.194E+02   0.285E+02 0.188E-13 0.193E+02   0.494E+01 0.000E+00 0.117E+00   0.559E-02 0.548E-13 0.216E-01
   0.299E-12 -.649E-12 0.324E-12   -.300E-13 -.161E-13 -.711E-13   0.000E+00 0.542E-19 0.000E+00   0.875E-13 -.270E-14 0.633E-12
   0.335E+02 -.136E-11 0.194E+02   -.285E+02 -.209E-13 -.193E+02   -.494E+01 0.000E+00 -.117E+00   -.559E-02 -.319E-13 -.216E-01
   0.335E+02 -.160E-12 -.194E+02   -.285E+02 -.124E-13 0.193E+02   -.494E+01 0.000E+00 0.117E+00   -.559E-02 -.539E-13 0.216E-01
   0.113E-10 -.748E-11 -.253E-10   0.284E-13 -.159E-13 -.107E-12   0.888E-15 0.888E-15 0.444E-15   -.115E-12 -.304E-12 -.112E-11

 POSITION                                       TOTAL-FORCE (eV/Angst)
      3.89045      0.00000     -3.85945         0.000000      0.000000     -0.002562
      0.00000      0.00000     -7.87204         0.000000     -0.000000      0.002562
      3.89045      0.00000      0.00000         0.000000      0.000000     -0.000000
      0.00000      0.00000     -3.85945         0.000000      0.000000     -0.002562
      3.89045      0.00000     -7.87204         0.000000     -0.000000      0.002562
      0.00000      0.00000      0.00000         0.000000     -0.000000     -0.000000
      1.94523      1.94523     -1.94208         0.000000     -0.000000     -0.009568
      1.94523     -1.94523     -5.85360         0.000000     -0.000000      0.018834
      1.94523     -1.94523     -9.78941         0.000000     -0.000000      0.009568
      1.94523      1.94523     -5.87789         0.000000     -0.000000     -0.018834
      1.94523     -1.94523     -1.95380         0.000000     -0.000000      0.011465
      1.94523      1.94523     -9.77768         0.000000     -0.000000     -0.011465
      1.94523     -1.94523     -7.82994         0.000000     -0.000000     -0.008584
      1.94523      1.94523     -3.90154         0.000000      0.000000      0.008584
      1.94523     -1.94523    -11.72147         0.000000      0.000000      0.039744
      1.94523      1.94523     -7.82406         0.000000     -0.000000      0.038629
      1.94523     -1.94523     -3.90742         0.000000      0.000000     -0.038629
      1.94523      1.94523     -0.01001         0.000000      0.000000     -0.039744
      5.83568      0.00000     -5.86574         0.000000      0.000000     -0.000000
      1.94523      0.03798     -1.96370         0.000000      0.008259      0.014897
      5.83568      0.03798     -9.76779         0.000000      0.008259     -0.014897
      1.94523      0.00000     -5.86574         0.000000     -0.000000     -0.000000
      5.83568     -0.03798     -1.96370         0.000000     -0.008259      0.014897
      1.94523     -0.03798     -9.76779         0.000000     -0.008259     -0.014897
      3.89045      1.94523     -5.86574         0.000000      0.000000     -0.000000
      3.92843     -1.94523     -1.96370         0.008259     -0.000000      0.014897
      3.92843      1.94523     -9.76779         0.008259     -0.000000     -0.014897
      3.89045     -1.94523     -5.86574         0.000000      0.000000     -0.000000
      3.85247      1.94523     -1.96370        -0.008259     -0.000000      0.014897
      3.85247     -1.94523     -9.76779        -0.008259     -0.000000     -0.014897
    total drift:                                0.000000     -0.000000     -0.000000

  FREE ENERGIE OF THE ION-ELECTRON SYSTEM (eV)
  free  energy   TOTEN  =      -226.78423340 eV

  energy  without entropy=     -226.78423340  energy(sigma->0) =     -226.78423340

 total charge

[...]

 magnetization (x)

# of ion       s       p       d       f       tot
    1        0.001   0.001   0.010   0.005   0.017
    2        0.001   0.001   0.010   0.005   0.017
    3        0.001   0.001   0.008   0.004   0.013
    4        0.001   0.001   0.010   0.005   0.017
    5        0.001   0.001   0.010   0.006   0.017
    6        0.001   0.001   0.008   0.004   0.013
    7        0.026   0.038   3.364   0.000   3.428
    8        0.024   0.026   3.737   0.000   3.787
    9        0.026   0.038   3.359   0.000   3.423
   10        0.023   0.026   3.741   0.000   3.791
   11        0.007  -0.004   1.688   0.000   1.691
   12        0.007  -0.004   1.691   0.000   1.694
   13        0.005  -0.043   0.000   0.000  -0.038
   14        0.005  -0.043   0.000   0.000  -0.038
   15        0.006  -0.012   0.000   0.000  -0.006
   16        0.006  -0.004   0.000   0.000   0.002
   17        0.006  -0.007   0.000   0.000  -0.001
   18        0.006  -0.009   0.000   0.000  -0.003
   19        0.007  -0.038   0.000   0.000  -0.031
   20        0.006  -0.010   0.000   0.000  -0.005
   21        0.006  -0.010   0.000   0.000  -0.004
   22        0.007  -0.038   0.000   0.000  -0.030
   23        0.006  -0.010   0.000   0.000  -0.004
   24        0.006  -0.010   0.000   0.000  -0.005
   25        0.004  -0.046   0.000   0.000  -0.042
   26        0.004  -0.007   0.000   0.000  -0.003
   27        0.004  -0.007   0.000   0.000  -0.003
   28        0.004  -0.045   0.000   0.000  -0.042
   29        0.004  -0.007   0.000   0.000  -0.003
   30        0.004  -0.007   0.000   0.000  -0.003
tot          0.209  -0.226  17.637   0.028  17.648

 BZINTS: Fermi energy:  8.108778;222.000000 electrons
         Band energy:-368.112188;  BLOECHL correction: -0.048124