 vasp.5.4.4.18Apr17-6-g9f103f2a35 (build Oct 03 2018 13:58:34) complex

 executed on             LinuxIFC date 2019.06.04  01:00:05

 INCAR:
 POTCAR:    PAW_PBE La 06Sep2000
 POTCAR:    PAW_PBE Mn 06Sep2000
 POTCAR:    PAW_PBE Ni 02Aug2007
 POTCAR:    PAW_PBE O 08Apr2002

 POTCAR:    PAW_PBE La 06Sep2000
   VRHFIN =La : [core=Kr4d]

   TITEL  = PAW_PBE La 06Sep2000
   POMASS =  138.900; ZVAL   =   11.000    mass and valenz
   ENMAX  =  219.292; ENMIN  =  164.469 eV

 POTCAR:    PAW_PBE Mn 06Sep2000
   VRHFIN =Mn: d6 s1

   TITEL  = PAW_PBE Mn 06Sep2000
   POMASS =   54.938; ZVAL   =    7.000    mass and valenz
   ENMAX  =  269.864; ENMIN  =  202.398 eV

 POTCAR:    PAW_PBE Ni 02Aug2007
   VRHFIN =Ni:

   TITEL  = PAW_PBE Ni 02Aug2007
   POMASS =   58.690; ZVAL   =   10.000    mass and valenz
   ENMAX  =  269.532; ENMIN  =  202.149 eV

 POTCAR:    PAW_PBE O 08Apr2002
   VRHFIN =O: s2p4

   TITEL  = PAW_PBE O 08Apr2002
   POMASS =   16.000; ZVAL   =    6.000    mass and valenz
   ENMAX  =  400.000; ENMIN  =  300.000 eV

 Optimization of the real space projectors (new method)

 maximal supplied QI-value         = 13.42
 optimisation between [QCUT,QGAM] = [ 11.67, 23.35] = [ 38.16,152.62] Ry
 Optimized for a Real-space Cutoff    1.63 Angstroem

   l    n(q)    QCUT    max X(q) W(low)/X(q) W(high)/X(q)  e(spline)
   0     11    11.673    13.882    0.27E-04    0.79E-05    0.11E-06
   0     11    11.673    12.184    0.39E-04    0.13E-04    0.19E-06
   1     11    11.673     4.523    0.73E-05    0.76E-05    0.12E-06
   1     11    11.673     4.424    0.87E-05    0.13E-04    0.19E-06
   2     10    11.673    52.481    0.65E-04    0.36E-04    0.18E-06
   2     10    11.673    38.501    0.61E-04    0.33E-04    0.17E-06
   3     10    11.673    65.631    0.17E-03    0.14E-03    0.37E-06
   3     10    11.673    56.854    0.17E-03    0.14E-03    0.37E-06
 Optimization of the real space projectors (new method)

[...]

   l    n(q)    QCUT    max X(q) W(low)/X(q) W(high)/X(q)  e(spline)
   2      9    11.539    60.317    0.19E-03    0.47E-04    0.16E-06
   2      9    11.539    55.921    0.19E-03    0.48E-04    0.16E-06
   0     10    11.539    51.690    0.80E-04    0.50E-04    0.24E-06
   0     10    11.539    30.015    0.73E-04    0.45E-04    0.22E-06
   1     10    11.539    18.849    0.87E-04    0.16E-03    0.71E-07
   1     10    11.539    14.624    0.73E-04    0.13E-03    0.64E-07
 Optimization of the real space projectors (new method)

 maximal supplied QI-value         = 24.76
 optimisation between [QCUT,QGAM] = [ 11.64, 23.27] = [ 37.91,151.63] Ry
 Optimized for a Real-space Cutoff    1.14 Angstroem

   l    n(q)    QCUT    max X(q) W(low)/X(q) W(high)/X(q)  e(spline)
   0      8    11.635    20.381    0.10E-03    0.33E-03    0.24E-06
   0      8    11.635    15.268    0.11E-03    0.35E-03    0.26E-06
   1      7    11.635     5.964    0.24E-03    0.31E-03    0.30E-06
   1      7    11.635     5.382    0.22E-03    0.25E-03    0.26E-06
  PAW_PBE La 06Sep2000                  :
  PAW_PBE Mn 06Sep2000                  :
  PAW_PBE Ni 02Aug2007                  :
  PAW_PBE O 08Apr2002                   :

 POSCAR: SCEL5_1_1_5_0_0_0/1
  positions in direct lattice
  velocities in cartesian coordinates
 exchange correlation table for  LEXCH =        8
   RHO(1)=    0.500       N(1)  =     2000
   RHO(2)=  100.500       N(2)  =     4000

 ion  position               nearest neighbor table
   1  0.000  0.000  0.200-  14 2.75  14 2.75  14 2.75  14 2.75  24 2.80  24 2.80  19 2.80  19 2.80
                            20 2.80  25 2.80  20 2.80  25 2.80   9 3.37   9 3.37   9 3.37   9 3.37
   2  0.000  0.000  0.387-  19 2.56  24 2.56  24 2.56  19 2.56  13 2.76  13 2.76  13 2.76  13 2.76
                             9 3.24   9 3.24   9 3.24   9 3.24
   3  0.000  0.000  0.596-  18 2.67  23 2.67  23 2.67  18 2.67  12 2.75  12 2.75  12 2.75  12 2.75
                            22 2.82  17 2.82  22 2.82  17 2.82   8 3.36   8 3.36   8 3.36   8 3.36
   4  0.000  0.000  0.804-  16 2.67  21 2.67  21 2.67  16 2.67  11 2.75  11 2.75  11 2.75  11 2.75
                            17 2.82  22 2.82  17 2.82  22 2.82   7 3.36   7 3.36   7 3.36   7 3.36
   5  0.000  0.000  0.013-  20 2.56  25 2.56  25 2.56  20 2.56  15 2.76  15 2.76  15 2.76  15 2.76
                            10 3.24  10 3.24  10 3.24  10 3.24
   6  0.500  0.500  0.700-  17 1.94  22 1.94  17 1.94  22 1.94  11 2.03  12 2.03   4 3.43   4 3.43
                             4 3.43   4 3.43   3 3.43   3 3.43   3 3.43   3 3.43
   7  0.500  0.500  0.902-  15 1.89  16 1.94  21 1.94  16 1.94  21 1.94  11 1.96   4 3.36   4 3.36
                             4 3.36   4 3.36
   8  0.500  0.500  0.498-  13 1.89  18 1.94  23 1.94  18 1.94  23 1.94  12 1.96   3 3.36   3 3.36
                             3 3.36   3 3.36
   9  0.500  0.500  0.299-  19 1.94  24 1.94  19 1.94  24 1.94  14 1.96  13 2.03   2 3.24   2 3.24
                             2 3.24   2 3.24   1 3.37   1 3.37   1 3.37   1 3.37
  10  0.500  0.500  0.101-  20 1.94  25 1.94  20 1.94  25 1.94  14 1.96  15 2.03   5 3.24   5 3.24
                             5 3.24   5 3.24   1 3.37   1 3.37   1 3.37   1 3.37
  11  0.500  0.500  0.803-   7 1.96   6 2.03   4 2.75   4 2.75   4 2.75   4 2.75
  12  0.500  0.500  0.597-   8 1.96   6 2.03   3 2.75   3 2.75   3 2.75   3 2.75
  13  0.500  0.500  0.402-   8 1.89   9 2.03   2 2.76   2 2.76   2 2.76   2 2.76
  14  0.500  0.500  0.200-   9 1.96  10 1.96   1 2.75   1 2.75   1 2.75   1 2.75
  15  0.500  0.500  0.998-   7 1.89  10 2.03   5 2.76   5 2.76   5 2.76   5 2.76
  16  0.500  0.000  0.896-   7 1.94   7 1.94   4 2.67   4 2.67
  17  0.500  0.000  0.700-   6 1.94   6 1.94   4 2.82   4 2.82   3 2.82   3 2.82
  18  0.500  0.000  0.504-   8 1.94   8 1.94   3 2.67   3 2.67
  19  0.500  0.000  0.302-   9 1.94   9 1.94   2 2.56   2 2.56   1 2.80   1 2.80
  20  0.500  0.000  0.098-  10 1.94  10 1.94   5 2.56   5 2.56   1 2.80   1 2.80
  21  0.000  0.500  0.896-   7 1.94   7 1.94   4 2.67   4 2.67
  22  0.000  0.500  0.700-   6 1.94   6 1.94   4 2.82   4 2.82   3 2.82   3 2.82
  23  0.000  0.500  0.504-   8 1.94   8 1.94   3 2.67   3 2.67
  24  0.000  0.500  0.302-   9 1.94   9 1.94   2 2.56   2 2.56   1 2.80   1 2.80
  25  0.000  0.500  0.098-  10 1.94  10 1.94   5 2.56   5 2.56   1 2.80   1 2.80

  LATTYP: Found a simple tetragonal cell.
 ALAT       =     3.8822505941
 C/A-ratio  =     5.0868703522

  Lattice vectors:

 A1 = (   3.8822505941,   0.0000000000,   0.0000000000)
 A2 = (   0.0000000000,   3.8822505941,   0.0000000000)
 A3 = (   0.0000000000,   0.0000000000,  19.7485054471)

Analysis of symmetry for initial positions (statically):
 Subroutine PRICEL returns:
 Original cell was already a primitive cell.

 Routine SETGRP: Setting up the symmetry group for a
 simple tetragonal supercell.

 Subroutine GETGRP returns: Found 16 space group operations
 (whereof  8 operations were pure point group operations)
 out of a pool of 16 trial point group operations.

The static configuration has the point symmetry C_4v.
 The point group associated with its full space group is D_4h.

Analysis of symmetry for dynamics (positions and initial velocities):
 Subroutine PRICEL returns:
 Original cell was already a primitive cell.

[...]

The dynamic configuration has the point symmetry C_4v.
 The point group associated with its full space group is D_4h.

Analysis of structural, dynamic, and magnetic symmetry:
 Subroutine PRICEL returns:
 Original cell was already a primitive cell.

 Routine SETGRP: Setting up the symmetry group for a
 simple tetragonal supercell.

 Subroutine GETGRP returns: Found 16 space group operations
 (whereof  8 operations were pure point group operations)
 out of a pool of 16 trial point group operations.

The magnetic configuration has the point symmetry C_4v.
 The point group associated with its full space group is D_4h.

 Subroutine INISYM returns: Found 16 space group operations
 (whereof  8 operations are pure point group operations),
 and found     1 'primitive' translations

 KPOINTS: Automatic mesh

Automatic generation of k-mesh.
 generate k-points for:    5    5    1
Space group operators:
 irot       det(A)        alpha          n_x          n_y          n_z        tau_x        tau_y        tau_z
    1     1.000000     0.000000     1.000000     0.000000     0.000000     0.000000     0.000000     0.000000
    2     1.000000    90.000000     0.000000     0.000000    -1.000000     0.000000     0.000000     0.000000
    3     1.000000   180.000000     0.000000     0.000000     1.000000     0.000000     0.000000     0.000000
    4     1.000000    90.000000     0.000000     0.000000     1.000000     0.000000     0.000000     0.000000
    5    -1.000000   180.000000     0.000000     1.000000     0.000000     0.000000     0.000000     0.000000
    6    -1.000000   180.000000     0.707107     0.707107     0.000000     0.000000     0.000000     0.000000
    7    -1.000000   180.000000     1.000000     0.000000     0.000000     0.000000     0.000000     0.000000
    8    -1.000000   180.000000     0.707107    -0.707107     0.000000     0.000000     0.000000     0.000000
    9    -1.000000     0.000000     1.000000     0.000000     0.000000     0.000000     0.000000     0.400000
   10    -1.000000    90.000000     0.000000     0.000000    -1.000000     0.000000     0.000000     0.400000
   11    -1.000000   180.000000     0.000000     0.000000     1.000000     0.000000     0.000000     0.400000
   12    -1.000000    90.000000     0.000000     0.000000     1.000000     0.000000     0.000000     0.400000
   13     1.000000   180.000000     0.000000     1.000000     0.000000     0.000000     0.000000     0.400000
   14     1.000000   180.000000     0.707107     0.707107     0.000000     0.000000     0.000000     0.400000
   15     1.000000   180.000000     1.000000     0.000000     0.000000     0.000000     0.000000     0.400000
   16     1.000000   180.000000     0.707107    -0.707107     0.000000     0.000000     0.000000     0.400000

 Subroutine IBZKPT returns following result:

 Found      6 irreducible k-points:

 Following reciprocal coordinates:
            Coordinates               Weight
  0.000000  0.000000  0.000000      1.000000
  0.200000  0.000000  0.000000      4.000000
  0.400000  0.000000  0.000000      4.000000
  0.200000  0.200000  0.000000      4.000000
  0.400000  0.200000  0.000000      8.000000
  0.400000  0.400000  0.000000      4.000000

 Following cartesian coordinates:
            Coordinates               Weight
  0.000000  0.000000  0.000000      1.000000
  0.051517  0.000000  0.000000      4.000000
  0.103033  0.000000  0.000000      4.000000
  0.051517  0.051517  0.000000      4.000000
  0.103033  0.051517  0.000000      8.000000
  0.103033  0.103033  0.000000      4.000000

 TETIRR: Found     31 inequivalent tetrahedra from      150

 SYSTEM =  final
 POSCAR =  SCEL5_1_1_5_0_0_0/1

 Startparameter for this run:
   NWRITE =      2    write-flag & timer
   PREC   = accura    normal or accurate (medium, high low for compatibility)
   ISTART =      0    job   : 0-new  1-cont  2-samecut
[...]
       1 -95.6518       2 -95.5210       3 -95.8127       4 -95.8127       5 -95.5210
       6 -42.7022       7 -43.0962       8 -43.0962       9 -83.7944      10 -83.7944
      11 -67.2720      12 -67.2720      13 -67.0510      14 -66.4916      15 -67.0510
      16 -67.3584      17 -67.3942      18 -67.3584      19 -66.8534      20 -66.8534
      21 -67.3584      22 -67.3942      23 -67.3584      24 -66.8534      25 -66.8534

 E-fermi :   7.5462     XC(G=0): -11.6180     alpha+bet :-16.2233

[...]

 k-point     1 :       0.0000    0.0000    0.0000
  band No.  band energies     occupation
      1     -24.3154      1.00000
      2     -24.2973      1.00000
      3     -24.1083      1.00000
      4     -24.0414      1.00000
      5     -24.0198      1.00000
      6     -11.5549      1.00000
      7     -11.4387      1.00000
      8     -11.2284      1.00000
      9     -11.1945      1.00000
     10     -10.9846      1.00000
     11     -10.0182      1.00000
     12      -9.9956      1.00000
     13      -9.9675      1.00000
     14      -9.9669      1.00000
     15      -9.9559      1.00000
     16      -9.8978      1.00000
     17      -9.8645      1.00000
     18      -9.6285      1.00000
     19      -9.6123      1.00000
     20      -9.3476      1.00000
     21      -7.8274      1.00000
     22      -7.8274      1.00000
     23      -7.7956      1.00000
     24      -7.7956      1.00000
     25      -7.6452      1.00000
     26      -7.5911      1.00000
     27      -7.5911      1.00000
     28      -7.5449      1.00000
     29      -7.5449      1.00000
     30      -7.4626      1.00000
     31      -7.4626      1.00000
     32      -7.4390      1.00000
     33      -7.2502      1.00000
     34      -6.9254      1.00000
     35      -6.7894      1.00000
     36       0.5242      1.00000
     37       1.0444      1.00000
     38       1.7065      1.00000
     39       2.0903      1.00000
     40       2.1234      1.00000
     41       2.1234      1.00000
     42       2.1479      1.00000
     43       2.1479      1.00000
     44       2.3658      1.00000
     45       2.3658      1.00000
     46       2.4816      1.00000
     47       2.4816      1.00000
     48       2.5635      1.00000
     49       2.5710      1.00000
     50       2.7288      1.00000
     51       2.7295      1.00000
     52       2.7953      1.00000
     53       2.7953      1.00000
     54       2.8596      1.00000
     55       2.8596      1.00000
     56       2.8632      1.00000
     57       2.8639      1.00000
     58       2.9587      1.00000
     59       2.9699      1.00000
     60       2.9699      1.00000
[...]
    106       9.9146      0.00000
    107      10.2585      0.00000
    108      10.3676      0.00000
    109      10.4167      0.00000
    110      10.4526      0.00000
    111      10.5818      0.00000
    112      10.6310      0.00000
    113      10.6665      0.00000
    114      10.7499      0.00000
    115      10.7773      0.00000
    116      10.8065      0.00000
    117      10.8597      0.00000
    118      10.8865      0.00000
    119      10.9045      0.00000
    120      10.9240      0.00000

[...]

 spin component 2

[...]

 k-point     6 :       0.4000    0.4000    0.0000
  band No.  band energies     occupation
      1     -24.2019      1.00000
      2     -24.1889      1.00000
      3     -23.9989      1.00000
      4     -23.9276      1.00000
      5     -23.9145      1.00000
      6     -10.8988      1.00000
      7     -10.7545      1.00000
      8     -10.6093      1.00000
      9     -10.5702      1.00000
     10     -10.4418      1.00000
     11     -10.4260      1.00000
     12     -10.3319      1.00000
     13     -10.3272      1.00000
     14     -10.1205      1.00000
     15     -10.1082      1.00000
     16     -10.0730      1.00000
     17     -10.0689      1.00000
     18      -9.8850      1.00000
     19      -9.8400      1.00000
     20      -9.4115      1.00000
     21      -8.1082      1.00000
     22      -7.9834      1.00000
     23      -7.9671      1.00000
     24      -7.9524      1.00000
     25      -7.9196      1.00000
     26      -7.8039      1.00000
     27      -7.7439      1.00000
     28      -7.6741      1.00000
     29      -7.6309      1.00000
     30      -7.5018      1.00000
     31      -7.3890      1.00000
     32      -7.3347      1.00000
     33      -7.1671      1.00000
     34      -7.0651      1.00000
     35      -6.9452      1.00000
     36       1.0255      1.00000
     37       1.0522      1.00000
     38       1.4302      1.00000
     39       1.4631      1.00000
     40       1.6435      1.00000
     41       1.8905      1.00000
     42       2.1996      1.00000
     43       2.3803      1.00000
     44       2.5365      1.00000
     45       2.6258      1.00000
     46       2.6601      1.00000
     47       2.6778      1.00000
     48       2.8531      1.00000
     49       2.8609      1.00000
     50       2.8708      1.00000
     51       2.8721      1.00000
     52       3.1794      1.00000
     53       3.1908      1.00000
     54       3.2743      1.00000
     55       3.3601      1.00000
     56       3.4979      1.00000
     57       3.5259      1.00000
     58       3.5267      1.00000
     59       3.5909      1.00000
     60       3.6196      1.00000
[...]
    106      10.7977      0.00000
    107      10.8293      0.00000
    108      10.8373      0.00000
    109      10.8490      0.00000
    110      10.8895      0.00000
    111      10.9165      0.00000
    112      10.9335      0.00000
    113      10.9553      0.00000
    114      10.9698      0.00000
    115      10.9782      0.00000
    116      10.9997      0.00000
    117      11.0227      0.00000
    118      11.0651      0.00000
    119      11.1273      0.00000
    120      11.1597      0.00000

 soft charge-density along one line, spin component           1
         0         1         2         3         4         5         6         7         8         9
 total charge-density along one line

 soft charge-density along one line, spin component           2
         0         1         2         3         4         5         6         7         8         9
 total charge-density along one line

------------------------ aborting loop because EDIFF is reached ----------------------------------------

 total charge

# of ion       s       p       d       f       tot
    1        1.998   5.694   0.468   0.181   8.340
    2        2.004   5.694   0.521   0.197   8.417
    3        2.000   5.699   0.495   0.191   8.385
    4        2.000   5.699   0.495   0.191   8.385
    5        2.004   5.694   0.521   0.197   8.417
    6        0.308   0.455   4.881   0.000   5.644
    7        0.331   0.505   4.863   0.000   5.698
    8        0.331   0.505   4.863   0.000   5.698
    9        0.411   0.605   8.323   0.000   9.340
   10        0.411   0.605   8.323   0.000   9.340
   11        1.564   3.450   0.000   0.000   5.014
   12        1.564   3.450   0.000   0.000   5.014
   13        1.562   3.446   0.000   0.000   5.008
   14        1.557   3.431   0.000   0.000   4.989
   15        1.562   3.446   0.000   0.000   5.008
   16        1.559   3.521   0.000   0.000   5.080
   17        1.556   3.533   0.000   0.000   5.089
   18        1.559   3.521   0.000   0.000   5.081
   19        1.557   3.516   0.000   0.000   5.074
   20        1.557   3.516   0.000   0.000   5.074
   21        1.571   3.383   0.000   0.000   4.954
   22        1.569   3.381   0.000   0.000   4.950
   23        1.571   3.384   0.000   0.000   4.954
   24        1.561   3.397   0.000   0.000   4.958
   25        1.561   3.397   0.000   0.000   4.958
tot         35.230  82.927  33.753   0.957 152.866

 magnetization (x)

[...]

  FORCE on cell =-STRESS in cart. coord.  units (eV):
  Direction    XX          YY          ZZ          XY          YZ          ZX
  Alpha Z   807.95907   807.95907   807.95907
  Ewald   -3874.24253 -3874.24253 -4649.51717    -0.00000    -0.00000    -0.00000
  Hartree  1242.80657  1242.80657   571.48029    -0.00000    -0.00000    -0.00000
  E(xc)    -861.42829  -861.42829  -861.77779    -0.00000    -0.00000    -0.00000
  Local   -1187.79176 -1187.79176   252.46262    -0.00000    -0.00000     0.00000
  n-local   344.38734   336.98481   339.82597    -2.32321     0.00103    -0.00129
  augment   333.45870   333.45870   336.11965     0.00000    -0.00000     0.00000
  Kinetic  3154.18574  3242.50218  3203.38482    -8.77441    -0.00093     0.00276
  Fock        0.00000     0.00000     0.00000     0.00000     0.00000     0.00000
  Total      -0.20821    -0.20821    -0.06253     0.00000     0.00000     0.00000
  in kB      -1.12073    -1.12073    -0.33659     0.00000     0.00000     0.00000

 VOLUME and BASIS-vectors are now :
  energy-cutoff  :      520.00
  volume of cell :      297.65
      direct lattice vectors                 reciprocal lattice vectors
     3.882250594  0.000000000  0.000000000     0.257582548  0.000000000  0.000000000
     0.000000000  3.882250594  0.000000000     0.000000000  0.257582548  0.000000000
     0.000000000  0.000000000 19.748505447     0.000000000  0.000000000  0.050636743

  length of vectors
     3.882250594  3.882250594 19.748505447     0.257582548  0.257582548  0.050636743

 FORCES acting on ions
    electron-ion (+dipol)            ewald-force                    non-local-force                 convergence-correction
   -.217E-14 -.136E-13 -.219E-11   0.137E-13 0.108E-13 -.859E-10   0.678E-20 0.000E+00 -.108E-18   -.962E-14 0.220E-14 -.182E-12
   -.596E-14 -.840E-13 -.377E+03   0.195E-13 0.793E-14 0.375E+03   0.000E+00 0.000E+00 0.256E+01   -.375E-14 0.466E-14 -.192E+00
   -.168E-13 -.387E-13 -.144E+03   -.522E-14 0.102E-13 0.143E+03   0.000E+00 0.000E+00 0.946E+00   -.594E-14 0.512E-14 -.109E+00
   -.791E-14 0.106E-13 0.144E+03   -.238E-13 0.308E-14 -.143E+03   0.000E+00 0.000E+00 -.946E+00   -.130E-13 0.119E-13 0.109E+00
   -.402E-14 0.210E-13 0.377E+03   -.155E-15 0.416E-14 -.375E+03   0.000E+00 -.678E-20 -.256E+01   -.127E-13 0.912E-15 0.192E+00
   0.629E-13 0.109E-11 0.884E-11   0.263E-13 -.165E-13 -.107E-10   0.000E+00 0.000E+00 -.203E-19   0.163E-13 0.499E-14 0.120E-11
   0.612E-13 0.268E-12 0.106E+03   0.151E-13 0.405E-15 -.105E+03   0.339E-20 0.000E+00 -.700E+00   0.239E-13 0.123E-13 0.124E+00
   0.656E-13 0.442E-12 -.106E+03   -.516E-14 -.804E-14 0.105E+03   -.339E-20 0.000E+00 0.700E+00   0.966E-14 0.821E-14 -.124E+00
   0.295E-12 0.130E-11 -.127E+03   -.221E-13 -.123E-13 0.125E+03   -.212E-21 -.847E-21 0.208E+01   0.507E-13 0.167E-14 -.115E+00
   0.343E-12 0.308E-11 0.127E+03   -.309E-13 -.109E-13 -.125E+03   0.000E+00 0.847E-21 -.208E+01   0.399E-13 0.169E-13 0.115E+00
   0.115E-12 0.132E-11 0.851E+02   0.848E-14 0.303E-14 -.875E+02   -.678E-20 0.000E+00 0.213E+01   0.337E-13 0.244E-14 0.401E-01
   0.125E-12 0.873E-12 -.851E+02   -.362E-14 -.244E-14 0.875E+02   0.339E-20 0.000E+00 -.213E+01   0.259E-13 -.727E-14 -.401E-01
   0.131E-12 0.988E-12 -.193E+03   0.748E-14 0.953E-14 0.188E+03   -.339E-20 0.678E-20 0.546E+01   0.256E-13 -.788E-14 -.126E+00
   0.123E-12 -.101E-13 0.175E-10   0.406E-14 -.496E-14 -.286E-10   0.000E+00 0.254E-20 -.678E-20   0.406E-13 -.170E-13 0.103E-12
   0.122E-12 0.293E-12 0.193E+03   0.332E-14 0.259E-14 -.188E+03   0.678E-20 -.678E-20 -.546E+01   0.463E-13 -.836E-14 0.126E+00
   0.126E-12 -.659E-13 0.810E+02   0.169E-14 0.741E-14 -.801E+02   -.169E-20 0.424E-20 -.105E+01   0.387E-13 0.142E-13 0.855E-01
   0.119E-12 0.120E-13 0.478E-11   0.952E-14 0.141E-13 -.306E-10   0.339E-20 0.000E+00 -.136E-19   0.374E-13 0.313E-13 0.107E-11
   0.116E-12 0.549E-13 -.810E+02   -.169E-13 -.150E-14 0.801E+02   0.000E+00 -.339E-20 0.105E+01   0.291E-13 0.366E-13 -.855E-01
   0.122E-12 0.403E-13 -.712E+02   0.761E-14 0.933E-14 0.694E+02   0.000E+00 0.000E+00 0.187E+01   0.243E-13 0.545E-13 -.615E-01
   0.123E-12 0.110E-13 0.712E+02   -.914E-15 0.779E-14 -.694E+02   0.212E-21 0.000E+00 -.187E+01   0.308E-13 0.421E-13 0.615E-01
   -.715E-14 0.988E-13 0.810E+02   -.540E-14 0.462E-14 -.801E+02   0.000E+00 0.000E+00 -.105E+01   -.298E-14 -.664E-14 0.855E-01
   -.453E-14 0.108E-12 0.600E-11   -.763E-14 -.268E-14 -.360E-10   0.000E+00 0.000E+00 0.102E-19   -.288E-14 -.125E-13 0.107E-11
   -.101E-13 -.253E-12 -.810E+02   -.893E-14 0.402E-14 0.801E+02   0.000E+00 -.339E-20 0.105E+01   -.158E-14 -.611E-14 -.855E-01
   -.760E-14 0.329E-12 -.712E+02   0.760E-14 -.661E-14 0.694E+02   0.000E+00 0.000E+00 0.187E+01   -.639E-14 -.715E-17 -.615E-01
   -.902E-14 0.181E-12 0.712E+02   0.748E-15 -.182E-14 -.694E+02   -.424E-21 0.000E+00 -.187E+01   0.349E-14 -.480E-14 0.615E-01
   0.197E-11 0.100E-10 0.131E-08   -.561E-14 0.313E-13 -.227E-12   0.805E-20 -.678E-20 -.355E-14   0.417E-12 0.179E-12 -.533E-12

 POSITION                                       TOTAL-FORCE (eV/Angst)
      0.00000      0.00000      3.94970         0.000000     -0.000000     -0.000000
      0.00000      0.00000      7.63621         0.000000     -0.000000      0.076591
      0.00000      0.00000     11.77432        -0.000000     -0.000000     -0.061700
      0.00000      0.00000     15.87359         0.000000     -0.000000      0.061700
      0.00000      0.00000      0.26319         0.000000      0.000000     -0.076591
      1.94113      1.94113     13.82395         0.000000     -0.000000     -0.000000
      1.94113      1.94113     17.81200         0.000000     -0.000000     -0.043342
      1.94113      1.94113      9.83591         0.000000     -0.000000      0.043342
      1.94113      1.94113      5.91280         0.000000     -0.000000     -0.080161
      1.94113      1.94113      1.98661         0.000000      0.000000      0.080161
      1.94113      1.94113     15.85398         0.000000     -0.000000     -0.133328
      1.94113      1.94113     11.79393         0.000000      0.000000      0.133328
      1.94113      1.94113      7.94300         0.000000      0.000000     -0.018634
      1.94113      1.94113      3.94970        -0.000000      0.000000     -0.000000
      1.94113      1.94113     19.70491         0.000000     -0.000000      0.018634
      1.94113      0.00000     17.70304         0.000000      0.000000     -0.061398
      1.94113      0.00000     13.82395         0.000000     -0.000000     -0.000000
      1.94113      0.00000      9.94487         0.000000     -0.000000      0.061398
      1.94113      0.00000      5.96741         0.000000      0.000000     -0.023239
      1.94113      0.00000      1.93199         0.000000      0.000000      0.023239
      0.00000      1.94113     17.70304         0.000000     -0.000000     -0.061398
      0.00000      1.94113     13.82395         0.000000     -0.000000     -0.000000
      0.00000      1.94113      9.94487         0.000000     -0.000000      0.061398
      0.00000      1.94113      5.96741         0.000000     -0.000000     -0.023239
      0.00000      1.94113      1.93199         0.000000     -0.000000      0.023239
    total drift:                                0.000000      0.000000      0.000000

  FREE ENERGIE OF THE ION-ELECTRON SYSTEM (eV)
  free  energy   TOTEN  =      -186.37781261 eV

  energy  without entropy=     -186.37781261  energy(sigma->0) =     -186.37781261

 total charge

[...]

 magnetization (x)

# of ion       s       p       d       f       tot
    1        0.000  -0.001   0.003   0.001   0.003
    2        0.000  -0.000   0.008   0.005   0.012
    3        0.001   0.001   0.014   0.007   0.022
    4        0.001   0.001   0.014   0.007   0.022
    5        0.000  -0.000   0.008   0.005   0.012
    6        0.023   0.018   3.780   0.000   3.821
    7        0.024   0.023   3.531   0.000   3.578
    8        0.024   0.023   3.531   0.000   3.578
    9        0.017   0.016   1.568   0.000   1.601
   10        0.017   0.016   1.568   0.000   1.601
   11        0.006  -0.041   0.000   0.000  -0.035
   12        0.006  -0.041   0.000   0.000  -0.035
   13        0.006  -0.019   0.000   0.000  -0.013
   14        0.007  -0.014   0.000   0.000  -0.007
   15        0.006  -0.019   0.000   0.000  -0.013
   16        0.008  -0.069   0.000   0.000  -0.060
   17        0.007  -0.049   0.000   0.000  -0.042
   18        0.008  -0.069   0.000   0.000  -0.060
   19        0.011  -0.016   0.000   0.000  -0.005
   20        0.011  -0.016   0.000   0.000  -0.005
   21       -0.000  -0.045   0.000   0.000  -0.046
   22       -0.000  -0.046   0.000   0.000  -0.047
   23       -0.000  -0.045   0.000   0.000  -0.046
   24        0.002  -0.043   0.000   0.000  -0.041
   25        0.002  -0.043   0.000   0.000  -0.041
tot          0.185  -0.477  14.022   0.024  13.754

 BZINTS: Fermi energy:  7.546221;186.000000 electrons
         Band energy:-313.880170;  BLOECHL correction: -0.163836