 vasp.5.4.4.18Apr17-6-g9f103f2a35 (build Oct 03 2018 13:58:34) complex

 executed on             LinuxIFC date 2019.06.04  01:14:15

 INCAR:
 POTCAR:    PAW_PBE La 06Sep2000
 POTCAR:    PAW_PBE Mn 06Sep2000
 POTCAR:    PAW_PBE Ni 02Aug2007
 POTCAR:    PAW_PBE O 08Apr2002

 POTCAR:    PAW_PBE La 06Sep2000
   VRHFIN =La : [core=Kr4d]

   TITEL  = PAW_PBE La 06Sep2000
   POMASS =  138.900; ZVAL   =   11.000    mass and valenz
   ENMAX  =  219.292; ENMIN  =  164.469 eV

 POTCAR:    PAW_PBE Mn 06Sep2000
   VRHFIN =Mn: d6 s1

   TITEL  = PAW_PBE Mn 06Sep2000
   POMASS =   54.938; ZVAL   =    7.000    mass and valenz
   ENMAX  =  269.864; ENMIN  =  202.398 eV

 POTCAR:    PAW_PBE Ni 02Aug2007
   VRHFIN =Ni:

   TITEL  = PAW_PBE Ni 02Aug2007
   POMASS =   58.690; ZVAL   =   10.000    mass and valenz
   ENMAX  =  269.532; ENMIN  =  202.149 eV

 POTCAR:    PAW_PBE O 08Apr2002
   VRHFIN =O: s2p4

   TITEL  = PAW_PBE O 08Apr2002
   POMASS =   16.000; ZVAL   =    6.000    mass and valenz
   ENMAX  =  400.000; ENMIN  =  300.000 eV

 Optimization of the real space projectors (new method)

 maximal supplied QI-value         = 13.42
 optimisation between [QCUT,QGAM] = [ 11.67, 23.35] = [ 38.16,152.62] Ry
 Optimized for a Real-space Cutoff    1.63 Angstroem

   l    n(q)    QCUT    max X(q) W(low)/X(q) W(high)/X(q)  e(spline)
   0     11    11.673    13.882    0.27E-04    0.79E-05    0.11E-06
   0     11    11.673    12.184    0.39E-04    0.13E-04    0.19E-06
   1     11    11.673     4.523    0.73E-05    0.76E-05    0.12E-06
   1     11    11.673     4.424    0.87E-05    0.13E-04    0.19E-06
   2     10    11.673    52.481    0.65E-04    0.36E-04    0.18E-06
   2     10    11.673    38.501    0.61E-04    0.33E-04    0.17E-06
   3     10    11.673    65.631    0.17E-03    0.14E-03    0.37E-06
   3     10    11.673    56.854    0.17E-03    0.14E-03    0.37E-06
 Optimization of the real space projectors (new method)

[...]

   l    n(q)    QCUT    max X(q) W(low)/X(q) W(high)/X(q)  e(spline)
   2      9    11.539    60.317    0.19E-03    0.47E-04    0.16E-06
   2      9    11.539    55.921    0.19E-03    0.48E-04    0.16E-06
   0     10    11.539    51.690    0.80E-04    0.50E-04    0.24E-06
   0     10    11.539    30.015    0.73E-04    0.45E-04    0.22E-06
   1     10    11.539    18.849    0.87E-04    0.16E-03    0.71E-07
   1     10    11.539    14.624    0.73E-04    0.13E-03    0.64E-07
 Optimization of the real space projectors (new method)

 maximal supplied QI-value         = 24.76
 optimisation between [QCUT,QGAM] = [ 11.64, 23.27] = [ 37.91,151.63] Ry
 Optimized for a Real-space Cutoff    1.14 Angstroem

   l    n(q)    QCUT    max X(q) W(low)/X(q) W(high)/X(q)  e(spline)
   0      8    11.635    20.381    0.10E-03    0.33E-03    0.24E-06
   0      8    11.635    15.268    0.11E-03    0.35E-03    0.26E-06
   1      7    11.635     5.964    0.24E-03    0.31E-03    0.30E-06
   1      7    11.635     5.382    0.22E-03    0.25E-03    0.26E-06
  PAW_PBE La 06Sep2000                  :
  PAW_PBE Mn 06Sep2000                  :
  PAW_PBE Ni 02Aug2007                  :
  PAW_PBE O 08Apr2002                   :

 POSCAR: SCEL6_3_2_1_1_1_0/4
  positions in direct lattice
  velocities in cartesian coordinates
 exchange correlation table for  LEXCH =        8
   RHO(1)=    0.500       N(1)  =     2000
   RHO(2)=  100.500       N(2)  =     4000

 ion  position               nearest neighbor table
   1  0.170  0.170  0.320-  24 2.64  27 2.69  17 2.69  30 2.69  14 2.69  20 2.75  23 2.75  26 2.81
                            13 2.81  16 2.81  29 2.81  12 3.28  10 3.29   7 3.36  11 3.36   7 3.36
   2  0.330  0.334  0.673-  24 2.69  18 2.70  28 2.71  25 2.72  15 2.73  22 2.74  19 2.75  16 2.75
                            29 2.75  13 2.77  26 2.78  23 2.78  12 3.31  10 3.32   9 3.35   8 3.35
   3  0.491  0.505  0.007-  27 2.68  17 2.68  23 2.70  21 2.74  28 2.75  24 2.75  15 2.75  30 2.76
                            14 2.76  22 2.81  18 2.82  11 3.30  10 3.34  12 3.34   7 3.35   9 3.39
   4  0.670  0.670  0.320-  21 2.64  27 2.69  17 2.69  30 2.69  14 2.69  23 2.75  20 2.75  26 2.81
                            13 2.81  16 2.81  29 2.81  12 3.28  10 3.29   7 3.36  11 3.36   7 3.36
   5  0.834  0.830  0.673-  21 2.69  18 2.70  28 2.71  25 2.72  15 2.73  19 2.74  22 2.75  16 2.75
                            29 2.75  13 2.77  26 2.78  20 2.78  12 3.31  10 3.32   9 3.35   8 3.35
   6  0.005  0.991  0.007-  27 2.68  17 2.68  20 2.70  24 2.74  28 2.75  21 2.75  15 2.75  30 2.76
                            14 2.76  19 2.81  18 2.82  11 3.30  10 3.34  12 3.34   7 3.35   9 3.39
   7  0.666  0.166  0.334-  30 1.89  14 1.89  23 1.89  20 1.89  26 1.94  13 1.94   3 3.35   6 3.35
                             1 3.36   4 3.36   4 3.36   1 3.36   5 3.40   2 3.40
   8  0.834  0.334  0.667-  29 1.89  18 1.89  25 1.89  13 1.94  19 1.94  22 1.94   2 3.35   5 3.35
                             5 3.38   2 3.38
   9  0.333  0.833  0.665-  16 1.88  28 1.89  15 1.89  26 1.93  19 1.94  22 1.94   2 3.35   5 3.35
                             5 3.38   2 3.38   3 3.39   6 3.39
  10  0.501  0.001  0.998-  21 1.95  24 1.95  27 1.96  25 1.97  15 1.99  14 2.00   1 3.29   4 3.29
                             5 3.32   2 3.32   3 3.34   6 3.34
  11  0.166  0.666  0.337-  17 1.96  27 1.96  16 1.97  29 1.97  20 1.99  23 1.99   3 3.30   6 3.30
                             4 3.36   1 3.36   4 3.36   1 3.36   2 3.37   5 3.37
  12  1.000  0.500  0.999-  21 1.94  24 1.94  17 1.95  18 1.97  28 2.00  30 2.00   1 3.28   4 3.28
                             2 3.31   5 3.31   3 3.34   6 3.34
  13  0.749  0.249  0.501-   7 1.94   8 1.94   5 2.77   2 2.77   4 2.81   1 2.81
  14  0.585  0.085  0.172-   7 1.89  10 2.00   1 2.69   4 2.69   3 2.76   6 2.76
  15  0.415  0.915  0.827-   9 1.89  10 1.99   5 2.73   2 2.73   3 2.75   6 2.75
  16  0.251  0.751  0.505-   9 1.88  11 1.97   2 2.75   5 2.75   4 2.81   1 2.81
  17  0.083  0.583  0.167-  12 1.95  11 1.96   3 2.68   6 2.68   4 2.69   1 2.69
  18  0.916  0.416  0.829-   8 1.89  12 1.97   5 2.70   2 2.70   3 2.82   6 2.82
  19  0.084  0.083  0.666-   9 1.94   8 1.94   5 2.74   2 2.75   6 2.81
  20  0.910  0.923  0.335-   7 1.89  11 1.99   6 2.70   1 2.75   4 2.75   5 2.78
  21  0.751  0.749  0.999-  12 1.94  10 1.95   4 2.64   5 2.69   3 2.74   6 2.75
  22  0.583  0.584  0.666-   9 1.94   8 1.94   2 2.74   5 2.75   3 2.81
  23  0.423  0.410  0.335-   7 1.89  11 1.99   3 2.70   4 2.75   1 2.75   2 2.78
  24  0.249  0.251  0.999-  12 1.94  10 1.95   1 2.64   2 2.69   6 2.74   3 2.75
  25  0.670  0.170  0.828-   8 1.89  10 1.97   2 2.72   5 2.72
  26  0.500  0.000  0.501-   9 1.93   7 1.94   5 2.78   2 2.78   4 2.81   1 2.81
  27  0.333  0.833  0.167-  11 1.96  10 1.96   3 2.68   6 2.68   4 2.69   1 2.69
  28  0.171  0.671  0.828-   9 1.89  12 2.00   2 2.71   5 2.71   3 2.75   6 2.75
  29  0.996  0.496  0.505-   8 1.89  11 1.97   5 2.75   2 2.75   4 2.81   1 2.81
  30  0.829  0.329  0.172-   7 1.89  12 2.00   1 2.69   4 2.69   3 2.76   6 2.76

  LATTYP: Found a base centered monoclinic cell.
 ALAT       =    10.9756558991
 B/A-ratio  =     0.7080749508
 C/A-ratio  =     2.3717902236
 COS(beta)  =    -0.7742364854

  Lattice vectors:

 A1 = (   3.8803292405,   3.8857935056,   3.8806314678)
 A2 = (   3.8803292405,  -3.8857935056,   3.8806314678)
 A3 = ( -11.6403360293,   0.0000000000, -23.2844405736)

Analysis of symmetry for initial positions (statically):
 Subroutine PRICEL returns:
 Original cell was already a primitive cell.

 Routine SETGRP: Setting up the symmetry group for a
 base centered monoclinic supercell.

 Subroutine GETGRP returns: Found  2 space group operations
 (whereof  1 operations were pure point group operations)
 out of a pool of  4 trial point group operations.

The static configuration has the point symmetry C_1 .
 The point group associated with its full space group is C_1h.

Analysis of symmetry for dynamics (positions and initial velocities):
 Subroutine PRICEL returns:
 Original cell was already a primitive cell.

[...]

The dynamic configuration has the point symmetry C_1 .
 The point group associated with its full space group is C_1h.

Analysis of structural, dynamic, and magnetic symmetry:
 Subroutine PRICEL returns:
 Original cell was already a primitive cell.

 Routine SETGRP: Setting up the symmetry group for a
 base centered monoclinic supercell.

 Subroutine GETGRP returns: Found  2 space group operations
 (whereof  1 operations were pure point group operations)
 out of a pool of  4 trial point group operations.

The magnetic configuration has the point symmetry C_1 .
 The point group associated with its full space group is C_1h.

 Subroutine INISYM returns: Found  2 space group operations
 (whereof  1 operations are pure point group operations),
 and found     1 'primitive' translations

 KPOINTS: Automatic mesh

Automatic generation of k-mesh.
 generate k-points for:    3    3    2
Space group operators:
 irot       det(A)        alpha          n_x          n_y          n_z        tau_x        tau_y        tau_z
    1     1.000000     0.000001     1.000000     0.000000     0.000000     0.000000     0.000000     0.000000
    2    -1.000000   180.000000     0.000000     1.000000     0.000000     0.500000     0.500000    -0.000000

 Subroutine IBZKPT returns following result:

 Found      8 irreducible k-points:

 Following reciprocal coordinates:
            Coordinates               Weight
  0.000000  0.000000  0.000000      1.000000
  0.333333  0.000000 -0.000000      4.000000
  0.333333  0.333333 -0.000000      2.000000
 -0.333333  0.333333  0.000000      2.000000
  0.000000  0.000000  0.500000      1.000000
  0.333333  0.000000  0.500000      4.000000
  0.333333  0.333333  0.500000      2.000000
 -0.333333  0.333333  0.500000      2.000000

 Following cartesian coordinates:
            Coordinates               Weight
  0.000000  0.000000  0.000000      1.000000
  0.028634 -0.042891  0.014317      4.000000
  0.057267  0.000000  0.028634      2.000000
  0.000000  0.085783  0.000000      2.000000
 -0.042947  0.000000  0.042944      1.000000
 -0.014313 -0.042891  0.057260      4.000000
  0.014320  0.000000  0.071577      2.000000
 -0.042947  0.085783  0.042944      2.000000

 TETIRR: Found     25 inequivalent tetrahedra from      108

 SYSTEM =  final
 POSCAR =  SCEL6_3_2_1_1_1_0/4

 Startparameter for this run:
   NWRITE =      2    write-flag & timer
   PREC   = accura    normal or accurate (medium, high low for compatibility)
   ISTART =      0    job   : 0-new  1-cont  2-samecut
   ICHARG =      1    charge: 1-file 2-atom 10-const
   ISPIN  =      2    spin polarized calculation?
   LNONCOLLINEAR =      F non collinear calculations
   LSORBIT =      F    spin-orbit coupling
   INIWAV =      1    electr: 0-lowe 1-rand  2-diag
   LASPH  =      F    aspherical Exc in radial PAW
   METAGGA=      F    non-selfconsistent MetaGGA calc.

 Electronic Relaxation 1
   ENCUT  =  520.0 eV  38.22 Ry    6.18 a.u.  12.50 12.50 16.14*2*pi/ulx,y,z
   ENINI  =  520.0     initial cutoff
   ENAUG  =  605.4 eV  augmentation charge cutoff
   NELM   =    100;   NELMIN=  2; NELMDL= -5     # of ELM steps
[...]
     30      -7.3312      1.00000
     31      -7.2670      1.00000
     32      -7.2247      1.00000
     33      -7.1555      1.00000
     34      -7.1313      1.00000
     35      -7.1164      1.00000
     36      -7.0954      1.00000
     37      -7.0679      1.00000
     38      -7.0349      1.00000
     39      -6.9640      1.00000
     40      -6.9343      1.00000
     41      -6.9023      1.00000
     42      -6.8476      1.00000
     43       0.2114      1.00000
     44       0.3761      1.00000
     45       0.4530      1.00000
     46       0.5940      1.00000
     47       0.8278      1.00000
     48       0.9132      1.00000
     49       0.9793      1.00000
     50       1.0465      1.00000
     51       1.1545      1.00000
     52       1.1942      1.00000
     53       1.3609      1.00000
     54       1.4116      1.00000
     55       1.4552      1.00000
     56       1.5091      1.00000
     57       1.5580      1.00000
     58       1.7121      1.00000
     59       1.7521      1.00000
     60       1.9047      1.00000
[...]
    132      10.8331      0.00000
    133      10.8495      0.00000
    134      10.9184      0.00000
    135      10.9362      0.00000
    136      10.9947      0.00000
    137      11.0003      0.00000
    138      11.0211      0.00000
    139      11.0437      0.00000
    140      11.0469      0.00000
    141      11.0671      0.00000
    142      11.0746      0.00000
    143      11.1011      0.00000
    144      11.1078      0.00000
    145      11.1455      0.00000
    146      11.1558      0.00000

[...]

 spin component 2

[...]

 k-point     8 :      -0.3333    0.3333    0.5000
  band No.  band energies     occupation
      1     -23.8961      1.00000
      2     -23.8887      1.00000
      3     -23.8753      1.00000
      4     -23.8691      1.00000
      5     -23.8587      1.00000
      6     -23.7906      1.00000
      7     -11.2161      1.00000
      8     -11.1148      1.00000
      9     -10.9814      1.00000
     10     -10.8449      1.00000
     11     -10.7171      1.00000
     12     -10.1202      1.00000
     13     -10.0585      1.00000
     14      -9.9990      1.00000
     15      -9.9339      1.00000
     16      -9.8274      1.00000
     17      -9.8216      1.00000
     18      -9.7551      1.00000
     19      -9.7281      1.00000
     20      -9.6117      1.00000
     21      -9.5420      1.00000
     22      -9.5019      1.00000
     23      -9.4053      1.00000
     24      -9.1517      1.00000
     25      -7.7833      1.00000
     26      -7.6867      1.00000
     27      -7.6783      1.00000
     28      -7.4895      1.00000
     29      -7.4662      1.00000
     30      -7.4146      1.00000
     31      -7.3868      1.00000
     32      -7.3105      1.00000
     33      -7.2514      1.00000
     34      -7.2016      1.00000
     35      -7.1716      1.00000
     36      -7.1559      1.00000
     37      -7.0916      1.00000
     38      -6.9217      1.00000
     39      -6.9051      1.00000
     40      -6.8336      1.00000
     41      -6.7135      1.00000
     42      -6.6366      1.00000
     43       1.1719      1.00000
     44       2.0615      1.00000
     45       2.0849      1.00000
     46       2.1624      1.00000
     47       2.1978      1.00000
     48       2.3131      1.00000
     49       2.6993      1.00000
     50       2.7721      1.00000
     51       2.8262      1.00000
     52       2.8548      1.00000
     53       2.9267      1.00000
     54       2.9321      1.00000
     55       2.9589      1.00000
     56       3.0047      1.00000
     57       3.0243      1.00000
     58       3.1062      1.00000
     59       3.1754      1.00000
     60       3.1893      1.00000
[...]
    132      11.0667      0.00000
    133      11.0706      0.00000
    134      11.0818      0.00000
    135      11.0916      0.00000
    136      11.1032      0.00000
    137      11.1077      0.00000
    138      11.1331      0.00000
    139      11.1490      0.00000
    140      11.1694      0.00000
    141      11.1812      0.00000
    142      11.1891      0.00000
    143      11.2147      0.00000
    144      11.2364      0.00000
    145      11.2579      0.00000
    146      11.2798      0.00000

 soft charge-density along one line, spin component           1
         0         1         2         3         4         5         6         7         8         9
 total charge-density along one line

 soft charge-density along one line, spin component           2
         0         1         2         3         4         5         6         7         8         9
 total charge-density along one line

------------------------ aborting loop because EDIFF is reached ----------------------------------------

 total charge

# of ion       s       p       d       f       tot
    1        2.000   5.698   0.494   0.191   8.383
    2        2.000   5.700   0.491   0.192   8.382
    3        2.000   5.697   0.489   0.189   8.376
    4        2.000   5.698   0.492   0.191   8.381
    5        2.000   5.700   0.491   0.192   8.382
    6        2.000   5.697   0.489   0.189   8.376
    7        0.357   0.571   4.864   0.000   5.792
    8        0.344   0.542   4.863   0.000   5.750
    9        0.349   0.552   4.866   0.000   5.767
   10        0.396   0.573   8.322   0.000   9.292
   11        0.391   0.564   8.322   0.000   9.278
   12        0.402   0.583   8.323   0.000   9.308
   13        1.561   3.465   0.000   0.000   5.027
   14        1.564   3.453   0.000   0.000   5.016
   15        1.562   3.459   0.000   0.000   5.021
   16        1.561   3.457   0.000   0.000   5.018
   17        1.557   3.454   0.000   0.000   5.011
   18        1.563   3.451   0.000   0.000   5.013
   19        1.565   3.453   0.000   0.000   5.018
   20        1.562   3.458   0.000   0.000   5.020
   21        1.557   3.452   0.000   0.000   5.009
   22        1.565   3.452   0.000   0.000   5.017
   23        1.562   3.458   0.000   0.000   5.020
   24        1.557   3.456   0.000   0.000   5.012
   25        1.561   3.455   0.000   0.000   5.016
   26        1.561   3.469   0.000   0.000   5.030
   27        1.557   3.454   0.000   0.000   5.010
   28        1.563   3.455   0.000   0.000   5.018
   29        1.561   3.455   0.000   0.000   5.016
   30        1.564   3.455   0.000   0.000   5.018
tot         42.340  99.786  42.507   1.144 185.776

 magnetization (x)

[...]

  FORCE on cell =-STRESS in cart. coord.  units (eV):
  Direction    XX          YY          ZZ          XY          YZ          ZX
  Alpha Z   983.52439   983.52439   983.52439
  Ewald   -5183.12669 -5140.42299 -5180.92782    -0.00000    -0.00000     8.88063
  Hartree  1144.57403  1188.63005  1146.72195    -0.00000     0.00000    10.08900
  E(xc)   -1046.28375 -1046.13804 -1046.28965     0.00000    -0.00000    -0.02856
  Local    -651.49155  -739.62141  -656.04702     0.00000    -0.00000   -18.40337
  n-local   416.11975   416.08992   416.05755     0.58029     0.53713     0.36276
  augment   489.41008   489.99819   489.42943    -0.00000    -0.00000     0.03976
  Kinetic  3847.08485  3847.52710  3847.36804    -0.97291    -0.81781    -0.98715
  Fock        0.00000     0.00000     0.00000     0.00000     0.00000     0.00000
  Total      -0.18890    -0.41278    -0.16314     0.00000     0.00000    -0.04692
  in kB      -0.86196    -1.88355    -0.74443     0.00000     0.00000    -0.21412

 VOLUME and BASIS-vectors are now :
  energy-cutoff  :      520.00
  volume of cell :      351.12
      direct lattice vectors                 reciprocal lattice vectors
     3.880329241 -3.885793506  3.880631468     0.085900959 -0.128673847  0.042950741
     3.880329241  3.885793506  3.880631468     0.085900959  0.128673847  0.042950741
    -3.880980933  0.000000000  7.761914703    -0.085893746  0.000000000  0.085887057

  length of vectors
     6.724258083  6.724258083  8.678095001     0.160563694  0.160563694  0.121467371

 FORCES acting on ions
    electron-ion (+dipol)            ewald-force                    non-local-force                 convergence-correction
   0.688E+02 -.913E-01 -.691E+02   -.680E+02 0.869E-01 0.682E+02   -.741E+00 0.499E-02 0.747E+00   -.567E-01 0.177E-02 0.565E-01
   -.340E+02 0.207E+02 0.345E+02   0.337E+02 -.206E+02 -.341E+02   0.326E+00 -.141E+00 -.336E+00   0.314E-01 -.692E-02 -.304E-01
   -.345E+02 0.387E+02 0.348E+02   0.341E+02 -.381E+02 -.343E+02   0.408E+00 -.561E+00 -.415E+00   0.254E-01 -.171E-01 -.261E-01
   0.688E+02 0.913E-01 -.691E+02   -.680E+02 -.869E-01 0.682E+02   -.741E+00 -.499E-02 0.747E+00   -.567E-01 -.177E-02 0.565E-01
   -.340E+02 -.207E+02 0.345E+02   0.337E+02 0.206E+02 -.341E+02   0.326E+00 0.141E+00 -.336E+00   0.314E-01 0.692E-02 -.304E-01
   -.345E+02 -.387E+02 0.348E+02   0.341E+02 0.381E+02 -.343E+02   0.408E+00 0.561E+00 -.415E+00   0.254E-01 0.171E-01 -.261E-01
   0.308E+02 0.634E-11 -.309E+02   -.304E+02 0.108E-11 0.306E+02   -.311E+00 0.000E+00 0.293E+00   -.304E-01 -.414E-13 0.330E-01
   -.304E+01 0.329E-11 0.225E+02   0.301E+01 0.289E-11 -.222E+02   0.116E-01 0.000E+00 -.358E+00   0.108E-01 -.117E-12 -.217E-01
   -.289E+02 0.549E-11 0.906E+01   0.286E+02 0.134E-10 -.911E+01   0.323E+00 0.000E+00 0.709E-01   0.161E-01 0.108E-12 -.897E-02
   -.378E+02 0.831E-11 0.466E+01   0.368E+02 0.171E-12 -.503E+01   0.984E+00 0.000E+00 0.388E+00   0.511E-01 0.193E-12 -.175E-01
   0.420E+02 0.743E-11 -.410E+02   -.410E+02 0.963E-12 0.401E+02   -.992E+00 0.000E+00 0.907E+00   -.664E-01 0.234E-13 0.635E-01
   -.206E+01 0.605E-11 0.348E+02   0.204E+01 0.147E-11 -.334E+02   -.337E-02 0.000E+00 -.135E+01   0.184E-01 -.244E-12 -.488E-01
   0.565E+01 -.688E-10 -.113E+02   -.553E+01 0.192E-11 0.117E+02   -.127E+00 0.000E+00 -.393E+00   -.881E-02 -.130E-12 0.166E-01
   -.267E+01 -.637E-10 -.363E+02   0.322E+01 0.590E-13 0.300E+02   -.565E+00 0.000E+00 0.627E+01   -.260E-02 0.526E-13 0.152E-01
   -.181E+02 -.684E-10 0.491E+02   0.178E+02 0.541E-11 -.436E+02   0.235E+00 0.000E+00 -.549E+01   0.196E-01 0.917E-13 -.285E-01
   -.372E+01 -.646E-10 -.437E+02   0.432E+01 0.117E-10 0.384E+02   -.605E+00 0.000E+00 0.533E+01   -.760E-02 0.618E-13 0.785E-02
   0.124E+02 -.646E-10 -.104E+02   -.125E+02 0.393E-13 0.107E+02   0.447E-01 0.000E+00 -.412E+00   -.105E-01 -.666E-13 0.172E-01
   0.628E+01 -.606E-10 0.538E+02   -.745E+01 0.875E-11 -.486E+02   0.119E+01 0.000E+00 -.509E+01   0.993E-02 -.167E-12 -.289E-01
   -.122E+02 -.456E+01 0.120E+02   0.123E+02 0.479E+01 -.121E+02   -.188E+00 -.267E+00 0.204E+00   0.101E-01 0.275E-02 -.113E-01
   0.243E+02 -.352E+02 -.241E+02   -.247E+02 0.294E+02 0.245E+02   0.457E+00 0.574E+01 -.451E+00   -.235E-01 -.203E-02 0.238E-01
   -.123E+02 -.485E+01 0.121E+02   0.124E+02 0.537E+01 -.122E+02   -.185E+00 -.547E+00 0.165E+00   0.126E-01 0.111E-02 -.127E-01
   -.122E+02 0.456E+01 0.120E+02   0.123E+02 -.479E+01 -.121E+02   -.188E+00 0.267E+00 0.204E+00   0.101E-01 -.275E-02 -.113E-01
   0.243E+02 0.352E+02 -.241E+02   -.247E+02 -.294E+02 0.245E+02   0.457E+00 -.574E+01 -.451E+00   -.235E-01 0.203E-02 0.238E-01
   -.123E+02 0.485E+01 0.121E+02   0.124E+02 -.537E+01 -.122E+02   -.185E+00 0.547E+00 0.165E+00   0.126E-01 -.111E-02 -.127E-01
   -.538E+02 -.648E-10 0.200E+01   0.489E+02 0.213E-11 -.121E+01   0.487E+01 0.000E+00 -.821E+00   0.280E-01 -.400E-13 -.151E-01
   0.830E+01 -.626E-10 -.587E+01   -.831E+01 0.461E-11 0.583E+01   0.157E-01 0.000E+00 0.335E-01   -.127E-01 0.466E-13 0.108E-01
   0.764E+01 -.640E-10 -.124E+02   -.778E+01 0.309E-12 0.125E+02   0.165E+00 0.000E+00 -.109E+00   -.167E-01 0.123E-12 0.110E-01
   -.479E+02 -.649E-10 0.929E+01   0.419E+02 0.546E-11 -.872E+01   0.597E+01 0.000E+00 -.540E+00   0.290E-01 -.159E-13 -.157E-01
   0.459E+02 -.676E-10 0.397E+01   -.408E+02 0.219E-11 -.470E+01   -.512E+01 0.000E+00 0.725E+00   -.103E-01 -.149E-12 0.606E-02
   0.387E+02 -.687E-10 0.255E+01   -.325E+02 0.616E-12 -.309E+01   -.619E+01 0.000E+00 0.567E+00   -.165E-01 -.130E-12 0.285E-02
   -.368E-01 -.152E-08 0.169E+00   0.284E-13 -.470E-13 0.195E-13   0.411E-01 0.444E-15 -.151E+00   -.988E-03 -.349E-12 -.162E-02

 POSITION                                       TOTAL-FORCE (eV/Angst)
      0.07656     -0.00025      3.80274         0.033892      0.002326     -0.035319
     -0.03474      0.01546      7.79741        -0.016592      0.003476      0.017933
      3.83873      0.05438      3.92356        -0.015886      0.045118      0.025924
      3.95689      0.00025      7.68337         0.033892     -0.002326     -0.035319
      3.84559     -0.01546     11.67804        -0.016592     -0.003476      0.017933
      3.83873      3.83141      3.92356        -0.015886     -0.045118      0.025924
      1.93384     -1.94290      5.82732         0.018502      0.000000     -0.017189
      1.94348     -1.94290      9.70804        -0.004595      0.000000      0.008788
      1.94643      1.94290      9.68740        -0.011764      0.000000      0.010637
     -1.92363     -1.94290      9.69396         0.018077      0.000000     -0.001853
      1.92071      1.94290      5.83895        -0.018919      0.000000      0.017358
      1.94099     -1.94290     13.57264        -0.002124      0.000000     -0.014085
      1.92948     -1.94290      7.76474        -0.012927      0.000000     -0.021738
      1.93553     -1.94290      3.93647        -0.016295      0.000000      0.024517
      1.95277      1.94290     11.58176         0.002953      0.000000     -0.013887
      1.92978      1.94290      7.80409        -0.009269      0.000000      0.025886
      1.93499      1.94290      3.88248         0.019712      0.000000     -0.044855
      1.95226     -1.94290     11.60004         0.026640      0.000000      0.013293
     -1.93835     -0.00183      5.81925        -0.014310     -0.040529      0.009406
      5.81256      0.04993      9.70871         0.019106      0.019675     -0.011501
      1.94464     -0.00577     13.57784        -0.014239     -0.031809      0.007368
      1.94198      0.00183      9.69988        -0.014310      0.040529      0.009406
      1.93223     -0.04993      5.82808         0.019106     -0.019675     -0.011501
     -1.93569      0.00577      9.69721        -0.014239      0.031809      0.007368
      0.04862     -1.94290      9.68635         0.024841      0.000000     -0.043194
     -0.00136     -1.94290      5.82729        -0.006994      0.000000      0.003760
      3.87908      1.94290      5.82528         0.014127      0.000000     -0.016878
      0.05735      1.94290      9.69549         0.015201      0.000000      0.013717
      3.83251     -1.94290      9.71136        -0.030558      0.000000      0.002623
      3.82221     -1.94290      5.82623        -0.010548      0.000000      0.025478
    total drift:                                0.003278     -0.000000      0.016797

  FREE ENERGIE OF THE ION-ELECTRON SYSTEM (eV)
  free  energy   TOTEN  =      -220.59671615 eV

  energy  without entropy=     -220.59671615  energy(sigma->0) =     -220.59671615

 total charge

[...]

 magnetization (x)

# of ion       s       p       d       f       tot
    1        0.000   0.001   0.005   0.004   0.009
    2        0.001   0.001   0.010   0.004   0.016
    3        0.000   0.001   0.006   0.003   0.009
    4        0.001   0.001   0.009   0.003   0.012
    5        0.001   0.001   0.010   0.004   0.016
    6        0.000   0.001   0.006   0.003   0.009
    7        0.023   0.031   3.225   0.000   3.279
    8        0.022   0.025   3.343   0.000   3.390
    9        0.023   0.026   3.309   0.000   3.358
   10        0.012   0.005   1.649   0.000   1.667
   11        0.009   0.002   1.672   0.000   1.683
   12        0.014   0.006   1.616   0.000   1.636
   13        0.002  -0.013   0.000   0.000  -0.011
   14        0.005  -0.040   0.000   0.000  -0.035
   15        0.005  -0.005   0.000   0.000  -0.000
   16        0.005  -0.009   0.000   0.000  -0.005
   17        0.007   0.002   0.000   0.000   0.009
   18        0.004  -0.046   0.000   0.000  -0.042
   19        0.003  -0.061   0.000   0.000  -0.057
   20        0.005  -0.003   0.000   0.000   0.002
   21        0.006  -0.009   0.000   0.000  -0.003
   22        0.004  -0.061   0.000   0.000  -0.057
   23        0.005  -0.003   0.000   0.000   0.002
   24        0.006  -0.009   0.000   0.000  -0.002
   25        0.005  -0.012   0.000   0.000  -0.007
   26        0.002  -0.009   0.000   0.000  -0.008
   27        0.006   0.005   0.000   0.000   0.012
   28        0.005  -0.038   0.000   0.000  -0.033
   29        0.004  -0.015   0.000   0.000  -0.011
   30        0.005  -0.037   0.000   0.000  -0.032
tot          0.190  -0.262  14.859   0.020  14.807

 BZINTS: Fermi energy:  7.651287;225.000000 electrons
         Band energy:-329.067045;  BLOECHL correction: -0.013518