 vasp.5.4.4.18Apr17-6-g9f103f2a35 (build Oct 03 2018 13:58:34) complex

 executed on             LinuxIFC date 2019.06.04  01:39:50

 INCAR:
 POTCAR:    PAW_PBE La 06Sep2000
 POTCAR:    PAW_PBE Mn 06Sep2000
 POTCAR:    PAW_PBE Ni 02Aug2007
 POTCAR:    PAW_PBE O 08Apr2002

 POTCAR:    PAW_PBE La 06Sep2000
   VRHFIN =La : [core=Kr4d]

   TITEL  = PAW_PBE La 06Sep2000
   POMASS =  138.900; ZVAL   =   11.000    mass and valenz
   ENMAX  =  219.292; ENMIN  =  164.469 eV

 POTCAR:    PAW_PBE Mn 06Sep2000
   VRHFIN =Mn: d6 s1

   TITEL  = PAW_PBE Mn 06Sep2000
   POMASS =   54.938; ZVAL   =    7.000    mass and valenz
   ENMAX  =  269.864; ENMIN  =  202.398 eV

 POTCAR:    PAW_PBE Ni 02Aug2007
   VRHFIN =Ni:

   TITEL  = PAW_PBE Ni 02Aug2007
   POMASS =   58.690; ZVAL   =   10.000    mass and valenz
   ENMAX  =  269.532; ENMIN  =  202.149 eV

 POTCAR:    PAW_PBE O 08Apr2002
   VRHFIN =O: s2p4

   TITEL  = PAW_PBE O 08Apr2002
   POMASS =   16.000; ZVAL   =    6.000    mass and valenz
   ENMAX  =  400.000; ENMIN  =  300.000 eV

 Optimization of the real space projectors (new method)

 maximal supplied QI-value         = 13.42
 optimisation between [QCUT,QGAM] = [ 11.67, 23.35] = [ 38.16,152.62] Ry
 Optimized for a Real-space Cutoff    1.63 Angstroem

   l    n(q)    QCUT    max X(q) W(low)/X(q) W(high)/X(q)  e(spline)
   0     11    11.673    13.882    0.27E-04    0.79E-05    0.11E-06
   0     11    11.673    12.184    0.39E-04    0.13E-04    0.19E-06
   1     11    11.673     4.523    0.73E-05    0.76E-05    0.12E-06
   1     11    11.673     4.424    0.87E-05    0.13E-04    0.19E-06
   2     10    11.673    52.481    0.65E-04    0.36E-04    0.18E-06
   2     10    11.673    38.501    0.61E-04    0.33E-04    0.17E-06
   3     10    11.673    65.631    0.17E-03    0.14E-03    0.37E-06
   3     10    11.673    56.854    0.17E-03    0.14E-03    0.37E-06
 Optimization of the real space projectors (new method)

[...]

   l    n(q)    QCUT    max X(q) W(low)/X(q) W(high)/X(q)  e(spline)
   2      9    11.539    60.317    0.19E-03    0.47E-04    0.16E-06
   2      9    11.539    55.921    0.19E-03    0.48E-04    0.16E-06
   0     10    11.539    51.690    0.80E-04    0.50E-04    0.24E-06
   0     10    11.539    30.015    0.73E-04    0.45E-04    0.22E-06
   1     10    11.539    18.849    0.87E-04    0.16E-03    0.71E-07
   1     10    11.539    14.624    0.73E-04    0.13E-03    0.64E-07
 Optimization of the real space projectors (new method)

 maximal supplied QI-value         = 24.76
 optimisation between [QCUT,QGAM] = [ 11.64, 23.27] = [ 37.91,151.63] Ry
 Optimized for a Real-space Cutoff    1.14 Angstroem

   l    n(q)    QCUT    max X(q) W(low)/X(q) W(high)/X(q)  e(spline)
   0      8    11.635    20.381    0.10E-03    0.33E-03    0.24E-06
   0      8    11.635    15.268    0.11E-03    0.35E-03    0.26E-06
   1      7    11.635     5.964    0.24E-03    0.31E-03    0.30E-06
   1      7    11.635     5.382    0.22E-03    0.25E-03    0.26E-06
  PAW_PBE La 06Sep2000                  :
  PAW_PBE Mn 06Sep2000                  :
  PAW_PBE Ni 02Aug2007                  :
  PAW_PBE O 08Apr2002                   :

 POSCAR: SCEL4_2_2_1_1_0_1/0
  positions in direct lattice
  velocities in cartesian coordinates
 exchange correlation table for  LEXCH =        8
   RHO(1)=    0.500       N(1)  =     2000
   RHO(2)=  100.500       N(2)  =     4000

 ion  position               nearest neighbor table
   1  0.500  0.250  0.750-   9 2.76  10 2.76  14 2.76  15 2.76  19 2.76  19 2.76  20 2.76  18 2.76
                            13 2.76  11 2.76  12 2.76  16 2.76   5 3.38   5 3.38   7 3.38   7 3.38
   2  0.000  0.494  0.494-  11 2.73  12 2.73  13 2.73  16 2.73  18 2.76  18 2.76  19 2.76  17 2.76
                             9 2.80  14 2.80  15 2.80  10 2.80   5 3.35   7 3.35   8 3.35   8 3.35
   3  0.500  0.750  0.250-   9 2.76  10 2.76  14 2.76  15 2.76  17 2.76  17 2.76  20 2.76  18 2.76
                            13 2.76  11 2.76  12 2.76  16 2.76   5 3.38   5 3.38   7 3.38   7 3.38
   4  0.000  0.006  0.006-  11 2.73  12 2.73  13 2.73  16 2.73  20 2.76  20 2.76  17 2.76  19 2.76
                             9 2.80  14 2.80  15 2.80  10 2.80   5 3.35   7 3.35   8 3.35   8 3.35
   5  0.000  0.499  0.001-  10 1.92  15 1.92  11 1.93  16 1.93  17 1.95  19 1.95   2 3.35   4 3.35
                             3 3.38   3 3.38   1 3.38   1 3.38   4 3.41   2 3.41
   6  0.500  0.750  0.750-  18 1.91  20 1.91  14 1.98  15 1.98   9 1.98  10 1.98   1 3.38   3 3.38
                             3 3.38   1 3.38   2 3.41   4 3.41   2 3.41   4 3.41
   7  0.000  0.001  0.499-   9 1.92  14 1.92  13 1.93  12 1.93  17 1.95  19 1.95   2 3.35   4 3.35
                             3 3.38   3 3.38   1 3.38   1 3.38   4 3.41   2 3.41
   8  0.500  0.250  0.250-  11 1.97  12 1.97  13 1.97  16 1.97  18 2.00  20 2.00   2 3.35   4 3.35
                             2 3.35   4 3.35   1 3.38   3 3.38   3 3.38   1 3.38
   9  0.754  0.877  0.623-   7 1.92   6 1.98   1 2.76   3 2.76   2 2.80   4 2.80
  10  0.246  0.623  0.877-   5 1.92   6 1.98   1 2.76   3 2.76   2 2.80   4 2.80
  11  0.753  0.376  0.124-   5 1.93   8 1.97   2 2.73   4 2.73   3 2.76   1 2.76
  12  0.247  0.124  0.376-   7 1.93   8 1.97   2 2.73   4 2.73   3 2.76   1 2.76
  13  0.753  0.124  0.376-   7 1.93   8 1.97   2 2.73   4 2.73   3 2.76   1 2.76
  14  0.246  0.877  0.623-   7 1.92   6 1.98   1 2.76   3 2.76   2 2.80   4 2.80
  15  0.754  0.623  0.877-   5 1.92   6 1.98   1 2.76   3 2.76   2 2.80   4 2.80
  16  0.247  0.376  0.124-   5 1.93   8 1.97   2 2.73   4 2.73   3 2.76   1 2.76
  17  0.000  0.750  0.250-   5 1.95   7 1.95   3 2.76   3 2.76   4 2.76   2 2.76
  18  0.500  0.506  0.506-   6 1.91   8 2.00   2 2.76   2 2.76   3 2.76   1 2.76
  19  0.000  0.250  0.750-   5 1.95   7 1.95   1 2.76   1 2.76   4 2.76   2 2.76
  20  0.500  0.994  0.994-   6 1.91   8 2.00   4 2.76   4 2.76   1 2.76   3 2.76

  LATTYP: Found a base centered orthorhombic cell.
 ALAT       =     7.8115574268
 B/A-ratio  =     1.4130085421
 C/A-ratio  =     0.7061554761

  Lattice vectors:

 A1 = (  -3.9057787134,  -3.9024506852,   3.9024506852)
 A2 = (  -3.9057787134,   3.9024506852,  -3.9024506852)
 A3 = (   0.0000000000,  -3.9005240798,  -3.9005240798)

Analysis of symmetry for initial positions (statically):
 Subroutine PRICEL returns:
 Original cell was already a primitive cell.

 Routine SETGRP: Setting up the symmetry group for a
 base centered orthorhombic supercell.

 Subroutine GETGRP returns: Found  8 space group operations
 (whereof  4 operations were pure point group operations)
 out of a pool of  8 trial point group operations.

The static configuration has the point symmetry C_2v.
 The point group associated with its full space group is D_2h.

Analysis of symmetry for dynamics (positions and initial velocities):
 Subroutine PRICEL returns:
 Original cell was already a primitive cell.

[...]

The dynamic configuration has the point symmetry C_2v.
 The point group associated with its full space group is D_2h.

Analysis of structural, dynamic, and magnetic symmetry:
 Subroutine PRICEL returns:
 Original cell was already a primitive cell.

 Routine SETGRP: Setting up the symmetry group for a
 base centered orthorhombic supercell.

 Subroutine GETGRP returns: Found  8 space group operations
 (whereof  4 operations were pure point group operations)
 out of a pool of  8 trial point group operations.

The magnetic configuration has the point symmetry C_2v.
 The point group associated with its full space group is D_2h.

 Subroutine INISYM returns: Found  8 space group operations
 (whereof  4 operations are pure point group operations),
 and found     1 'primitive' translations

 KPOINTS: Automatic mesh

Automatic generation of k-mesh.
 generate k-points for:    4    3    3
Space group operators:
 irot       det(A)        alpha          n_x          n_y          n_z        tau_x        tau_y        tau_z
    1     1.000000     0.000000     1.000000     0.000000     0.000000     0.000000     0.000000     0.000000
    2    -1.000000   180.000000     0.000000     0.707107     0.707107     0.000000     0.000000     0.000000
    3    -1.000000   180.000000     0.000000    -0.707107     0.707107     0.000000     0.000000     0.000000
    4     1.000000   179.999999     1.000000     0.000000     0.000000     0.000000     0.000000     0.000000
    5    -1.000000     0.000000     1.000000     0.000000     0.000000     0.000000    -0.500000    -0.500000
    6     1.000000   180.000000     0.000000     0.707107     0.707107     0.000000    -0.500000    -0.500000
    7     1.000000   180.000000     0.000000    -0.707107     0.707107     0.000000    -0.500000    -0.500000
    8    -1.000000   179.999999     1.000000     0.000000     0.000000     0.000000    -0.500000    -0.500000

 Subroutine IBZKPT returns following result:

 Found     12 irreducible k-points:

 Following reciprocal coordinates:
            Coordinates               Weight
  0.000000  0.000000  0.000000      1.000000
  0.250000  0.000000  0.000000      2.000000
  0.500000  0.000000  0.000000      1.000000
  0.000000  0.333333  0.000000      4.000000
  0.250000  0.333333  0.000000      8.000000
  0.500000  0.333333  0.000000      4.000000
  0.000000  0.333333  0.333333      2.000000
  0.250000  0.333333  0.333333      4.000000
  0.500000  0.333333  0.333333      2.000000
  0.000000 -0.333333  0.333333      2.000000
  0.250000 -0.333333  0.333333      4.000000
  0.500000 -0.333333  0.333333      2.000000

 Following cartesian coordinates:
            Coordinates               Weight
  0.000000  0.000000  0.000000      1.000000
  0.000000  0.032047  0.032047      2.000000
  0.000000  0.064094  0.064094      1.000000
  0.042672 -0.021354  0.021354      4.000000
  0.042672  0.010693  0.053401      8.000000
  0.042672  0.042740  0.085448      4.000000
  0.085344  0.000000  0.000000      2.000000
  0.085344  0.032047  0.032047      4.000000
  0.085344  0.064094  0.064094      2.000000
  0.000000  0.042708 -0.042708      2.000000
  0.000000  0.074755 -0.010661      4.000000
  0.000000  0.106802  0.021386      2.000000

 TETIRR: Found     50 inequivalent tetrahedra from      216

 SYSTEM =  final
 POSCAR =  SCEL4_2_2_1_1_0_1/0

 Startparameter for this run:
   NWRITE =      2    write-flag & timer
   PREC   = accura    normal or accurate (medium, high low for compatibility)
   ISTART =      0    job   : 0-new  1-cont  2-samecut
   ICHARG =      1    charge: 1-file 2-atom 10-const
   ISPIN  =      2    spin polarized calculation?
   LNONCOLLINEAR =      F non collinear calculations
   LSORBIT =      F    spin-orbit coupling
   INIWAV =      1    electr: 0-lowe 1-rand  2-diag
   LASPH  =      F    aspherical Exc in radial PAW
   METAGGA=      F    non-selfconsistent MetaGGA calc.

 Electronic Relaxation 1
   ENCUT  =  520.0 eV  38.22 Ry    6.18 a.u.  10.26 12.57 12.57*2*pi/ulx,y,z
   ENINI  =  520.0     initial cutoff
   ENAUG  =  605.4 eV  augmentation charge cutoff
   NELM   =    100;   NELMIN=  2; NELMDL= -5     # of ELM steps
   EDIFF  = 0.1E-02   stopping-criterion for ELM
   LREAL  =      T    real-space projection
[...]
  0.5416  0.5416  0.5395

[...]

--------------------------------------- Iteration      1(  19)  ---------------------------------------

atom =   1  type =  1  l = 0

[...]

  o =  0.7869  v =  0.0000  1.0000      0.0000  0.0000
  o =  0.7947  v =  1.0000  0.0000      0.0000  0.0000
atom =  20  type =  4  l = 0

 onsite density matrix

[...]

  0.7851

 occupancies and eigenvectors

  o =  0.7851  v =  0.0000  1.0000      0.0000  0.0000
  o =  0.7896  v =  1.0000  0.0000      0.0000  0.0000
 BZINTS: Fermi energy:  8.113163;147.000000 electrons
         Band energy:-255.651122;  BLOECHL correction: -0.026238

 eigenvalue-minimisations  :  4599
 total energy-change (2. order) :-0.4253045E-03  (-0.5863324E-03)
 number of electron     146.9999998 magnetization      12.9998173
 augmentation part       16.4916286 magnetization       9.3086172

 Free energy of the ion-electron system (eV)
  alpha Z        PSCENC =       649.71307035
  Ewald energy   TEWEN  =     -9909.94527366
  -Hartree energ DENC   =     -2076.31397050
  -exchange      EXHF   =         0.00000000
  -V(xc)+E(xc)   XCENC  =       472.19365768
  PAW double counting   =     11877.22061324   -11890.37313012
  entropy T*S    EENTRO =         0.00000000
  eigenvalues    EBANDS =      -255.65112239
  atomic energy  EATOM  =     10980.12334246
  Solvation  Ediel_sol  =         0.00000000
  free energy    TOTEN  =      -153.03281294 eV

  energy without entropy =     -153.03281294  energy(sigma->0) =     -153.03281294

 average (electrostatic) potential at core
  the test charge radii are     1.1480  1.0210  0.9791  0.7215
  (the norm of the test charge is              1.0000)
       1 -95.8286       2 -95.8231       3 -95.8286       4 -95.8231       5 -42.6858
       6 -42.4939       7 -42.6858       8 -83.7179       9 -67.1819      10 -67.1819
      11 -66.9797      12 -66.9797      13 -66.9797      14 -67.1819      15 -67.1819
      16 -66.9797      17 -67.1854      18 -67.0026      19 -67.1854      20 -67.0026

 E-fermi :   8.1132     XC(G=0): -11.6382     alpha+bet :-16.2191

[...]

 k-point     1 :       0.0000    0.0000    0.0000
  band No.  band energies     occupation
      1     -24.3165      1.00000
      2     -24.2108      1.00000
      3     -24.2071      1.00000
      4     -24.2061      1.00000
      5     -11.0546      1.00000
      6     -10.9078      1.00000
      7     -10.8000      1.00000
      8     -10.5071      1.00000
      9     -10.4979      1.00000
     10     -10.3097      1.00000
     11     -10.3066      1.00000
     12     -10.1307      1.00000
     13      -9.9144      1.00000
     14      -9.8280      1.00000
     15      -9.8094      1.00000
     16      -9.7313      1.00000
     17      -8.0445      1.00000
     18      -7.9994      1.00000
     19      -7.8208      1.00000
     20      -7.8202      1.00000
     21      -7.8186      1.00000
     22      -7.6094      1.00000
     23      -7.5194      1.00000
     24      -7.4816      1.00000
     25      -7.4715      1.00000
     26      -7.4333      1.00000
     27      -7.3294      1.00000
     28      -7.3193      1.00000
     29       0.2469      1.00000
     30       0.4701      1.00000
     31       0.9029      1.00000
     32       0.9835      1.00000
     33       1.0098      1.00000
     34       1.3947      1.00000
     35       1.5212      1.00000
     36       1.5341      1.00000
     37       1.7928      1.00000
     38       1.8024      1.00000
     39       1.8907      1.00000
     40       1.9097      1.00000
     41       1.9259      1.00000
     42       1.9553      1.00000
     43       2.1250      1.00000
     44       2.3417      1.00000
     45       2.3498      1.00000
     46       2.9851      1.00000
     47       2.9961      1.00000
     48       3.0859      1.00000
     49       3.1337      1.00000
     50       3.1440      1.00000
     51       3.1445      1.00000
     52       4.0650      1.00000
     53       4.5538      1.00000
     54       4.6087      1.00000
     55       5.0377      1.00000
     56       5.0457      1.00000
     57       5.1066      1.00000
     58       5.1437      1.00000
     59       5.1735      1.00000
     60       5.1838      1.00000
[...]
     82       9.2996      0.00000
     83       9.8262      0.00000
     84       9.8464      0.00000
     85      10.0023      0.00000
     86      10.4181      0.00000
     87      10.4412      0.00000
     88      10.5262      0.00000
     89      10.5793      0.00000
     90      10.6069      0.00000
     91      10.6253      0.00000
     92      10.6671      0.00000
     93      10.6848      0.00000
     94      10.6971      0.00000
     95      10.7265      0.00000
     96      10.7867      0.00000

[...]

 spin component 2

[...]

 k-point    12 :       0.5000   -0.3333    0.3333
  band No.  band energies     occupation
      1     -24.2516      1.00000
      2     -24.2486      1.00000
      3     -24.2026      1.00000
      4     -24.1980      1.00000
      5     -11.4291      1.00000
      6     -11.2672      1.00000
      7     -10.7982      1.00000
      8     -10.7213      1.00000
      9     -10.3900      1.00000
     10     -10.1985      1.00000
     11      -9.9816      1.00000
     12      -9.9285      1.00000
     13      -9.8467      1.00000
     14      -9.7726      1.00000
     15      -9.6278      1.00000
     16      -9.5236      1.00000
     17      -7.8912      1.00000
     18      -7.8615      1.00000
     19      -7.7040      1.00000
     20      -7.7008      1.00000
     21      -7.6888      1.00000
     22      -7.6627      1.00000
     23      -7.4660      1.00000
     24      -7.4364      1.00000
     25      -7.4216      1.00000
     26      -7.4067      1.00000
     27      -7.0307      1.00000
     28      -7.0039      1.00000
     29       1.7091      1.00000
     30       1.8091      1.00000
     31       2.3047      1.00000
     32       2.4142      1.00000
     33       2.4702      1.00000
     34       2.5788      1.00000
     35       2.8003      1.00000
     36       2.8621      1.00000
     37       3.0011      1.00000
     38       3.0265      1.00000
     39       3.0976      1.00000
     40       3.1611      1.00000
     41       3.2729      1.00000
     42       3.3516      1.00000
     43       3.5120      1.00000
     44       3.6049      1.00000
     45       3.7029      1.00000
     46       3.8007      1.00000
     47       4.0453      1.00000
     48       4.1241      1.00000
     49       4.1423      1.00000
     50       4.2091      1.00000
     51       4.2810      1.00000
     52       4.2889      1.00000
     53       4.7694      1.00000
     54       4.9267      1.00000
     55       5.1990      1.00000
     56       5.3474      1.00000
     57       5.3704      1.00000
     58       5.3980      1.00000
     59       5.4144      1.00000
     60       5.5119      1.00000
[...]
     82      10.6272      0.00000
     83      10.6594      0.00000
     84      10.6675      0.00000
     85      10.6854      0.00000
     86      10.6975      0.00000
     87      10.7055      0.00000
     88      10.7084      0.00000
     89      10.7130      0.00000
     90      10.7681      0.00000
     91      10.8054      0.00000
     92      10.8171      0.00000
     93      10.8325      0.00000
     94      10.8389      0.00000
     95      10.8496      0.00000
     96      10.8990      0.00000

 soft charge-density along one line, spin component           1
         0         1         2         3         4         5         6         7         8         9
 total charge-density along one line

 soft charge-density along one line, spin component           2
         0         1         2         3         4         5         6         7         8         9
 total charge-density along one line

------------------------ aborting loop because EDIFF is reached ----------------------------------------

 total charge

# of ion       s       p       d       f       tot
    1        1.998   5.697   0.482   0.186   8.363
    2        1.999   5.697   0.482   0.187   8.364
    3        1.998   5.697   0.480   0.187   8.361
    4        1.999   5.697   0.482   0.187   8.364
    5        0.335   0.520   4.888   0.000   5.743
    6        0.316   0.479   4.890   0.000   5.685
    7        0.335   0.520   4.887   0.000   5.742
    8        0.385   0.551   8.321   0.000   9.258
    9        1.564   3.462   0.000   0.000   5.026
   10        1.564   3.463   0.000   0.000   5.026
   11        1.560   3.459   0.000   0.000   5.018
   12        1.560   3.459   0.000   0.000   5.018
   13        1.559   3.458   0.000   0.000   5.017
   14        1.563   3.461   0.000   0.000   5.024
   15        1.563   3.461   0.000   0.000   5.024
   16        1.559   3.458   0.000   0.000   5.018
   17        1.566   3.461   0.000   0.000   5.027
   18        1.559   3.455   0.000   0.000   5.015
   19        1.566   3.460   0.000   0.000   5.026
   20        1.559   3.455   0.000   0.000   5.015
tot         28.108  66.368  24.911   0.746 120.134

 magnetization (x)

[...]

  FORCE on cell =-STRESS in cart. coord.  units (eV):
  Direction    XX          YY          ZZ          XY          YZ          ZX
  Alpha Z   649.71307   649.71307   649.71307
  Ewald   -3318.92871 -3295.52184 -3295.52184    -0.00000     7.16919    -0.00000
  Hartree   679.47008   698.37912   698.37912    -0.00000     6.08735     0.00000
  E(xc)    -677.36438  -677.29029  -677.29029     0.00000     0.00551     0.00000
  Local    -330.72245  -373.38531  -373.38531    -0.00000   -13.40613    -0.00000
  n-local   265.17082   264.57466   264.64283     0.46745    -0.03737    -0.20622
  augment   180.89570   181.20128   181.20128     0.00000     0.01883    -0.00000
  Kinetic  2552.95000  2552.94215  2553.55409    -0.90845     0.17806     0.14775
  Fock        0.00000     0.00000     0.00000     0.00000     0.00000     0.00000
  Total       1.18413     0.95290     0.95290     0.00000     0.01599    -0.00000
  in kB       7.97779     6.41989     6.41989     0.00000     0.10776    -0.00000

 VOLUME and BASIS-vectors are now :
  energy-cutoff  :      520.00
  volume of cell :      237.81
      direct lattice vectors                 reciprocal lattice vectors
     0.000000000  3.900524080  3.900524080     0.000000000  0.128187902  0.128187902
     3.905778713 -3.902450685  3.902450685     0.128015445 -0.064062309  0.064062309
     3.905778713  3.902450685 -3.902450685     0.128015445  0.064062309 -0.064062309

  length of vectors
     5.516174054  6.761164845  6.761164845     0.181285070  0.156830842  0.156830842

 FORCES acting on ions
    electron-ion (+dipol)            ewald-force                    non-local-force                 convergence-correction
   -.312E-12 -.554E-12 0.531E-12   0.888E-15 -.213E-13 0.142E-13   0.000E+00 -.651E-18 -.217E-18   0.101E-12 -.110E-13 -.490E-13
   -.538E+02 0.986E-07 -.986E-07   0.532E+02 -.358E-13 -.316E-13   0.480E+00 0.000E+00 0.000E+00   0.480E-02 -.451E-13 0.123E-12
   0.566E-12 -.271E-11 0.269E-11   -.138E-13 0.213E-13 0.711E-14   -.542E-19 -.163E-18 -.271E-18   -.173E-12 -.567E-13 0.120E-14
   0.538E+02 -.986E-07 0.986E-07   -.532E+02 0.613E-14 0.312E-13   -.480E+00 0.000E+00 0.000E+00   -.480E-02 0.162E-12 -.432E-13
   0.288E-06 0.120E+02 -.120E+02   -.360E-13 -.118E+02 0.118E+02   0.000E+00 -.148E+00 0.148E+00   0.170E-12 -.763E-02 0.763E-02
   -.163E-11 -.333E-11 0.361E-11   0.284E-13 0.248E-14 -.175E-14   0.000E+00 -.339E-19 0.203E-19   0.136E-13 0.336E-14 -.674E-13
   -.288E-06 -.120E+02 0.120E+02   -.458E-13 0.118E+02 -.118E+02   0.000E+00 0.148E+00 -.148E+00   -.839E-13 0.763E-02 -.763E-02
   -.267E-11 -.527E-11 0.671E-11   -.853E-13 -.555E-13 -.520E-14   -.212E-21 -.424E-21 0.424E-21   -.661E-13 -.213E-12 0.887E-13
   0.653E-06 -.101E+02 0.146E+02   0.284E-13 0.104E+02 -.167E+02   0.000E+00 -.382E+00 0.207E+01   -.623E-13 0.250E-02 0.114E-01
   -.653E-06 0.101E+02 -.146E+02   0.284E-13 -.104E+02 0.167E+02   0.000E+00 0.382E+00 -.207E+01   0.116E-12 -.250E-02 -.114E-01
   0.101E-05 0.984E+01 -.459E+02   0.000E+00 -.103E+02 0.420E+02   0.000E+00 0.465E+00 0.398E+01   0.535E-13 0.327E-03 -.314E-02
   -.101E-05 -.984E+01 0.459E+02   -.142E-13 0.103E+02 -.420E+02   0.000E+00 -.465E+00 -.398E+01   -.709E-13 -.327E-03 0.314E-02
   0.706E-06 -.459E+02 0.984E+01   -.284E-13 0.420E+02 -.103E+02   0.000E+00 0.398E+01 0.465E+00   -.855E-13 -.314E-02 0.327E-03
   -.908E-06 -.146E+02 0.101E+02   0.142E-13 0.167E+02 -.104E+02   0.000E+00 -.207E+01 0.382E+00   -.701E-13 -.114E-01 -.250E-02
   0.908E-06 0.146E+02 -.101E+02   0.213E-13 -.167E+02 0.104E+02   0.000E+00 0.207E+01 -.382E+00   0.115E-12 0.114E-01 0.250E-02
   -.706E-06 0.459E+02 -.984E+01   -.426E-13 -.420E+02 0.103E+02   0.000E+00 -.398E+01 -.465E+00   0.577E-13 0.314E-02 -.327E-03
   0.115E-12 -.102E-12 0.110E-12   -.522E-14 0.160E-13 -.533E-14   -.108E-18 0.000E+00 0.000E+00   -.555E-13 0.978E-14 0.638E-13
   -.499E+02 0.595E-07 -.595E-07   0.449E+02 0.194E-13 0.281E-13   0.514E+01 0.000E+00 0.000E+00   -.243E-01 -.794E-13 0.526E-13
   0.377E-12 0.826E-13 -.743E-13   0.415E-13 0.711E-14 -.355E-14   0.217E-18 0.000E+00 0.000E+00   -.334E-13 0.405E-13 0.392E-13
   0.499E+02 -.595E-07 0.595E-07   -.449E+02 -.321E-13 -.133E-13   -.514E+01 0.000E+00 0.000E+00   0.243E-01 0.235E-13 -.843E-13
   -.664E-11 -.236E-10 0.287E-10   0.426E-13 0.175E-13 0.325E-13   0.000E+00 0.444E-15 0.555E-15   -.286E-13 -.112E-12 0.188E-12

 POSITION                                       TOTAL-FORCE (eV/Angst)
      3.90578      3.90149     -0.00096         0.000000     -0.000000      0.000000
      3.86013      0.00000      0.00000        -0.102544     -0.000000      0.000000
      3.90578     -0.00096      3.90149         0.000000     -0.000000      0.000000
      0.04565      0.00000      0.00000         0.102544     -0.000000      0.000000
      1.95289     -1.94630      1.94630         0.000000      0.066974     -0.066974
      5.85867      1.95026      1.95026         0.000000     -0.000000      0.000000
      1.95289      1.94630     -1.94630         0.000000     -0.066974      0.066974
      1.95289      1.95026      1.95026         0.000000     -0.000000      0.000000
      5.85867      1.94497      3.93420         0.000000     -0.037173     -0.021267
      5.85867      1.95555     -0.03368         0.000000      0.037173      0.021267
      1.95289      1.95343      3.92006         0.000000      0.027557      0.065540
      1.95289      1.94709     -0.01953         0.000000     -0.027557     -0.065540
      1.95289      3.92006      1.95343         0.000000      0.065540      0.027557
      5.85867     -0.03368      1.95555         0.000000      0.021267      0.037173
      5.85867      3.93420      1.94497         0.000000     -0.021267     -0.037173
      1.95289     -0.01953      1.94709         0.000000     -0.065540     -0.027557
      3.90578     -1.95123      1.95123         0.000000     -0.000000      0.000000
      3.94965      1.95026      1.95026         0.068862     -0.000000      0.000000
      3.90578      1.95123     -1.95123         0.000000     -0.000000      0.000000
      7.76769      1.95026      1.95026        -0.068862     -0.000000      0.000000
    total drift:                               -0.000000     -0.000000      0.000000

  FREE ENERGIE OF THE ION-ELECTRON SYSTEM (eV)
  free  energy   TOTEN  =      -153.03281294 eV

  energy  without entropy=     -153.03281294  energy(sigma->0) =     -153.03281294

 total charge

[...]

 magnetization (x)

# of ion       s       p       d       f       tot
    1        0.000   0.001   0.008   0.006   0.015
    2        0.000   0.001   0.010   0.005   0.016
    3        0.000   0.001   0.011   0.005   0.017
    4        0.000   0.001   0.010   0.005   0.016
    5        0.026   0.033   3.596   0.000   3.655
    6        0.024   0.027   3.727   0.000   3.778
    7        0.026   0.033   3.595   0.000   3.654
    8        0.006  -0.005   1.699   0.000   1.701
    9        0.005  -0.026   0.000   0.000  -0.020
   10        0.005  -0.025   0.000   0.000  -0.020
   11        0.005  -0.004   0.000   0.000   0.001
   12        0.005  -0.005   0.000   0.000   0.001
   13        0.005  -0.005   0.000   0.000   0.000
   14        0.005  -0.027   0.000   0.000  -0.023
   15        0.005  -0.027   0.000   0.000  -0.023
   16        0.005  -0.005   0.000   0.000   0.000
   17        0.008  -0.029   0.000   0.000  -0.021
   18        0.005  -0.008   0.000   0.000  -0.004
   19        0.008  -0.032   0.000   0.000  -0.024
   20        0.005  -0.008   0.000   0.000  -0.004
tot          0.149  -0.110  12.656   0.022  12.717

 BZINTS: Fermi energy:  8.113163;147.000000 electrons
         Band energy:-255.651122;  BLOECHL correction: -0.026238