 vasp.5.4.4.18Apr17-6-g9f103f2a35 (build Oct 03 2018 13:58:34) complex

 executed on             LinuxIFC date 2019.06.04  00:17:23

 INCAR:
 POTCAR:    PAW_PBE La 06Sep2000
 POTCAR:    PAW_PBE Mn 06Sep2000
 POTCAR:    PAW_PBE Ni 02Aug2007
 POTCAR:    PAW_PBE O 08Apr2002

 POTCAR:    PAW_PBE La 06Sep2000
   VRHFIN =La : [core=Kr4d]

   TITEL  = PAW_PBE La 06Sep2000
   POMASS =  138.900; ZVAL   =   11.000    mass and valenz
   ENMAX  =  219.292; ENMIN  =  164.469 eV

 POTCAR:    PAW_PBE Mn 06Sep2000
   VRHFIN =Mn: d6 s1

   TITEL  = PAW_PBE Mn 06Sep2000
   POMASS =   54.938; ZVAL   =    7.000    mass and valenz
   ENMAX  =  269.864; ENMIN  =  202.398 eV

 POTCAR:    PAW_PBE Ni 02Aug2007
   VRHFIN =Ni:

   TITEL  = PAW_PBE Ni 02Aug2007
   POMASS =   58.690; ZVAL   =   10.000    mass and valenz
   ENMAX  =  269.532; ENMIN  =  202.149 eV

 POTCAR:    PAW_PBE O 08Apr2002
   VRHFIN =O: s2p4

   TITEL  = PAW_PBE O 08Apr2002
   POMASS =   16.000; ZVAL   =    6.000    mass and valenz
   ENMAX  =  400.000; ENMIN  =  300.000 eV

 Optimization of the real space projectors (new method)

 maximal supplied QI-value         = 13.42
 optimisation between [QCUT,QGAM] = [ 11.67, 23.35] = [ 38.16,152.62] Ry
 Optimized for a Real-space Cutoff    1.63 Angstroem

   l    n(q)    QCUT    max X(q) W(low)/X(q) W(high)/X(q)  e(spline)
   0     11    11.673    13.882    0.27E-04    0.79E-05    0.11E-06
   0     11    11.673    12.184    0.39E-04    0.13E-04    0.19E-06
   1     11    11.673     4.523    0.73E-05    0.76E-05    0.12E-06
   1     11    11.673     4.424    0.87E-05    0.13E-04    0.19E-06
   2     10    11.673    52.481    0.65E-04    0.36E-04    0.18E-06
   2     10    11.673    38.501    0.61E-04    0.33E-04    0.17E-06
   3     10    11.673    65.631    0.17E-03    0.14E-03    0.37E-06
   3     10    11.673    56.854    0.17E-03    0.14E-03    0.37E-06
 Optimization of the real space projectors (new method)

[...]

   l    n(q)    QCUT    max X(q) W(low)/X(q) W(high)/X(q)  e(spline)
   2      9    11.539    60.317    0.19E-03    0.47E-04    0.16E-06
   2      9    11.539    55.921    0.19E-03    0.48E-04    0.16E-06
   0     10    11.539    51.690    0.80E-04    0.50E-04    0.24E-06
   0     10    11.539    30.015    0.73E-04    0.45E-04    0.22E-06
   1     10    11.539    18.849    0.87E-04    0.16E-03    0.71E-07
   1     10    11.539    14.624    0.73E-04    0.13E-03    0.64E-07
 Optimization of the real space projectors (new method)

 maximal supplied QI-value         = 24.76
 optimisation between [QCUT,QGAM] = [ 11.64, 23.27] = [ 37.91,151.63] Ry
 Optimized for a Real-space Cutoff    1.14 Angstroem

   l    n(q)    QCUT    max X(q) W(low)/X(q) W(high)/X(q)  e(spline)
   0      8    11.635    20.381    0.10E-03    0.33E-03    0.24E-06
   0      8    11.635    15.268    0.11E-03    0.35E-03    0.26E-06
   1      7    11.635     5.964    0.24E-03    0.31E-03    0.30E-06
   1      7    11.635     5.382    0.22E-03    0.25E-03    0.26E-06
  PAW_PBE La 06Sep2000                  :
  PAW_PBE Mn 06Sep2000                  :
  PAW_PBE Ni 02Aug2007                  :
  PAW_PBE O 08Apr2002                   :

 POSCAR: SCEL5_5_1_1_0_1_1/3
  positions in direct lattice
  velocities in cartesian coordinates
 exchange correlation table for  LEXCH =        8
   RHO(1)=    0.500       N(1)  =     2000
   RHO(2)=  100.500       N(2)  =     4000

 ion  position               nearest neighbor table
   1  0.800  0.800  0.600-  23 2.73  16 2.73  11 2.73  19 2.73  14 2.73  21 2.73  21 2.73  14 2.73
                            19 2.73  24 2.74  17 2.74  12 2.74   7 3.35   7 3.35   7 3.35   9 3.35
   2  0.600  0.600  0.200-  13 2.73  18 2.73  13 2.73  25 2.73  18 2.73  25 2.73  23 2.75  22 2.75
                            16 2.75  11 2.75  20 2.75  15 2.75   8 3.35  10 3.35  10 3.35  10 3.35
   3  0.400  0.400  0.800-  22 2.73  20 2.73  15 2.73  12 2.73  17 2.73  24 2.73  24 2.73  12 2.73
                            17 2.73  21 2.74  19 2.74  14 2.74   6 3.35   6 3.35   6 3.35   9 3.35
   4  0.201  0.201  0.396-  25 2.71  18 2.71  13 2.71  11 2.74  16 2.74  23 2.74  23 2.74  16 2.74
                            11 2.74  21 2.77  14 2.77  19 2.77  10 3.32   8 3.34   8 3.34   8 3.34
   5  0.999  0.999  0.004-  25 2.71  18 2.71  13 2.71  20 2.74  15 2.74  22 2.74  22 2.74  20 2.74
                            15 2.74  24 2.77  12 2.77  17 2.77   8 3.32  10 3.34  10 3.34  10 3.34
   6  0.700  0.700  0.900-  12 1.90  17 1.90  24 1.90  20 1.90  15 1.90  22 1.90   3 3.35   3 3.35
                             3 3.35   1 3.36   2 3.36   5 3.37   5 3.37   5 3.37
   7  0.500  0.500  0.500-  14 1.90  19 1.90  21 1.90  11 1.90  16 1.90  23 1.90   1 3.35   1 3.35
                             1 3.35   3 3.36   2 3.36   4 3.37   4 3.37   4 3.37
   8  0.900  0.900  0.300-  13 1.94  18 1.94  25 1.94  11 1.97  16 1.97  23 1.97   5 3.32   4 3.34
                             4 3.34   4 3.34   2 3.35   2 3.35   2 3.35   1 3.36
   9  0.100  0.100  0.700-  12 1.97  17 1.97  14 1.97  19 1.97  21 1.97  24 1.97   3 3.35   1 3.35
                             1 3.35   1 3.35   3 3.35   3 3.35
  10  0.300  0.300  0.100-  13 1.94  18 1.94  25 1.94  20 1.97  15 1.97  22 1.97   4 3.32   5 3.34
                             5 3.34   5 3.34   2 3.35   2 3.35   2 3.35   3 3.36
  11  0.204  0.697  0.402-   7 1.90   8 1.97   1 2.73   4 2.74   4 2.74   2 2.75
  12  0.406  0.896  0.802-   6 1.90   9 1.97   3 2.73   3 2.73   1 2.74   5 2.77
  13  0.600  0.100  0.200-   8 1.94  10 1.94   4 2.71   5 2.71   2 2.73   2 2.73
  14  0.794  0.304  0.598-   7 1.90   9 1.97   1 2.73   1 2.73   3 2.74   4 2.77
  15  0.996  0.503  0.998-   6 1.90  10 1.97   3 2.73   5 2.74   5 2.74   2 2.75
  16  0.697  0.204  0.402-   7 1.90   8 1.97   1 2.73   4 2.74   4 2.74   2 2.75
  17  0.896  0.406  0.802-   6 1.90   9 1.97   3 2.73   3 2.73   1 2.74   5 2.77
  18  0.100  0.600  0.200-   8 1.94  10 1.94   4 2.71   5 2.71   2 2.73   2 2.73
  19  0.304  0.794  0.598-   7 1.90   9 1.97   1 2.73   1 2.73   3 2.74   4 2.77
  20  0.503  0.996  0.998-   6 1.90  10 1.97   3 2.73   5 2.74   5 2.74   2 2.75
  21  0.304  0.304  0.598-   7 1.90   9 1.97   1 2.73   1 2.73   3 2.74   4 2.77
  22  0.503  0.503  0.998-   6 1.90  10 1.97   3 2.73   5 2.74   5 2.74   2 2.75
  23  0.697  0.697  0.402-   7 1.90   8 1.97   1 2.73   4 2.74   4 2.74   2 2.75
  24  0.896  0.896  0.802-   6 1.90   9 1.97   3 2.73   3 2.73   1 2.74   5 2.77
  25  0.100  0.100  0.200-  10 1.94   8 1.94   4 2.71   5 2.71   2 2.73   2 2.73

  LATTYP: Found a trigonal (rhomboedric) cell.
 ALAT       =    11.6305345225
 COS(alpha) =     0.8894235584

  Lattice vectors:

 A1 = (   7.7518202707,  -3.8843144070,  -7.7518202610)
 A2 = (   7.7518202707,  -7.7518202610,  -3.8843144070)
 A3 = (   3.8843144167,  -7.7518202610,  -7.7518202610)

Analysis of symmetry for initial positions (statically):
 Subroutine PRICEL returns:
 Original cell was already a primitive cell.

 Routine SETGRP: Setting up the symmetry group for a
 trigonal (rhombohedral) supercell.

 Subroutine GETGRP returns: Found 12 space group operations
 (whereof  6 operations were pure point group operations)
 out of a pool of 12 trial point group operations.

The static configuration has the point symmetry C_3v.
 The point group associated with its full space group is D_3d.

Analysis of symmetry for dynamics (positions and initial velocities):
 Subroutine PRICEL returns:
 Original cell was already a primitive cell.

[...]

The dynamic configuration has the point symmetry C_3v.
 The point group associated with its full space group is D_3d.

Analysis of structural, dynamic, and magnetic symmetry:
 Subroutine PRICEL returns:
 Original cell was already a primitive cell.

 Routine SETGRP: Setting up the symmetry group for a
 trigonal (rhombohedral) supercell.

 Subroutine GETGRP returns: Found 12 space group operations
 (whereof  6 operations were pure point group operations)
 out of a pool of 12 trial point group operations.

The magnetic configuration has the point symmetry C_3v.
 The point group associated with its full space group is D_3d.

 Subroutine INISYM returns: Found 12 space group operations
 (whereof  6 operations are pure point group operations),
 and found     1 'primitive' translations

 KPOINTS: Automatic mesh

Automatic generation of k-mesh.
 generate k-points for:    4    4    2
Space group operators:
 irot       det(A)        alpha          n_x          n_y          n_z        tau_x        tau_y        tau_z
    1     1.000000     0.000000     1.000000     0.000000     0.000000     0.000000     0.000000     0.000000
    2    -1.000000   180.000000     0.707107     0.000000     0.707107     0.000000     0.000000     0.000000
    3     1.000000   120.000000    -0.577350     0.577350     0.577350     0.000000     0.000000     0.000000
    4    -1.000000   180.000000     0.000000    -0.707107     0.707107     0.000000     0.000000     0.000000
    5     1.000000   120.000000     0.577350    -0.577350    -0.577350     0.000000     0.000000     0.000000
    6    -1.000000   180.000000     0.707107     0.707107     0.000000     0.000000     0.000000     0.000000
    7    -1.000000     0.000000     1.000000     0.000000     0.000000     0.200000     0.200000    -0.600000
    8     1.000000   180.000000     0.707107     0.000000     0.707107     0.200000     0.200000    -0.600000
    9    -1.000000   120.000000    -0.577350     0.577350     0.577350     0.200000     0.200000    -0.600000
   10     1.000000   180.000000     0.000000    -0.707107     0.707107     0.200000     0.200000    -0.600000
   11    -1.000000   120.000000     0.577350    -0.577350    -0.577350     0.200000     0.200000    -0.600000
   12     1.000000   180.000000     0.707107     0.707107     0.000000     0.200000     0.200000    -0.600000

 Subroutine IBZKPT returns following result:

 Found     11 irreducible k-points:

 Following reciprocal coordinates:
            Coordinates               Weight
  0.000000  0.000000  0.000000      1.000000
  0.250000 -0.000000  0.000000      4.000000
  0.500000 -0.000000  0.000000      3.000000
  0.250000  0.250000 -0.000000      2.000000
  0.500000  0.250000 -0.000000      8.000000
 -0.250000  0.250000  0.000000      2.000000
  0.500000  0.500000 -0.000000      3.000000
  0.000000  0.000000  0.500000      1.000000
  0.250000 -0.000000  0.500000      4.000000
  0.250000  0.250000  0.500000      2.000000
 -0.250000  0.250000  0.500000      2.000000

 Following cartesian coordinates:
            Coordinates               Weight
  0.000000  0.000000  0.000000      1.000000
  0.025845 -0.025845  0.038796      4.000000
  0.051690 -0.051690  0.077592      3.000000
  0.051690  0.012951  0.012951      2.000000
  0.077536 -0.012895  0.051747      8.000000
  0.000000  0.064641 -0.064641      2.000000
  0.103381  0.025901  0.025901      3.000000
 -0.025789  0.025789  0.025789      1.000000
  0.000056 -0.000056  0.064585      4.000000
  0.025901  0.038740  0.038740      2.000000
 -0.025789  0.090430 -0.038852      2.000000

 TETIRR: Found     48 inequivalent tetrahedra from      192

 SYSTEM =  final
 POSCAR =  SCEL5_5_1_1_0_1_1/3

 Startparameter for this run:
[...]
       1 -95.2972       2 -95.2427       3 -95.2973       4 -95.2672       5 -95.2672
       6 -43.1555       7 -43.1555       8 -83.7492       9 -83.5940      10 -83.7492
      11 -66.8096      12 -66.7888      13 -66.6972      14 -66.7888      15 -66.8096
      16 -66.8096      17 -66.7888      18 -66.6972      19 -66.7888      20 -66.8096
      21 -66.7888      22 -66.8096      23 -66.8096      24 -66.7888      25 -66.6972

 E-fermi :   7.7038     XC(G=0): -11.7764     alpha+bet :-16.6858

[...]

 k-point     1 :       0.0000    0.0000    0.0000
  band No.  band energies     occupation
      1     -23.8002      1.00000
      2     -23.7309      1.00000
      3     -23.7267      1.00000
      4     -23.6512      1.00000
      5     -23.6124      1.00000
      6     -10.8943      1.00000
      7     -10.7921      1.00000
      8     -10.6577      1.00000
      9      -9.9729      1.00000
     10      -9.9685      1.00000
     11      -9.7231      1.00000
     12      -9.7231      1.00000
     13      -9.7097      1.00000
     14      -9.7097      1.00000
     15      -9.6658      1.00000
     16      -9.6658      1.00000
     17      -9.6051      1.00000
     18      -9.6051      1.00000
     19      -9.4443      1.00000
     20      -9.4443      1.00000
     21      -7.6642      1.00000
     22      -7.6642      1.00000
     23      -7.6618      1.00000
     24      -7.6618      1.00000
     25      -7.4097      1.00000
     26      -7.3566      1.00000
     27      -7.3104      1.00000
     28      -7.3104      1.00000
     29      -7.2987      1.00000
     30      -7.1916      1.00000
     31      -7.1916      1.00000
     32      -7.1893      1.00000
     33      -7.1893      1.00000
     34      -6.7443      1.00000
     35      -6.7089      1.00000
     36       0.4348      1.00000
     37       0.4348      1.00000
     38       0.6153      1.00000
     39       0.6153      1.00000
     40       1.1398      1.00000
     41       1.1526      1.00000
     42       1.4217      1.00000
     43       1.4217      1.00000
     44       1.6507      1.00000
     45       1.6692      1.00000
     46       1.8318      1.00000
     47       1.8318      1.00000
     48       1.8545      1.00000
     49       1.8545      1.00000
     50       1.8557      1.00000
     51       1.8887      1.00000
     52       2.2071      1.00000
     53       2.2071      1.00000
     54       2.3219      1.00000
     55       2.3219      1.00000
     56       2.4337      1.00000
     57       2.4337      1.00000
     58       2.7480      1.00000
     59       2.7671      1.00000
     60       2.7671      1.00000
[...]
    108      10.9717      0.00000
    109      10.9858      0.00000
    110      10.9967      0.00000
    111      11.0244      0.00000
    112      11.0684      0.00000
    113      11.0897      0.00000
    114      11.1398      0.00000
    115      11.1747      0.00000
    116      11.2081      0.00000
    117      11.2287      0.00000
    118      11.2449      0.00000
    119      11.2766      0.00000
    120      11.3142      0.00000
    121      11.3673      0.00000
    122      11.4230      0.00000

[...]

 spin component 2

[...]

 k-point    11 :      -0.2500    0.2500    0.5000
  band No.  band energies     occupation
      1     -23.7368      1.00000
      2     -23.7140      1.00000
      3     -23.6896      1.00000
      4     -23.6817      1.00000
      5     -23.6466      1.00000
      6     -10.9630      1.00000
      7     -10.9478      1.00000
      8     -10.7270      1.00000
      9     -10.6738      1.00000
     10     -10.5412      1.00000
     11     -10.0170      1.00000
     12     -10.0133      1.00000
     13      -9.9290      1.00000
     14      -9.7584      1.00000
     15      -9.7358      1.00000
     16      -9.4834      1.00000
     17      -9.4728      1.00000
     18      -9.4475      1.00000
     19      -9.3545      1.00000
     20      -9.2681      1.00000
     21      -7.5039      1.00000
     22      -7.2569      1.00000
     23      -7.2314      1.00000
     24      -7.1461      1.00000
     25      -7.1411      1.00000
     26      -7.0247      1.00000
     27      -7.0127      1.00000
     28      -6.9681      1.00000
     29      -6.9246      1.00000
     30      -6.9058      1.00000
     31      -6.9006      1.00000
     32      -6.7237      1.00000
     33      -6.7185      1.00000
     34      -6.6492      1.00000
     35      -6.6103      1.00000
     36       1.8231      1.00000
     37       1.8913      1.00000
     38       2.1094      1.00000
     39       2.1931      1.00000
     40       2.2048      1.00000
     41       2.4502      1.00000
     42       2.4554      1.00000
     43       2.5204      1.00000
     44       2.8148      1.00000
     45       2.8231      1.00000
     46       2.8734      1.00000
     47       2.9400      1.00000
     48       2.9415      1.00000
     49       2.9991      1.00000
     50       3.2148      1.00000
     51       3.2335      1.00000
     52       3.3128      1.00000
     53       3.5161      1.00000
     54       3.5350      1.00000
     55       3.5821      1.00000
     56       3.6751      1.00000
     57       3.7265      1.00000
     58       3.8336      1.00000
     59       3.8968      1.00000
     60       3.9674      1.00000
[...]
    108      11.1760      0.00000
    109      11.1995      0.00000
    110      11.2120      0.00000
    111      11.2297      0.00000
    112      11.2394      0.00000
    113      11.2424      0.00000
    114      11.2555      0.00000
    115      11.2643      0.00000
    116      11.2795      0.00000
    117      11.2892      0.00000
    118      11.3013      0.00000
    119      11.3257      0.00000
    120      11.3528      0.00000
    121      11.3669      0.00000
    122      11.4111      0.00000

 soft charge-density along one line, spin component           1
         0         1         2         3         4         5         6         7         8         9
 total charge-density along one line

 soft charge-density along one line, spin component           2
         0         1         2         3         4         5         6         7         8         9
 total charge-density along one line

------------------------ aborting loop because EDIFF is reached ----------------------------------------

 total charge

# of ion       s       p       d       f       tot
    1        1.999   5.700   0.493   0.193   8.385
    2        1.999   5.699   0.490   0.190   8.379
    3        1.999   5.700   0.493   0.193   8.385
    4        1.999   5.700   0.491   0.191   8.382
    5        2.000   5.700   0.491   0.191   8.382
    6        0.361   0.584   4.860   0.000   5.805
    7        0.361   0.584   4.860   0.000   5.805
    8        0.411   0.600   8.319   0.000   9.330
    9        0.384   0.555   8.325   0.000   9.264
   10        0.411   0.600   8.319   0.000   9.330
   11        1.561   3.479   0.000   0.000   5.041
   12        1.561   3.483   0.000   0.000   5.044
   13        1.562   3.486   0.000   0.000   5.048
   14        1.561   3.483   0.000   0.000   5.044
   15        1.561   3.479   0.000   0.000   5.041
   16        1.561   3.434   0.000   0.000   4.996
   17        1.561   3.431   0.000   0.000   4.992
   18        1.562   3.364   0.000   0.000   4.926
   19        1.561   3.431   0.000   0.000   4.992
   20        1.561   3.434   0.000   0.000   4.996
   21        1.561   3.466   0.000   0.000   5.027
   22        1.561   3.464   0.000   0.000   5.026
   23        1.561   3.464   0.000   0.000   5.026
   24        1.561   3.466   0.000   0.000   5.027
   25        1.562   3.446   0.000   0.000   5.008
tot         35.346  83.234  37.142   0.958 156.680

 magnetization (x)

[...]

  FORCE on cell =-STRESS in cart. coord.  units (eV):
  Direction    XX          YY          ZZ          XY          YZ          ZX
  Alpha Z   824.48430   824.48430   824.48430
  Ewald   -4390.50773 -4390.50773 -4390.50773     8.39224    -8.39224     8.39224
  Hartree   997.12197   997.12197   997.12197     7.17165    -7.17166     7.17165
  E(xc)    -882.21064  -882.21064  -882.21064    -0.00103     0.00105    -0.00103
  Local    -595.11920  -595.11940  -595.11940   -14.97642    14.97723   -14.97642
  n-local   353.40336   352.55120   354.05844     1.13610    -0.38456    -1.08110
  augment   480.85920   480.85931   480.85931    -0.06267     0.06179    -0.06267
  Kinetic  3211.55380  3218.93354  3205.93328     2.73597     0.16764    -4.54429
  Fock        0.00000     0.00000     0.00000     0.00000     0.00000     0.00000
  Total       0.10573     0.10573     0.10573     0.01238    -0.01238     0.01238
  in kB       0.58411     0.58411     0.58411     0.06839    -0.06839     0.06839

 VOLUME and BASIS-vectors are now :
  energy-cutoff  :      520.00
  volume of cell :      290.00
      direct lattice vectors                 reciprocal lattice vectors
     3.867505854  0.000000000  3.867505854     0.103380996 -0.103380996  0.155183577
     3.867505854  3.867505854  0.000000000     0.103380996  0.155183577 -0.103380996
    -3.884314417  7.751820261  7.751820261    -0.051578416  0.051578416  0.051578416

  length of vectors
     5.469479231  5.469479231 11.630534519     0.213206949  0.213206949  0.089336437

 FORCES acting on ions
    electron-ion (+dipol)            ewald-force                    non-local-force                 convergence-correction
   0.861E+01 -.861E+01 -.861E+01   -.860E+01 0.860E+01 0.860E+01   -.133E-01 0.133E-01 0.133E-01   0.996E-03 -.991E-03 -.991E-03
   -.311E-05 0.108E-04 0.108E-04   0.334E-10 -.288E-10 -.286E-10   -.407E-19 0.190E-18 -.108E-18   0.117E-05 -.215E-05 -.215E-05
   -.861E+01 0.861E+01 0.861E+01   0.860E+01 -.860E+01 -.860E+01   0.133E-01 -.133E-01 -.133E-01   -.995E-03 0.996E-03 0.996E-03
   0.349E+02 -.349E+02 -.349E+02   -.346E+02 0.346E+02 0.346E+02   -.221E+00 0.221E+00 0.221E+00   0.661E-02 -.662E-02 -.662E-02
   -.349E+02 0.349E+02 0.349E+02   0.346E+02 -.346E+02 -.346E+02   0.221E+00 -.221E+00 -.221E+00   -.662E-02 0.661E-02 0.661E-02
   -.813E+01 0.813E+01 0.813E+01   0.823E+01 -.823E+01 -.823E+01   -.709E-01 0.709E-01 0.709E-01   -.109E-02 0.109E-02 0.109E-02
   0.813E+01 -.813E+01 -.813E+01   -.823E+01 0.823E+01 0.823E+01   0.709E-01 -.709E-01 -.709E-01   0.109E-02 -.109E-02 -.109E-02
   0.264E+02 -.264E+02 -.264E+02   -.258E+02 0.258E+02 0.258E+02   -.599E+00 0.599E+00 0.599E+00   0.114E-01 -.114E-01 -.114E-01
   -.366E-04 -.126E-04 -.126E-04   0.359E-10 0.552E-11 0.549E-11   -.212E-20 0.169E-20 -.847E-21   -.184E-05 0.185E-05 0.185E-05
   -.264E+02 0.264E+02 0.264E+02   0.258E+02 -.258E+02 -.258E+02   0.599E+00 -.599E+00 -.599E+00   -.114E-01 0.114E-01 0.114E-01
   0.119E+02 -.119E+02 -.471E+02   -.119E+02 0.119E+02 0.426E+02   -.644E-01 0.644E-01 0.452E+01   0.239E-02 -.239E-02 -.182E-01
   -.255E+01 0.255E+01 -.242E+02   0.239E+01 -.239E+01 0.192E+02   0.166E+00 -.166E+00 0.506E+01   -.141E-02 0.141E-02 -.166E-01
   -.120E-04 0.588E-05 0.113E-04   0.373E-11 -.440E-11 -.422E-10   -.244E-18 -.271E-19 -.136E-18   0.109E-05 -.106E-05 -.108E-05
   0.255E+01 -.255E+01 0.242E+02   -.239E+01 0.239E+01 -.192E+02   -.166E+00 0.166E+00 -.506E+01   0.140E-02 -.140E-02 0.166E-01
   -.119E+02 0.119E+02 0.471E+02   0.119E+02 -.119E+02 -.426E+02   0.644E-01 -.644E-01 -.452E+01   -.239E-02 0.239E-02 0.182E-01
   0.119E+02 -.471E+02 -.119E+02   -.119E+02 0.426E+02 0.119E+02   -.644E-01 0.452E+01 0.644E-01   0.239E-02 -.182E-01 -.239E-02
   -.255E+01 -.242E+02 0.255E+01   0.239E+01 0.192E+02 -.239E+01   0.166E+00 0.506E+01 -.166E+00   -.141E-02 -.166E-01 0.141E-02
   -.120E-04 0.113E-04 0.588E-05   0.655E-11 -.404E-10 -.258E-11   0.271E-18 0.271E-19 -.136E-18   0.109E-05 -.108E-05 -.106E-05
   0.255E+01 0.242E+02 -.255E+01   -.239E+01 -.192E+02 0.239E+01   -.166E+00 -.506E+01 0.166E+00   0.140E-02 0.166E-01 -.140E-02
   -.119E+02 0.471E+02 0.119E+02   0.119E+02 -.426E+02 -.119E+02   0.644E-01 -.452E+01 -.644E-01   -.239E-02 0.182E-01 0.239E-02
   -.242E+02 -.255E+01 -.255E+01   0.192E+02 0.239E+01 0.239E+01   0.506E+01 0.166E+00 0.166E+00   -.166E-01 -.140E-02 -.140E-02
   -.471E+02 0.119E+02 0.119E+02   0.426E+02 -.119E+02 -.119E+02   0.452E+01 -.644E-01 -.644E-01   -.182E-01 0.239E-02 0.239E-02
   0.471E+02 -.119E+02 -.119E+02   -.426E+02 0.119E+02 0.119E+02   -.452E+01 0.644E-01 0.644E-01   0.182E-01 -.239E-02 -.239E-02
   0.242E+02 0.255E+01 0.255E+01   -.192E+02 -.239E+01 -.239E+01   -.506E+01 -.166E+00 -.166E+00   0.166E-01 0.141E-02 0.141E-02
   -.154E-04 0.741E-05 0.741E-05   0.121E-10 0.174E-10 0.174E-10   0.881E-19 0.136E-19 0.244E-18   0.108E-05 -.108E-05 -.108E-05
   -.120E-04 -.388E-04 -.388E-04   -.982E-13 0.214E-13 -.495E-14   0.178E-14 -.971E-15 0.250E-14   0.276E-06 0.832E-06 0.832E-06

 POSITION                                       TOTAL-FORCE (eV/Angst)
      3.85915      7.74336      7.74336         0.003366     -0.003366     -0.003366
      3.86414      3.87087      3.87087        -0.000000     -0.000000      0.000000
     -0.01518      7.75019      7.75019        -0.003366      0.003366      0.003366
      0.01644      3.85107      3.85107         0.087712     -0.087712     -0.087712
      7.71185      3.89067      3.89067        -0.087712      0.087712      0.087712
      1.92048      9.68204      9.68204         0.025035     -0.025035     -0.025035
      1.92350      5.81151      5.81151        -0.025035      0.025035      0.025035
      5.79644      5.80607      5.80607        -0.026217      0.026217      0.026217
     -1.94552      5.81302      5.81302        -0.000000     -0.000000      0.000000
      1.93184      1.93566      1.93566         0.026217     -0.026217     -0.026217
      1.92307      5.81195      3.90657         0.001058     -0.001058     -0.007962
      1.92184      9.68068      7.78438         0.003472     -0.003472      0.000633
      1.93039      1.93711      3.87087        -0.000000     -0.000000     -0.000000
      1.92213      5.81288      7.70918        -0.003472      0.003472     -0.000633
      1.92091      9.68161     11.58698        -0.001058      0.001058      0.007962
      1.92307      3.90657      5.81195         0.001058     -0.007962     -0.001058
      1.92184      7.78438      9.68068         0.003472      0.000633     -0.003472
      1.93039      3.87087      1.93711        -0.000000     -0.000000      0.000000
      1.92213      7.70918      5.81288        -0.003472     -0.000633      0.003472
      1.92091     11.58698      9.68161        -0.001058      0.007962      0.001058
      0.02584      5.81288      5.81288         0.000633      0.003472      0.003472
      0.01553      9.68161      9.68161        -0.007962      0.001058      0.001058
      3.82844      5.81195      5.81195         0.007962     -0.001058     -0.001058
      3.81814      9.68068      9.68068        -0.000633     -0.003472     -0.003472
     -0.00336      1.93711      1.93711        -0.000000     -0.000000     -0.000000
    total drift:                               -0.000012     -0.000038     -0.000038

  FREE ENERGIE OF THE ION-ELECTRON SYSTEM (eV)
  free  energy   TOTEN  =      -180.81879187 eV

  energy  without entropy=     -180.81879187  energy(sigma->0) =     -180.81879187

 total charge

[...]

 magnetization (x)

# of ion       s       p       d       f       tot
    1        0.001   0.001   0.009   0.003   0.015
    2        0.001   0.000   0.007   0.003   0.011
    3        0.001   0.001   0.009   0.003   0.015
    4        0.001   0.001   0.008   0.003   0.012
    5        0.001   0.001   0.008   0.003   0.012
    6        0.025   0.037   3.178   0.000   3.241
    7        0.025   0.037   3.178   0.000   3.241
    8        0.014   0.002   1.536   0.000   1.552
    9        0.002  -0.007   1.682   0.000   1.677
   10        0.014   0.002   1.536   0.000   1.552
   11        0.005  -0.017   0.000   0.000  -0.012
   12        0.005  -0.012   0.000   0.000  -0.007
   13        0.007  -0.061   0.000   0.000  -0.055
   14        0.005  -0.012   0.000   0.000  -0.007
   15        0.005  -0.017   0.000   0.000  -0.012
   16        0.004  -0.022   0.000   0.000  -0.018
   17        0.004  -0.024   0.000   0.000  -0.020
   18        0.006  -0.133   0.000   0.000  -0.128
   19        0.004  -0.024   0.000   0.000  -0.020
   20        0.004  -0.022   0.000   0.000  -0.018
   21        0.004  -0.015   0.000   0.000  -0.011
   22        0.005  -0.017   0.000   0.000  -0.013
   23        0.005  -0.017   0.000   0.000  -0.013
   24        0.004  -0.015   0.000   0.000  -0.011
   25        0.006  -0.083   0.000   0.000  -0.077
tot          0.156  -0.417  11.151   0.016  10.906

 BZINTS: Fermi energy:  7.703769;189.000000 electrons
         Band energy:-251.207494;  BLOECHL correction: -0.006284