 vasp.5.4.4.18Apr17-6-g9f103f2a35 (build Oct 03 2018 13:58:34) complex

 executed on             LinuxIFC date 2019.06.04  01:24:25

 INCAR:
 POTCAR:    PAW_PBE La 06Sep2000
 POTCAR:    PAW_PBE Mn 06Sep2000
 POTCAR:    PAW_PBE Ni 02Aug2007
 POTCAR:    PAW_PBE O 08Apr2002

 POTCAR:    PAW_PBE La 06Sep2000
   VRHFIN =La : [core=Kr4d]

   TITEL  = PAW_PBE La 06Sep2000
   POMASS =  138.900; ZVAL   =   11.000    mass and valenz
   ENMAX  =  219.292; ENMIN  =  164.469 eV

 POTCAR:    PAW_PBE Mn 06Sep2000
   VRHFIN =Mn: d6 s1

   TITEL  = PAW_PBE Mn 06Sep2000
   POMASS =   54.938; ZVAL   =    7.000    mass and valenz
   ENMAX  =  269.864; ENMIN  =  202.398 eV

 POTCAR:    PAW_PBE Ni 02Aug2007
   VRHFIN =Ni:

   TITEL  = PAW_PBE Ni 02Aug2007
   POMASS =   58.690; ZVAL   =   10.000    mass and valenz
   ENMAX  =  269.532; ENMIN  =  202.149 eV

 POTCAR:    PAW_PBE O 08Apr2002
   VRHFIN =O: s2p4

   TITEL  = PAW_PBE O 08Apr2002
   POMASS =   16.000; ZVAL   =    6.000    mass and valenz
   ENMAX  =  400.000; ENMIN  =  300.000 eV

 Optimization of the real space projectors (new method)

 maximal supplied QI-value         = 13.42
 optimisation between [QCUT,QGAM] = [ 11.67, 23.35] = [ 38.16,152.62] Ry
 Optimized for a Real-space Cutoff    1.63 Angstroem

   l    n(q)    QCUT    max X(q) W(low)/X(q) W(high)/X(q)  e(spline)
   0     11    11.673    13.882    0.27E-04    0.79E-05    0.11E-06
   0     11    11.673    12.184    0.39E-04    0.13E-04    0.19E-06
   1     11    11.673     4.523    0.73E-05    0.76E-05    0.12E-06
   1     11    11.673     4.424    0.87E-05    0.13E-04    0.19E-06
   2     10    11.673    52.481    0.65E-04    0.36E-04    0.18E-06
   2     10    11.673    38.501    0.61E-04    0.33E-04    0.17E-06
   3     10    11.673    65.631    0.17E-03    0.14E-03    0.37E-06
   3     10    11.673    56.854    0.17E-03    0.14E-03    0.37E-06
 Optimization of the real space projectors (new method)

[...]

   l    n(q)    QCUT    max X(q) W(low)/X(q) W(high)/X(q)  e(spline)
   2      9    11.539    60.317    0.19E-03    0.47E-04    0.16E-06
   2      9    11.539    55.921    0.19E-03    0.48E-04    0.16E-06
   0     10    11.539    51.690    0.80E-04    0.50E-04    0.24E-06
   0     10    11.539    30.015    0.73E-04    0.45E-04    0.22E-06
   1     10    11.539    18.849    0.87E-04    0.16E-03    0.71E-07
   1     10    11.539    14.624    0.73E-04    0.13E-03    0.64E-07
 Optimization of the real space projectors (new method)

 maximal supplied QI-value         = 24.76
 optimisation between [QCUT,QGAM] = [ 11.64, 23.27] = [ 37.91,151.63] Ry
 Optimized for a Real-space Cutoff    1.14 Angstroem

   l    n(q)    QCUT    max X(q) W(low)/X(q) W(high)/X(q)  e(spline)
   0      8    11.635    20.381    0.10E-03    0.33E-03    0.24E-06
   0      8    11.635    15.268    0.11E-03    0.35E-03    0.26E-06
   1      7    11.635     5.964    0.24E-03    0.31E-03    0.30E-06
   1      7    11.635     5.382    0.22E-03    0.25E-03    0.26E-06
  PAW_PBE La 06Sep2000                  :
  PAW_PBE Mn 06Sep2000                  :
  PAW_PBE Ni 02Aug2007                  :
  PAW_PBE O 08Apr2002                   :

 POSCAR: SCEL6_1_2_3_0_0_0/3
  positions in direct lattice
  velocities in cartesian coordinates
 exchange correlation table for  LEXCH =        8
   RHO(1)=    0.500       N(1)  =     2000
   RHO(2)=  100.500       N(2)  =     4000

 ion  position               nearest neighbor table
   1  0.000  0.501  0.333-  27 2.73  21 2.74  21 2.74  29 2.74  17 2.74  17 2.74  23 2.74  23 2.74
                            26 2.75  14 2.75  14 2.75  30 2.75  12 3.35  12 3.35  11 3.36  11 3.36
   2  0.000  0.999  0.667-  25 2.73  22 2.74  22 2.74  29 2.74  13 2.74  13 2.74  20 2.74  20 2.74
                            26 2.75  16 2.75  16 2.75  28 2.75  10 3.35  10 3.35  11 3.36  11 3.36
   3  0.000  0.484  0.000-  28 2.66  30 2.66  18 2.66  18 2.66  21 2.75  19 2.75  19 2.75  21 2.75
                            12 3.30  12 3.30  10 3.30  10 3.30   8 3.43   8 3.43   9 3.43   9 3.43
   4  0.000  0.999  0.333-  27 2.73  24 2.74  24 2.74  29 2.74  17 2.74  17 2.74  20 2.74  20 2.74
                            26 2.75  14 2.75  14 2.75  30 2.75  12 3.35  12 3.35  11 3.36  11 3.36
   5  0.000  0.501  0.667-  25 2.73  19 2.74  19 2.74  29 2.74  13 2.74  13 2.74  23 2.74  23 2.74
                            26 2.75  16 2.75  16 2.75  28 2.75  10 3.35  10 3.35  11 3.36  11 3.36
   6  0.000  0.016  0.000-  28 2.66  30 2.66  18 2.66  18 2.66  24 2.75  22 2.75  22 2.75  24 2.75
                            12 3.30  12 3.30  10 3.30  10 3.30   8 3.43   8 3.43   9 3.43   9 3.43
   7  0.500  0.250  0.500-  14 1.89  16 1.89  20 1.90  23 1.90  26 1.94  26 1.94   4 3.37   5 3.37
                             1 3.37   1 3.37   2 3.37   4 3.37   5 3.37   2 3.37
   8  0.500  0.750  0.834-  13 1.89  19 1.90  22 1.90  15 1.93  25 1.94  25 1.94   2 3.36   2 3.36
                             5 3.36   5 3.36   3 3.43   3 3.43   6 3.43   6 3.43
   9  0.500  0.750  0.166-  17 1.89  21 1.90  24 1.90  15 1.93  27 1.94  27 1.94   1 3.36   1 3.36
                             4 3.36   4 3.36   3 3.43   3 3.43   6 3.43   6 3.43
  10  0.500  0.250  0.832-  28 1.94  28 1.94  18 1.96  16 1.96  19 1.99  22 1.99   3 3.30   3 3.30
                             6 3.30   6 3.30   2 3.35   5 3.35   5 3.35   2 3.35
  11  0.500  0.750  0.500-  29 1.94  29 1.94  20 1.99  23 1.99  13 1.99  17 1.99   4 3.36   5 3.36
                             1 3.36   1 3.36   2 3.36   4 3.36   5 3.36   2 3.36
  12  0.500  0.250  0.168-  30 1.94  30 1.94  18 1.96  14 1.96  21 1.99  24 1.99   3 3.30   3 3.30
                             6 3.30   6 3.30   1 3.35   4 3.35   4 3.35   1 3.35
  13  0.500  0.750  0.671-   8 1.89  11 1.99   2 2.74   5 2.74   2 2.74   5 2.74
  14  0.500  0.250  0.337-   7 1.89  12 1.96   1 2.75   4 2.75   1 2.75   4 2.75
  15  0.500  0.750  0.000-   8 1.93   9 1.93
  16  0.500  0.250  0.663-   7 1.89  10 1.96   2 2.75   5 2.75   2 2.75   5 2.75
  17  0.500  0.750  0.329-   9 1.89  11 1.99   1 2.74   4 2.74   1 2.74   4 2.74
  18  0.500  0.250  0.000-  10 1.96  12 1.96   3 2.66   6 2.66   3 2.66   6 2.66
  19  0.500  0.506  0.833-   8 1.90  10 1.99   5 2.74   5 2.74   3 2.75   3 2.75
  20  0.500  0.006  0.500-   7 1.90  11 1.99   2 2.74   4 2.74   2 2.74   4 2.74
  21  0.500  0.506  0.167-   9 1.90  12 1.99   1 2.74   1 2.74   3 2.75   3 2.75
  22  0.500  0.994  0.833-   8 1.90  10 1.99   2 2.74   2 2.74   6 2.75   6 2.75
  23  0.500  0.494  0.500-   7 1.90  11 1.99   1 2.74   5 2.74   1 2.74   5 2.74
  24  0.500  0.994  0.167-   9 1.90  12 1.99   4 2.74   4 2.74   6 2.75   6 2.75
  25  0.000  0.750  0.833-   8 1.94   8 1.94   2 2.73   5 2.73
  26  0.000  0.250  0.500-   7 1.94   7 1.94   4 2.75   5 2.75   1 2.75   2 2.75
  27  0.000  0.750  0.167-   9 1.94   9 1.94   1 2.73   4 2.73
  28  0.000  0.250  0.834-  10 1.94  10 1.94   3 2.66   6 2.66   5 2.75   2 2.75
  29  0.000  0.750  0.500-  11 1.94  11 1.94   4 2.74   5 2.74   1 2.74   2 2.74
  30  0.000  0.250  0.166-  12 1.94  12 1.94   3 2.66   6 2.66   4 2.75   1 2.75

  LATTYP: Found a simple orthorhombic cell.
 ALAT       =     3.8794706316
 B/A-ratio  =     2.0060912513
 C/A-ratio  =     2.9947557289

  Lattice vectors:

 A1 = (   3.8794706316,   0.0000000000,   0.0000000000)
 A2 = (   0.0000000000,   7.7825720935,   0.0000000000)
 A3 = (   0.0000000000,   0.0000000000,  11.6180668992)

Analysis of symmetry for initial positions (statically):
 Subroutine PRICEL returns:
 Original cell was already a primitive cell.

 Routine SETGRP: Setting up the symmetry group for a
 simple orthorhombic supercell.

 Subroutine GETGRP returns: Found  8 space group operations
 (whereof  4 operations were pure point group operations)
 out of a pool of  8 trial point group operations.

The static configuration has the point symmetry C_2v.
 The point group associated with its full space group is D_2h.

Analysis of symmetry for dynamics (positions and initial velocities):
 Subroutine PRICEL returns:
 Original cell was already a primitive cell.

[...]

The dynamic configuration has the point symmetry C_2v.
 The point group associated with its full space group is D_2h.

Analysis of structural, dynamic, and magnetic symmetry:
 Subroutine PRICEL returns:
 Original cell was already a primitive cell.

 Routine SETGRP: Setting up the symmetry group for a
 simple orthorhombic supercell.

 Subroutine GETGRP returns: Found  8 space group operations
 (whereof  4 operations were pure point group operations)
 out of a pool of  8 trial point group operations.

The magnetic configuration has the point symmetry C_2v.
 The point group associated with its full space group is D_2h.

 Subroutine INISYM returns: Found  8 space group operations
 (whereof  4 operations are pure point group operations),
 and found     1 'primitive' translations

 KPOINTS: Automatic mesh

Automatic generation of k-mesh.
 generate k-points for:    5    3    2
Space group operators:
 irot       det(A)        alpha          n_x          n_y          n_z        tau_x        tau_y        tau_z
    1     1.000000     0.000000     1.000000     0.000000     0.000000     0.000000     0.000000     0.000000
    2    -1.000000   180.000000     0.000000     0.000000     1.000000     0.000000     0.000000     0.000000
    3     1.000000   180.000000     0.000000     1.000000     0.000000     0.000000     0.000000     0.000000
    4    -1.000000   180.000000     1.000000     0.000000     0.000000     0.000000     0.000000     0.000000
    5    -1.000000     0.000000     1.000000     0.000000     0.000000     0.000000     0.500000     0.000000
    6     1.000000   180.000000     0.000000     0.000000     1.000000     0.000000     0.500000     0.000000
    7    -1.000000   180.000000     0.000000     1.000000     0.000000     0.000000     0.500000     0.000000
    8     1.000000   180.000000     1.000000     0.000000     0.000000     0.000000     0.500000     0.000000

 Subroutine IBZKPT returns following result:

 Found     12 irreducible k-points:

 Following reciprocal coordinates:
            Coordinates               Weight
  0.000000  0.000000  0.000000      1.000000
  0.200000  0.000000  0.000000      2.000000
  0.400000  0.000000  0.000000      2.000000
  0.000000  0.333333  0.000000      2.000000
  0.200000  0.333333  0.000000      4.000000
  0.400000  0.333333  0.000000      4.000000
  0.000000  0.000000  0.500000      1.000000
  0.200000  0.000000  0.500000      2.000000
  0.400000  0.000000  0.500000      2.000000
  0.000000  0.333333  0.500000      2.000000
  0.200000  0.333333  0.500000      4.000000
  0.400000  0.333333  0.500000      4.000000

 Following cartesian coordinates:
            Coordinates               Weight
  0.000000  0.000000  0.000000      1.000000
  0.051553  0.000000  0.000000      2.000000
  0.103107  0.000000  0.000000      2.000000
  0.000000  0.042831  0.000000      2.000000
  0.051553  0.042831  0.000000      4.000000
  0.103107  0.042831  0.000000      4.000000
  0.000000  0.000000  0.043036      1.000000
  0.051553  0.000000  0.043036      2.000000
  0.103107  0.000000  0.043036      2.000000
[...]
     30      -7.3576      1.00000
     31      -7.3552      1.00000
     32      -7.3326      1.00000
     33      -7.3131      1.00000
     34      -7.2788      1.00000
     35      -7.2275      1.00000
     36      -7.0490      1.00000
     37      -7.0404      1.00000
     38      -6.9442      1.00000
     39      -6.8864      1.00000
     40      -6.7826      1.00000
     41      -6.7177      1.00000
     42      -6.5775      1.00000
     43       0.4290      1.00000
     44       0.4980      1.00000
     45       0.5509      1.00000
     46       0.8146      1.00000
     47       0.9232      1.00000
     48       1.1847      1.00000
     49       1.1866      1.00000
     50       1.1908      1.00000
     51       1.6071      1.00000
     52       1.9838      1.00000
     53       1.9939      1.00000
     54       1.9977      1.00000
     55       1.9982      1.00000
     56       2.1179      1.00000
     57       2.2480      1.00000
     58       2.3336      1.00000
     59       2.3390      1.00000
     60       2.3464      1.00000
[...]
    132      10.8207      0.00000
    133      10.8559      0.00000
    134      10.9004      0.00000
    135      10.9983      0.00000
    136      11.0146      0.00000
    137      11.0325      0.00000
    138      11.0322      0.00000
    139      11.0543      0.00000
    140      11.0875      0.00000
    141      11.1029      0.00000
    142      11.1185      0.00000
    143      11.1288      0.00000
    144      11.1548      0.00000
    145      11.1713      0.00000
    146      11.1917      0.00000

[...]

 spin component 2

[...]

 k-point    12 :       0.4000    0.3333    0.5000
  band No.  band energies     occupation
      1     -23.8738      1.00000
      2     -23.8559      1.00000
      3     -23.8477      1.00000
      4     -23.8301      1.00000
      5     -23.8068      1.00000
      6     -23.7667      1.00000
      7     -10.9779      1.00000
      8     -10.9496      1.00000
      9     -10.7240      1.00000
     10     -10.6279      1.00000
     11     -10.4486      1.00000
     12     -10.2929      1.00000
     13     -10.2321      1.00000
     14     -10.1697      1.00000
     15     -10.0574      1.00000
     16      -9.9522      1.00000
     17      -9.8460      1.00000
     18      -9.8181      1.00000
     19      -9.6993      1.00000
     20      -9.6190      1.00000
     21      -9.6095      1.00000
     22      -9.4900      1.00000
     23      -9.4212      1.00000
     24      -9.4184      1.00000
     25      -7.8291      1.00000
     26      -7.6033      1.00000
     27      -7.5459      1.00000
     28      -7.5348      1.00000
     29      -7.4909      1.00000
     30      -7.4656      1.00000
     31      -7.4546      1.00000
     32      -7.4242      1.00000
     33      -7.2618      1.00000
     34      -7.2034      1.00000
     35      -7.1308      1.00000
     36      -7.0947      1.00000
     37      -7.0594      1.00000
     38      -7.0441      1.00000
     39      -6.9714      1.00000
     40      -6.9006      1.00000
     41      -6.8407      1.00000
     42      -6.7395      1.00000
     43       1.2565      1.00000
     44       1.6341      1.00000
     45       1.7786      1.00000
     46       1.7917      1.00000
     47       2.0864      1.00000
     48       2.1152      1.00000
     49       2.2003      1.00000
     50       2.3849      1.00000
     51       2.4273      1.00000
     52       2.6429      1.00000
     53       2.6889      1.00000
     54       2.8359      1.00000
     55       2.8856      1.00000
     56       2.8995      1.00000
     57       2.9644      1.00000
     58       3.0930      1.00000
     59       3.1296      1.00000
     60       3.1332      1.00000
[...]
    132      11.0767      0.00000
    133      11.0884      0.00000
    134      11.0972      0.00000
    135      11.1029      0.00000
    136      11.1213      0.00000
    137      11.1324      0.00000
    138      11.1478      0.00000
    139      11.1636      0.00000
    140      11.1860      0.00000
    141      11.1946      0.00000
    142      11.2236      0.00000
    143      11.2418      0.00000
    144      11.2581      0.00000
    145      11.2921      0.00000
    146      11.4583      0.00000

 soft charge-density along one line, spin component           1
         0         1         2         3         4         5         6         7         8         9
 total charge-density along one line

 soft charge-density along one line, spin component           2
         0         1         2         3         4         5         6         7         8         9
 total charge-density along one line

------------------------ aborting loop because EDIFF is reached ----------------------------------------

 total charge

# of ion       s       p       d       f       tot
    1        1.999   5.699   0.488   0.190   8.377
    2        1.999   5.699   0.488   0.190   8.377
    3        2.000   5.698   0.496   0.191   8.386
    4        1.999   5.699   0.488   0.190   8.377
    5        1.999   5.699   0.488   0.190   8.377
    6        2.001   5.698   0.496   0.191   8.386
    7        0.351   0.560   4.873   0.000   5.784
    8        0.348   0.549   4.865   0.000   5.761
    9        0.348   0.549   4.865   0.000   5.761
   10        0.402   0.586   8.325   0.000   9.312
   11        0.394   0.563   8.319   0.000   9.276
   12        0.402   0.586   8.325   0.000   9.312
   13        1.563   3.451   0.000   0.000   5.015
   14        1.561   3.460   0.000   0.000   5.021
   15        1.561   3.464   0.000   0.000   5.025
   16        1.561   3.460   0.000   0.000   5.021
   17        1.563   3.451   0.000   0.000   5.015
   18        1.560   3.450   0.000   0.000   5.010
   19        1.562   3.456   0.000   0.000   5.018
   20        1.562   3.455   0.000   0.000   5.017
   21        1.562   3.456   0.000   0.000   5.018
   22        1.562   3.456   0.000   0.000   5.018
   23        1.562   3.455   0.000   0.000   5.017
   24        1.562   3.456   0.000   0.000   5.018
   25        1.565   3.455   0.000   0.000   5.020
   26        1.565   3.462   0.000   0.000   5.026
   27        1.565   3.455   0.000   0.000   5.020
   28        1.557   3.453   0.000   0.000   5.010
   29        1.555   3.451   0.000   0.000   5.006
   30        1.557   3.453   0.000   0.000   5.010
tot         42.347  99.783  42.515   1.145 185.790

 magnetization (x)

[...]

  FORCE on cell =-STRESS in cart. coord.  units (eV):
  Direction    XX          YY          ZZ          XY          YZ          ZX
  Alpha Z   984.47844   984.47844   984.47844
  Ewald   -5115.77889 -5251.02028 -5144.69552     0.00000     0.00000    -0.00000
  Hartree  1211.07963  1092.37158  1172.65297    -0.00000    -0.00000    -0.00000
  E(xc)   -1046.06390 -1046.54278 -1046.37178    -0.00000     0.00000     0.00000
  Local    -786.67504  -535.82022  -716.45757    -0.00000     0.00000     0.00000
  n-local   416.88539   415.73528   416.32371     0.69080    -0.00122    -0.00125
  augment   490.02104   490.31202   488.25893     0.00000     0.00000    -0.00000
  Kinetic  3846.18238  3850.65233  3845.50007    -1.68776     0.00014     0.00107
  Fock        0.00000     0.00000     0.00000     0.00000     0.00000     0.00000
  Total       0.12904     0.16637    -0.31074     0.00000     0.00000     0.00000
  in kB       0.58941     0.75988    -1.41933     0.00000     0.00000     0.00000

 VOLUME and BASIS-vectors are now :
  energy-cutoff  :      520.00
  volume of cell :      350.78
      direct lattice vectors                 reciprocal lattice vectors
     3.879470632  0.000000000  0.000000000     0.257767127  0.000000000  0.000000000
     0.000000000  7.782572094  0.000000000     0.000000000  0.128492224  0.000000000
     0.000000000  0.000000000 11.618066899     0.000000000  0.000000000  0.086072839

  length of vectors
     3.879470632  7.782572094 11.618066899     0.257767127  0.128492224  0.086072839

 FORCES acting on ions
    electron-ion (+dipol)            ewald-force                    non-local-force                 convergence-correction
   -.683E-14 -.554E+01 -.729E+00   -.489E-13 0.573E+01 0.765E+00   0.271E-19 -.125E+00 0.899E-02   0.906E-14 0.614E-02 0.154E-02
   -.400E-14 0.554E+01 0.729E+00   0.491E-13 -.573E+01 -.765E+00   0.000E+00 0.125E+00 -.899E-02   0.129E-13 -.614E-02 -.154E-02
   0.809E-14 -.126E+03 0.693E-07   0.817E-14 0.125E+03 -.853E-13   0.000E+00 0.124E+01 0.000E+00   0.952E-14 0.440E-01 -.118E-12
   0.357E-14 0.554E+01 -.729E+00   0.328E-13 -.573E+01 0.765E+00   0.000E+00 0.125E+00 0.899E-02   0.133E-13 -.614E-02 0.154E-02
   -.253E-14 -.554E+01 0.729E+00   -.622E-13 0.573E+01 -.765E+00   0.000E+00 -.125E+00 -.899E-02   0.992E-14 0.614E-02 -.154E-02
   0.120E-14 0.126E+03 -.693E-07   0.719E-14 -.125E+03 -.284E-13   0.000E+00 -.124E+01 0.000E+00   0.131E-13 -.440E-01 -.147E-12
   0.613E-13 -.523E-12 0.103E-11   0.146E-13 0.160E-13 0.639E-13   0.000E+00 0.847E-21 0.000E+00   0.133E-13 0.153E-12 0.116E-12
   0.434E-13 0.719E-12 -.336E+02   -.245E-13 0.683E-14 0.334E+02   0.000E+00 -.424E-20 0.191E+00   0.544E-14 -.418E-13 0.119E-01
   0.491E-13 0.344E-12 0.336E+02   0.230E-13 -.263E-13 -.334E+02   0.000E+00 0.000E+00 -.191E+00   0.180E-13 -.702E-13 -.119E-01
   0.324E-12 0.926E-12 0.345E+02   0.145E-13 0.122E-14 -.339E+02   -.424E-21 -.254E-20 -.544E+00   0.687E-13 0.121E-12 -.295E-01
   0.278E-12 0.369E-11 0.243E-11   -.246E-13 -.244E-13 -.711E-13   0.000E+00 0.000E+00 0.000E+00   0.570E-13 -.171E-12 0.220E-12
   0.318E-12 0.113E-11 -.345E+02   -.285E-13 -.611E-13 0.339E+02   0.000E+00 -.847E-21 0.544E+00   0.470E-13 0.172E-12 0.295E-01
   0.115E-12 0.142E-11 -.364E+02   0.181E-14 -.245E-13 0.304E+02   0.000E+00 -.136E-19 0.607E+01   0.273E-13 -.368E-13 -.230E-01
   0.113E-12 0.111E-11 -.435E+02   0.179E-13 -.190E-14 0.388E+02   0.000E+00 0.000E+00 0.480E+01   0.312E-13 0.143E-12 -.113E-01
   0.113E-12 0.188E-11 0.666E-12   -.123E-13 -.190E-13 -.142E-13   0.000E+00 0.542E-19 0.000E+00   0.183E-13 -.294E-13 -.777E-13
   0.122E-12 0.191E-11 0.435E+02   -.610E-14 -.224E-14 -.388E+02   0.000E+00 0.000E+00 -.480E+01   0.118E-13 0.106E-12 0.113E-01
   0.119E-12 0.188E-11 0.364E+02   -.283E-14 0.721E-14 -.304E+02   -.678E-20 -.136E-19 -.607E+01   0.821E-14 -.764E-13 0.230E-01
   0.111E-12 0.162E-11 -.114E-11   -.943E-14 0.333E-13 0.568E-13   0.000E+00 0.000E+00 0.000E+00   0.168E-13 0.102E-12 -.846E-13
   0.115E-12 -.554E+02 -.425E+01   0.298E-13 0.500E+02 0.447E+01   0.000E+00 0.544E+01 -.216E+00   0.126E-13 -.157E-01 -.217E-02
   0.112E-12 -.329E+02 -.557E-06   -.261E-13 0.275E+02 0.355E-13   0.000E+00 0.553E+01 0.000E+00   0.178E-13 -.157E-01 0.135E-12
   0.117E-12 -.554E+02 0.425E+01   0.398E-13 0.500E+02 -.447E+01   0.000E+00 0.544E+01 0.216E+00   0.128E-13 -.157E-01 0.217E-02
   0.108E-12 0.554E+02 -.425E+01   -.450E-13 -.500E+02 0.447E+01   0.000E+00 -.544E+01 -.216E+00   0.195E-13 0.157E-01 -.217E-02
   0.109E-12 0.329E+02 0.557E-06   0.320E-13 -.275E+02 0.000E+00   0.000E+00 -.553E+01 0.000E+00   0.148E-13 0.157E-01 0.120E-12
   0.111E-12 0.554E+02 0.425E+01   -.521E-13 -.500E+02 -.447E+01   0.000E+00 -.544E+01 0.216E+00   0.209E-13 0.157E-01 0.217E-02
   -.221E-14 0.362E-12 -.269E+02   0.173E-13 -.448E-14 0.278E+02   0.000E+00 0.000E+00 -.913E+00   0.330E-14 -.276E-13 0.665E-02
   -.278E-14 0.520E-13 0.340E-12   -.925E-14 0.280E-13 0.142E-13   0.000E+00 0.136E-19 0.000E+00   0.374E-14 0.138E-12 0.103E-12
   -.803E-14 0.212E-12 0.269E+02   0.152E-14 0.109E-14 -.278E+02   0.000E+00 0.000E+00 0.913E+00   0.580E-14 -.570E-13 -.665E-02
   -.598E-14 0.128E-12 0.223E+02   0.800E-14 -.434E-13 -.229E+02   0.000E+00 0.136E-19 0.740E+00   -.474E-14 0.947E-13 -.110E-01
   -.420E-14 0.361E-12 0.364E-12   0.205E-13 -.137E-13 0.320E-13   0.000E+00 -.136E-19 0.000E+00   -.547E-14 -.732E-13 0.117E-12
   -.337E-15 0.913E-13 -.223E+02   0.176E-13 -.295E-13 0.229E+02   0.000E+00 0.407E-19 -.740E+00   -.756E-14 0.122E-12 0.110E-01
   0.242E-11 0.143E-10 0.668E-11   -.163E-13 0.304E-13 0.568E-13   0.199E-19 0.178E-14 -.666E-15   0.484E-12 0.306E-12 0.503E-12

 POSITION                                       TOTAL-FORCE (eV/Angst)
      0.00000      3.89984      3.87154        -0.000000      0.071169      0.046537
      0.00000      7.77402      7.74653         0.000000     -0.071169     -0.046537
      0.00000      3.76853      0.00000        -0.000000     -0.055581     -0.000000
      0.00000      7.77402      3.87154         0.000000     -0.071169      0.046537
      0.00000      3.89984      7.74653        -0.000000      0.071169     -0.046537
      0.00000      0.12275      0.00000        -0.000000      0.055581     -0.000000
      1.93974      1.94564      5.80903        -0.000000      0.000000     -0.000000
      1.93974      5.83693      9.68906        -0.000000      0.000000      0.013396
      1.93974      5.83693      1.92901         0.000000      0.000000     -0.013396
      1.93974      1.94564      9.66227        -0.000000      0.000000     -0.014074
      1.93974      5.83693      5.80903        -0.000000      0.000000     -0.000000
      1.93974      1.94564      1.95579        -0.000000      0.000000      0.014074
      1.93974      5.83693      7.79877         0.000000      0.000000      0.062154
      1.93974      1.94564      3.91575        -0.000000      0.000000      0.013837
      1.93974      5.83693      0.00000        -0.000000      0.000000     -0.000000
      1.93974      1.94564      7.70231        -0.000000      0.000000     -0.013837
      1.93974      5.83693      3.81930         0.000000      0.000000     -0.062154
      1.93974      1.94564      0.00000        -0.000000      0.000000     -0.000000
      1.93974      3.94036      9.67600        -0.000000      0.027366      0.003397
      1.93974      0.04408      5.80903        -0.000000      0.089368     -0.000000
      1.93974      3.94036      1.94207        -0.000000      0.027366     -0.003397
      1.93974      7.73350      9.67600        -0.000000     -0.027366      0.003397
      1.93974      3.84721      5.80903        -0.000000     -0.089368     -0.000000
      1.93974      7.73350      1.94207        -0.000000     -0.027366     -0.003397
      0.00000      5.83693      9.67460        -0.000000      0.000000     -0.034644
      0.00000      1.94564      5.80903        -0.000000      0.000000     -0.000000
      0.00000      5.83693      1.94347        -0.000000      0.000000      0.034644
      0.00000      1.94564      9.68767        -0.000000      0.000000      0.078342
      0.00000      5.83693      5.80903        -0.000000      0.000000     -0.000000
      0.00000      1.94564      1.93040        -0.000000      0.000000     -0.078342
    total drift:                                0.000000      0.000000      0.000000

  FREE ENERGIE OF THE ION-ELECTRON SYSTEM (eV)
  free  energy   TOTEN  =      -220.59936725 eV

  energy  without entropy=     -220.59936725  energy(sigma->0) =     -220.59936725

 total charge

[...]

 magnetization (x)

# of ion       s       p       d       f       tot
    1        0.000   0.001   0.009   0.004   0.013
    2        0.000   0.001   0.009   0.004   0.013
    3        0.000   0.001   0.006   0.003   0.011
    4        0.000   0.001   0.009   0.004   0.013
    5        0.001   0.001   0.009   0.004   0.013
    6        0.000   0.001   0.006   0.003   0.011
    7        0.024   0.030   3.308   0.000   3.362
    8        0.023   0.027   3.328   0.000   3.378
    9        0.023   0.027   3.328   0.000   3.378
   10        0.013   0.006   1.619   0.000   1.638
   11        0.013   0.001   1.667   0.000   1.681
   12        0.013   0.006   1.619   0.000   1.638
   13        0.005  -0.042   0.000   0.000  -0.037
   14        0.004  -0.016   0.000   0.000  -0.011
   15        0.002  -0.008   0.000   0.000  -0.006
   16        0.004  -0.015   0.000   0.000  -0.011
   17        0.005  -0.042   0.000   0.000  -0.037
   18        0.007  -0.036   0.000   0.000  -0.029
   19        0.005  -0.011   0.000   0.000  -0.005
   20        0.005  -0.013   0.000   0.000  -0.008
   21        0.005  -0.011   0.000   0.000  -0.005
   22        0.005  -0.011   0.000   0.000  -0.005
   23        0.005  -0.013   0.000   0.000  -0.008
   24        0.005  -0.011   0.000   0.000  -0.005
   25        0.003  -0.060   0.000   0.000  -0.056
   26        0.003  -0.060   0.000   0.000  -0.057
   27        0.003  -0.060   0.000   0.000  -0.057
   28        0.006  -0.014   0.000   0.000  -0.008
   29        0.006   0.005   0.000   0.000   0.011
   30        0.006  -0.014   0.000   0.000  -0.008
tot          0.198  -0.328  14.916   0.021  14.807

 BZINTS: Fermi energy:  7.594310;225.000000 electrons
         Band energy:-326.653781;  BLOECHL correction: -0.166942