 vasp.5.4.4.18Apr17-6-g9f103f2a35 (build Oct 03 2018 13:58:34) complex

 executed on             LinuxIFC date 2019.06.04  02:06:18

 INCAR:
 POTCAR:    PAW_PBE La 06Sep2000
 POTCAR:    PAW_PBE Mn 06Sep2000
 POTCAR:    PAW_PBE Ni 02Aug2007
 POTCAR:    PAW_PBE O 08Apr2002

 POTCAR:    PAW_PBE La 06Sep2000
   VRHFIN =La : [core=Kr4d]

   TITEL  = PAW_PBE La 06Sep2000
   POMASS =  138.900; ZVAL   =   11.000    mass and valenz
   ENMAX  =  219.292; ENMIN  =  164.469 eV

 POTCAR:    PAW_PBE Mn 06Sep2000
   VRHFIN =Mn: d6 s1

   TITEL  = PAW_PBE Mn 06Sep2000
   POMASS =   54.938; ZVAL   =    7.000    mass and valenz
   ENMAX  =  269.864; ENMIN  =  202.398 eV

 POTCAR:    PAW_PBE Ni 02Aug2007
   VRHFIN =Ni:

   TITEL  = PAW_PBE Ni 02Aug2007
   POMASS =   58.690; ZVAL   =   10.000    mass and valenz
   ENMAX  =  269.532; ENMIN  =  202.149 eV

 POTCAR:    PAW_PBE O 08Apr2002
   VRHFIN =O: s2p4

   TITEL  = PAW_PBE O 08Apr2002
   POMASS =   16.000; ZVAL   =    6.000    mass and valenz
   ENMAX  =  400.000; ENMIN  =  300.000 eV

 Optimization of the real space projectors (new method)

 maximal supplied QI-value         = 13.42
 optimisation between [QCUT,QGAM] = [ 11.67, 23.35] = [ 38.16,152.62] Ry
 Optimized for a Real-space Cutoff    1.63 Angstroem

   l    n(q)    QCUT    max X(q) W(low)/X(q) W(high)/X(q)  e(spline)
   0     11    11.673    13.882    0.27E-04    0.79E-05    0.11E-06
   0     11    11.673    12.184    0.39E-04    0.13E-04    0.19E-06
   1     11    11.673     4.523    0.73E-05    0.76E-05    0.12E-06
   1     11    11.673     4.424    0.87E-05    0.13E-04    0.19E-06
   2     10    11.673    52.481    0.65E-04    0.36E-04    0.18E-06
   2     10    11.673    38.501    0.61E-04    0.33E-04    0.17E-06
   3     10    11.673    65.631    0.17E-03    0.14E-03    0.37E-06
   3     10    11.673    56.854    0.17E-03    0.14E-03    0.37E-06
 Optimization of the real space projectors (new method)

[...]

   l    n(q)    QCUT    max X(q) W(low)/X(q) W(high)/X(q)  e(spline)
   2      9    11.539    60.317    0.19E-03    0.47E-04    0.16E-06
   2      9    11.539    55.921    0.19E-03    0.48E-04    0.16E-06
   0     10    11.539    51.690    0.80E-04    0.50E-04    0.24E-06
   0     10    11.539    30.015    0.73E-04    0.45E-04    0.22E-06
   1     10    11.539    18.849    0.87E-04    0.16E-03    0.71E-07
   1     10    11.539    14.624    0.73E-04    0.13E-03    0.64E-07
 Optimization of the real space projectors (new method)

 maximal supplied QI-value         = 24.76
 optimisation between [QCUT,QGAM] = [ 11.64, 23.27] = [ 37.91,151.63] Ry
 Optimized for a Real-space Cutoff    1.14 Angstroem

   l    n(q)    QCUT    max X(q) W(low)/X(q) W(high)/X(q)  e(spline)
   0      8    11.635    20.381    0.10E-03    0.33E-03    0.24E-06
   0      8    11.635    15.268    0.11E-03    0.35E-03    0.26E-06
   1      7    11.635     5.964    0.24E-03    0.31E-03    0.30E-06
   1      7    11.635     5.382    0.22E-03    0.25E-03    0.26E-06
  PAW_PBE La 06Sep2000                  :
  PAW_PBE Mn 06Sep2000                  :
  PAW_PBE Ni 02Aug2007                  :
  PAW_PBE O 08Apr2002                   :

 POSCAR: SCEL4_2_1_2_0_1_1/1
  positions in direct lattice
  velocities in cartesian coordinates
 exchange correlation table for  LEXCH =        8
   RHO(1)=    0.500       N(1)  =     2000
   RHO(2)=  100.500       N(2)  =     4000

 ion  position               nearest neighbor table
   1  0.250  0.250  0.500-   9 2.74  11 2.74  11 2.74   9 2.74  13 2.75  16 2.75  18 2.75  19 2.75
                            17 2.75  20 2.75  15 2.75  14 2.75   7 3.36   8 3.36   8 3.36   7 3.36
   2  0.500  0.500  0.000-  13 2.74  14 2.74  18 2.74  19 2.74  17 2.74  20 2.74  15 2.74  16 2.74
                            10 2.74  12 2.74  12 2.74  10 2.74   6 3.35   5 3.35   6 3.35   5 3.35
   3  0.750  0.750  0.500-   9 2.74  11 2.74   9 2.74  11 2.74  14 2.75  15 2.75  18 2.75  19 2.75
                            17 2.75  20 2.75  13 2.75  16 2.75   7 3.36   8 3.36   7 3.36   8 3.36
   4  0.000  0.000  0.000-  15 2.74  16 2.74  18 2.74  19 2.74  17 2.74  20 2.74  13 2.74  14 2.74
                            10 2.74  12 2.74  12 2.74  10 2.74   6 3.35   5 3.35   6 3.35   5 3.35
   5  0.624  0.124  0.247-  10 1.88  20 1.90  16 1.90  14 1.90  18 1.90   9 1.96   2 3.35   4 3.35
                             2 3.35   4 3.35   1 3.37   3 3.37   3 3.37   1 3.37
   6  0.876  0.376  0.753-  12 1.88  17 1.90  15 1.90  13 1.90  19 1.90   9 1.96   2 3.35   4 3.35
                             2 3.35   4 3.35   3 3.37   1 3.37   3 3.37   1 3.37
   7  0.125  0.625  0.251-  11 1.93  12 1.98  14 1.98  16 1.98  18 1.98  20 1.98   1 3.36   3 3.36
                             3 3.36   1 3.36   4 3.36   2 3.36   2 3.36   4 3.36
   8  0.375  0.875  0.749-  11 1.93  10 1.98  13 1.98  15 1.98  17 1.98  19 1.98   1 3.36   3 3.36
                             1 3.36   3 3.36   4 3.36   2 3.36   2 3.36   4 3.36
   9  0.750  0.250  0.500-   5 1.96   6 1.96   1 2.74   3 2.74   3 2.74   1 2.74
  10  0.502  0.002  0.004-   5 1.88   8 1.98   2 2.74   4 2.74   2 2.74   4 2.74
  11  0.250  0.750  0.500-   7 1.93   8 1.93   1 2.74   3 2.74   1 2.74   3 2.74
  12  0.998  0.498  0.996-   6 1.88   7 1.98   2 2.74   4 2.74   2 2.74   4 2.74
  13  0.120  0.131  0.751-   6 1.90   8 1.98   2 2.74   4 2.74   1 2.75   3 2.75
  14  0.869  0.880  0.249-   5 1.90   7 1.98   2 2.74   4 2.74   3 2.75   1 2.75
  15  0.631  0.620  0.751-   6 1.90   8 1.98   4 2.74   2 2.74   3 2.75   1 2.75
  16  0.380  0.369  0.249-   5 1.90   7 1.98   4 2.74   2 2.74   1 2.75   3 2.75
  17  0.631  0.131  0.751-   6 1.90   8 1.98   2 2.74   4 2.74   3 2.75   1 2.75
  18  0.380  0.880  0.249-   5 1.90   7 1.98   2 2.74   4 2.74   3 2.75   1 2.75
  19  0.120  0.620  0.751-   6 1.90   8 1.98   2 2.74   4 2.74   3 2.75   1 2.75
  20  0.869  0.369  0.249-   5 1.90   7 1.98   2 2.74   4 2.74   3 2.75   1 2.75

  LATTYP: Found a body centered tetragonal cell.
 ALAT       =     5.4866608379
 C/A-ratio  =     2.8255709652

  Lattice vectors:

 A1 = (   0.0000000000,  -3.8796550846,   7.7514747798)
 A2 = (   0.0000000000,   3.8796550846,   7.7514747798)
 A3 = (  -3.8796550846,   0.0000000000,  -7.7514747798)

Analysis of symmetry for initial positions (statically):
 Subroutine PRICEL returns:
 Original cell was already a primitive cell.

 Routine SETGRP: Setting up the symmetry group for a
 body centered tetragonal supercell.

 Subroutine GETGRP returns: Found 16 space group operations
 (whereof  8 operations were pure point group operations)
 out of a pool of 16 trial point group operations.

The static configuration has the point symmetry D_2d.
 The point group associated with its full space group is D_4h.

Analysis of symmetry for dynamics (positions and initial velocities):
 Subroutine PRICEL returns:
 Original cell was already a primitive cell.

[...]

The dynamic configuration has the point symmetry D_2d.
 The point group associated with its full space group is D_4h.

Analysis of structural, dynamic, and magnetic symmetry:
 Subroutine PRICEL returns:
 Original cell was already a primitive cell.

 Routine SETGRP: Setting up the symmetry group for a
 body centered tetragonal supercell.

 Subroutine GETGRP returns: Found 16 space group operations
 (whereof  8 operations were pure point group operations)
 out of a pool of 16 trial point group operations.

The magnetic configuration has the point symmetry D_2d.
 The point group associated with its full space group is D_4h.

 Subroutine INISYM returns: Found 16 space group operations
 (whereof  8 operations are pure point group operations),
 and found     1 'primitive' translations

 KPOINTS: Automatic mesh

Automatic generation of k-mesh.
 generate k-points for:    4    4    3
Space group operators:
 irot       det(A)        alpha          n_x          n_y          n_z        tau_x        tau_y        tau_z
    1     1.000000     0.000000     1.000000     0.000000     0.000000     0.000000     0.000000     0.000000
    2    -1.000000    90.000000     0.000000     0.000000    -1.000000     0.000000     0.000000     0.000000
    3     1.000000   180.000000     0.000000     0.000000     1.000000     0.000000     0.000000     0.000000
    4    -1.000000    90.000000     0.000000     0.000000     1.000000     0.000000     0.000000     0.000000
    5    -1.000000   180.000000     0.707107     0.707107     0.000000     0.000000     0.000000     0.000000
    6     1.000000   180.000000     1.000000     0.000000     0.000000     0.000000     0.000000     0.000000
    7    -1.000000   180.000000     0.707107    -0.707107     0.000000     0.000000     0.000000     0.000000
    8     1.000000   180.000000     0.000000     1.000000     0.000000     0.000000     0.000000     0.000000
    9    -1.000000     0.000000     1.000000     0.000000     0.000000     0.500000     0.500000     1.000000
   10     1.000000    90.000000     0.000000     0.000000    -1.000000     0.500000     0.500000     1.000000
   11    -1.000000   180.000000     0.000000     0.000000     1.000000     0.500000     0.500000     1.000000
   12     1.000000    90.000000     0.000000     0.000000     1.000000     0.500000     0.500000     1.000000
   13     1.000000   180.000000     0.707107     0.707107     0.000000     0.500000     0.500000     1.000000
   14    -1.000000   180.000000     1.000000     0.000000     0.000000     0.500000     0.500000     1.000000
   15     1.000000   180.000000     0.707107    -0.707107     0.000000     0.500000     0.500000     1.000000
   16    -1.000000   180.000000     0.000000     1.000000     0.000000     0.500000     0.500000     1.000000

 Subroutine IBZKPT returns following result:

 Found     17 irreducible k-points:

 Following reciprocal coordinates:
            Coordinates               Weight
  0.000000  0.000000  0.000000      1.000000
  0.250000  0.000000  0.000000      4.000000
  0.500000  0.000000  0.000000      2.000000
  0.250000  0.250000  0.000000      2.000000
  0.500000  0.250000  0.000000      4.000000
 -0.250000  0.250000  0.000000      2.000000
  0.500000  0.500000  0.000000      1.000000
  0.000000  0.000000  0.333333      2.000000
  0.250000  0.000000  0.333333      4.000000
  0.500000  0.000000  0.333333      4.000000
 -0.250000  0.000000  0.333333      4.000000
  0.250000  0.250000  0.333333      2.000000
  0.500000  0.250000  0.333333      4.000000
 -0.250000  0.250000  0.333333      4.000000
  0.500000  0.500000  0.333333      2.000000
 -0.250000  0.500000  0.333333      4.000000
 -0.250000 -0.250000  0.333333      2.000000

 Following cartesian coordinates:
            Coordinates               Weight
  0.000000  0.000000  0.000000      1.000000
  0.032219 -0.032219  0.016126      4.000000
  0.064439 -0.064439  0.032252      2.000000
  0.064439  0.000000  0.032252      2.000000
  0.096658 -0.032219  0.048378      4.000000
  0.000000  0.064439  0.000000      2.000000
  0.128877  0.000000  0.064504      1.000000
  0.000000  0.000000  0.043003      2.000000
  0.032219 -0.032219  0.059129      4.000000
  0.064439 -0.064439  0.075254      4.000000
 -0.032219  0.032219  0.026877      4.000000
[...]
  0.6423  0.5929

[...]

--------------------------------------- Iteration      1(  18)  ---------------------------------------

atom =   1  type =  1  l = 0

[...]

  o =  0.7859  v =  0.0000  1.0000      0.0000  0.0000
  o =  0.7906  v =  1.0000  0.0000      0.0000  0.0000
atom =  20  type =  4  l = 0

 onsite density matrix

[...]

  0.7859

 occupancies and eigenvectors

  o =  0.7859  v =  0.0000  1.0000      0.0000  0.0000
  o =  0.7906  v =  1.0000  0.0000      0.0000  0.0000
 BZINTS: Fermi energy:  7.570685;150.000000 electrons
         Band energy:-214.908929;  BLOECHL correction:  0.000000

 eigenvalue-minimisations  :  6886
 total energy-change (2. order) :-0.8888534E-03  (-0.9608921E-03)
 number of electron     149.9999965 magnetization       9.9998437
 augmentation part       19.3670278 magnetization       7.4868706

 Free energy of the ion-electron system (eV)
  alpha Z        PSCENC =       657.73752131
  Ewald energy   TEWEN  =    -10368.89554606
  -Hartree energ DENC   =     -2294.79922091
  -exchange      EXHF   =         0.00000000
  -V(xc)+E(xc)   XCENC  =       511.34827874
  PAW double counting   =     12443.59982884   -12522.49414792
  entropy T*S    EENTRO =         0.00000000
  eigenvalues    EBANDS =      -214.90892858
  atomic energy  EATOM  =     11641.04254247
  Solvation  Ediel_sol  =         0.00000000
  free energy    TOTEN  =      -147.36967212 eV

  energy without entropy =     -147.36967212  energy(sigma->0) =     -147.36967212

 average (electrostatic) potential at core
  the test charge radii are     1.1480  1.0210  0.9791  0.7215
  (the norm of the test charge is              1.0000)
       1 -95.3966       2 -95.4319       3 -95.3966       4 -95.4319       5 -43.2612
       6 -43.2612       7 -83.5320       8 -83.5320       9 -67.1052      10 -67.0206
      11 -66.1681      12 -67.0206      13 -66.8412      14 -66.8412      15 -66.8412
      16 -66.8412      17 -66.8412      18 -66.8412      19 -66.8412      20 -66.8412

 E-fermi :   7.5707     XC(G=0): -11.7442     alpha+bet :-16.5722

[...]

 k-point     1 :       0.0000    0.0000    0.0000
  band No.  band energies     occupation
      1     -23.9344      1.00000
      2     -23.8532      1.00000
      3     -23.8056      1.00000
      4     -23.7598      1.00000
      5     -11.2976      1.00000
      6     -10.8820      1.00000
      7     -10.0539      1.00000
      8     -10.0539      1.00000
      9     -10.0308      1.00000
     10     -10.0200      1.00000
     11     -10.0200      1.00000
     12      -9.9774      1.00000
     13      -9.7081      1.00000
     14      -9.5919      1.00000
     15      -9.5421      1.00000
     16      -9.2190      1.00000
     17      -7.6204      1.00000
     18      -7.5776      1.00000
     19      -7.4426      1.00000
     20      -7.4426      1.00000
     21      -7.4340      1.00000
     22      -7.4098      1.00000
     23      -7.4098      1.00000
     24      -7.4049      1.00000
     25      -7.4049      1.00000
     26      -7.2926      1.00000
     27      -7.2926      1.00000
     28      -6.5857      1.00000
     29       0.2372      1.00000
     30       0.4869      1.00000
     31       0.4872      1.00000
     32       0.6111      1.00000
     33       1.0926      1.00000
     34       1.4040      1.00000
     35       1.4197      1.00000
     36       1.7559      1.00000
     37       1.7648      1.00000
     38       1.7648      1.00000
     39       1.8071      1.00000
     40       1.8071      1.00000
     41       2.0909      1.00000
     42       2.3315      1.00000
     43       2.3315      1.00000
     44       2.8173      1.00000
     45       2.8247      1.00000
     46       2.8247      1.00000
     47       2.8383      1.00000
     48       3.0447      1.00000
     49       3.0447      1.00000
     50       3.3474      1.00000
     51       3.3500      1.00000
     52       3.3500      1.00000
     53       4.2031      1.00000
     54       4.2084      1.00000
     55       4.2131      1.00000
     56       4.3116      1.00000
     57       4.3789      1.00000
     58       5.3184      1.00000
     59       5.3184      1.00000
     60       5.3797      1.00000
[...]
     84      10.2159      0.00000
     85      10.8141      0.00000
     86      10.8515      0.00000
     87      10.9025      0.00000
     88      10.9298      0.00000
     89      10.9884      0.00000
     90      11.0257      0.00000
     91      11.0562      0.00000
     92      11.1052      0.00000
     93      11.1114      0.00000
     94      11.1477      0.00000
     95      11.1661      0.00000
     96      11.1860      0.00000
     97      11.2038      0.00000
     98      11.3132      0.00000

[...]

 spin component 2

[...]

 k-point    17 :      -0.2500   -0.2500    0.3333
  band No.  band energies     occupation
      1     -23.8949      1.00000
      2     -23.8256      1.00000
      3     -23.8216      1.00000
      4     -23.7801      1.00000
      5     -11.0630      1.00000
      6     -10.9321      1.00000
      7     -10.6999      1.00000
      8     -10.4889      1.00000
      9      -9.9995      1.00000
     10      -9.9835      1.00000
     11      -9.9723      1.00000
     12      -9.6691      1.00000
     13      -9.5903      1.00000
     14      -9.5145      1.00000
     15      -9.4642      1.00000
     16      -9.0558      1.00000
     17      -7.6638      1.00000
     18      -7.5837      1.00000
     19      -7.3731      1.00000
     20      -7.3557      1.00000
     21      -7.2493      1.00000
     22      -7.1940      1.00000
     23      -7.1095      1.00000
     24      -7.0997      1.00000
     25      -7.0221      1.00000
     26      -6.9997      1.00000
     27      -6.8639      1.00000
     28      -6.7749      1.00000
     29       1.7322      1.00000
     30       1.8797      1.00000
     31       2.1764      1.00000
     32       2.4997      1.00000
     33       2.5323      1.00000
     34       2.5530      1.00000
     35       2.8626      1.00000
     36       2.9659      1.00000
     37       3.0208      1.00000
     38       3.0778      1.00000
     39       3.1552      1.00000
     40       3.2728      1.00000
     41       3.2733      1.00000
     42       3.3471      1.00000
     43       3.3920      1.00000
     44       3.5993      1.00000
     45       3.7532      1.00000
     46       3.7593      1.00000
     47       3.8384      1.00000
     48       4.2022      1.00000
     49       4.3496      1.00000
     50       4.4940      1.00000
     51       4.5762      1.00000
     52       4.8820      1.00000
     53       4.8869      1.00000
     54       4.9500      1.00000
     55       5.4238      1.00000
     56       5.4607      1.00000
     57       5.5444      1.00000
     58       5.5909      1.00000
     59       5.6961      1.00000
     60       5.7667      1.00000
[...]
     84      10.9965      0.00000
     85      11.0329      0.00000
     86      11.0533      0.00000
     87      11.0791      0.00000
     88      11.0903      0.00000
     89      11.1030      0.00000
     90      11.1153      0.00000
     91      11.1460      0.00000
     92      11.1559      0.00000
     93      11.1788      0.00000
     94      11.1869      0.00000
     95      11.2048      0.00000
     96      11.2689      0.00000
     97      11.2778      0.00000
     98      11.3155      0.00000

 soft charge-density along one line, spin component           1
         0         1         2         3         4         5         6         7         8         9
 total charge-density along one line

 soft charge-density along one line, spin component           2
         0         1         2         3         4         5         6         7         8         9
 total charge-density along one line

------------------------ aborting loop because EDIFF is reached ----------------------------------------

 total charge

# of ion       s       p       d       f       tot
    1        1.998   5.699   0.482   0.192   8.372
    2        1.999   5.700   0.491   0.192   8.382
    3        1.999   5.698   0.490   0.187   8.374
    4        1.999   5.700   0.491   0.192   8.382
    5        0.360   0.580   4.861   0.000   5.801
    6        0.360   0.580   4.861   0.000   5.801
    7        0.386   0.557   8.326   0.000   9.269
    8        0.386   0.557   8.326   0.000   9.269
    9        1.561   3.468   0.000   0.000   5.029
   10        1.562   3.457   0.000   0.000   5.019
   11        1.554   3.458   0.000   0.000   5.012
   12        1.562   3.457   0.000   0.000   5.019
   13        1.561   3.459   0.000   0.000   5.020
   14        1.561   3.460   0.000   0.000   5.021
   15        1.561   3.460   0.000   0.000   5.021
   16        1.561   3.459   0.000   0.000   5.020
   17        1.561   3.459   0.000   0.000   5.021
   18        1.561   3.459   0.000   0.000   5.021
   19        1.561   3.459   0.000   0.000   5.021
   20        1.561   3.459   0.000   0.000   5.021
tot         28.214  66.585  28.330   0.763 123.893

 magnetization (x)

[...]

  FORCE on cell =-STRESS in cart. coord.  units (eV):
  Direction    XX          YY          ZZ          XY          YZ          ZX
  Alpha Z   657.73752   657.73752   657.73752
  Ewald   -3463.56632 -3463.56632 -3441.79081     0.00000    -0.00000    -0.00000
  Hartree   758.54858   758.54857   777.32279    -0.00000    -0.00000    -0.00001
  E(xc)    -697.60009  -697.60008  -697.38860     0.00000     0.00000    -0.00002
  Local    -424.80912  -424.80926  -464.05213    -0.00000    -0.00000    -0.00042
  n-local   277.05697   277.06653   277.67942     0.93036     0.08736    -0.00094
  augment   327.01138   327.01229   327.04853     0.00000     0.00000     0.00107
  Kinetic  2565.73549  2565.73253  2563.64609     7.35001    -0.20766     0.00326
  Fock        0.00000     0.00000     0.00000     0.00000     0.00000     0.00000
  Total       0.11809     0.11809     0.20281     0.00000     0.00000     0.00000
  in kB       0.81083     0.81083     1.39249     0.00000     0.00000     0.00000

 VOLUME and BASIS-vectors are now :
  energy-cutoff  :      520.00
  volume of cell :      233.35
      direct lattice vectors                 reciprocal lattice vectors
     3.879655085 -3.879655085  0.000000000     0.128877436 -0.128877436  0.064503854
     3.879655085  3.879655085  0.000000000     0.128877436  0.128877436  0.064503854
    -3.879655085  0.000000000  7.751474780     0.000000000  0.000000000  0.129007709

  length of vectors
     5.486660838  5.486660838  8.668165021     0.193337876  0.193337876  0.129007709

 FORCES acting on ions
    electron-ion (+dipol)            ewald-force                    non-local-force                 convergence-correction
   0.208E-12 0.160E-11 -.860E-12   -.361E-13 0.142E-13 -.995E-13   0.271E-19 0.000E+00 0.244E-18   -.995E-14 0.143E-14 -.105E-12
   0.143E-11 -.201E-05 -.135E-11   -.214E-13 0.142E-12 -.426E-13   -.434E-18 0.217E-18 0.000E+00   0.394E-13 -.702E-08 0.103E-12
   0.227E-11 0.222E-11 0.467E-11   -.780E-13 0.000E+00 -.853E-13   0.271E-19 -.203E-19 -.217E-18   0.384E-13 0.174E-13 -.107E-12
   0.313E-12 0.201E-05 0.317E-12   -.522E-14 -.135E-12 0.142E-13   0.434E-18 -.217E-18 0.000E+00   0.111E-13 0.702E-08 0.870E-13
   -.180E-04 0.110E-11 -.203E+02   -.568E-13 -.384E-15 0.197E+02   -.694E-17 0.000E+00 0.452E+00   -.182E-06 -.148E-13 0.303E-03
   0.180E-04 -.152E-11 0.203E+02   -.510E-13 0.326E-13 -.197E+02   0.520E-17 0.000E+00 -.452E+00   0.182E-06 -.221E-13 -.303E-03
   -.539E-04 0.916E-12 0.120E+02   0.853E-13 -.734E-15 -.939E+01   -.694E-16 0.000E+00 -.256E+01   -.667E-06 -.118E-13 -.180E-01
   0.539E-04 -.479E-12 -.120E+02   -.734E-13 -.903E-14 0.939E+01   0.555E-16 0.000E+00 0.256E+01   0.667E-06 0.249E-13 0.180E-01
   0.431E-12 0.249E-12 0.206E-11   -.107E-13 -.978E-16 0.284E-13   -.102E-19 -.339E-20 0.000E+00   -.276E-13 -.228E-13 -.459E-13
   -.319E-04 -.228E-11 -.265E+02   -.568E-13 -.145E-13 0.204E+02   -.167E-15 0.000E+00 0.618E+01   -.183E-06 0.182E-13 -.196E-01
   0.460E-12 0.121E-12 -.137E-12   0.107E-13 -.735E-15 0.924E-13   0.932E-20 -.176E-19 0.000E+00   -.564E-14 0.307E-13 -.134E-12
   0.319E-04 0.280E-12 0.265E+02   0.462E-13 0.223E-13 -.204E+02   0.139E-15 0.000E+00 -.618E+01   0.183E-06 0.177E-13 0.196E-01
   0.104E-05 -.298E+02 0.389E+01   0.564E-14 0.244E+02 -.432E+01   0.382E-16 0.549E+01 0.447E+00   -.257E-08 -.180E-01 0.359E-02
   -.104E-05 -.298E+02 -.389E+01   0.355E-13 0.244E+02 0.432E+01   -.226E-16 0.549E+01 -.447E+00   0.257E-08 -.180E-01 -.359E-02
   0.104E-05 0.298E+02 0.389E+01   0.276E-13 -.244E+02 -.432E+01   0.226E-16 -.549E+01 0.447E+00   -.257E-08 0.180E-01 0.359E-02
   -.104E-05 0.298E+02 -.389E+01   0.799E-14 -.244E+02 0.432E+01   -.364E-16 -.549E+01 -.447E+00   0.257E-08 0.180E-01 -.359E-02
   -.298E+02 -.817E-12 0.389E+01   0.244E+02 -.949E-14 -.432E+01   0.549E+01 0.000E+00 0.447E+00   -.180E-01 0.868E-14 0.359E-02
   -.298E+02 -.250E-12 -.389E+01   0.244E+02 -.440E-14 0.432E+01   0.549E+01 0.000E+00 -.447E+00   -.180E-01 -.240E-13 -.359E-02
   0.298E+02 0.782E-13 0.389E+01   -.244E+02 -.190E-13 -.432E+01   -.549E+01 0.000E+00 0.447E+00   0.180E-01 0.440E-14 0.359E-02
   0.298E+02 0.734E-12 -.389E+01   -.244E+02 -.109E-13 0.432E+01   -.549E+01 0.000E+00 -.447E+00   0.180E-01 -.120E-13 -.359E-02
   0.316E-11 0.278E-12 0.347E-10   -.284E-13 -.260E-13 -.622E-14   0.444E-14 -.178E-14 -.833E-15   0.421E-13 0.844E-13 -.755E-13

 POSITION                                       TOTAL-FORCE (eV/Angst)
      0.00000      0.00000      3.87574         0.000000     -0.000000     -0.000000
      3.87966      0.00000      0.00000         0.000000     -0.000000     -0.000000
      3.87966      0.00000      3.87574         0.000000     -0.000000     -0.000000
      0.00000      0.00000      0.00000         0.000000     -0.000000     -0.000000
      1.93983     -1.93983      1.91839         0.000000     -0.000000     -0.099528
      1.93983     -1.93983      5.83308         0.000000     -0.000000      0.099528
      1.93983      1.93983      1.94432         0.000000     -0.000000      0.001394
      1.93983      1.93983      5.80715         0.000000     -0.000000     -0.001394
      1.93983     -1.93983      3.87574         0.000000     -0.000000     -0.000000
      1.93983     -1.93983      0.03355         0.000000     -0.000000      0.067909
      1.93983      1.93983      3.87574         0.000000     -0.000000     -0.000000
      1.93983     -1.93983      7.71792        -0.000000     -0.000000     -0.067909
     -1.93983      0.04381      5.82256         0.000000      0.041165      0.018057
      5.81948      0.04381      1.92891         0.000000      0.041165     -0.018057
      1.93983     -0.04381      5.82256         0.000000     -0.041165      0.018057
      1.93983     -0.04381      1.92891         0.000000     -0.041165     -0.018057
      0.04381     -1.93983      5.82256         0.041165     -0.000000      0.018057
      3.92347      1.93983      1.92891         0.041165     -0.000000     -0.018057
     -0.04381      1.93983      5.82256        -0.041165     -0.000000      0.018057
      3.83584     -1.93983      1.92891        -0.041165     -0.000000     -0.018057
    total drift:                                0.000000      0.000000      0.000000

  FREE ENERGIE OF THE ION-ELECTRON SYSTEM (eV)
  free  energy   TOTEN  =      -147.36967212 eV

  energy  without entropy=     -147.36967212  energy(sigma->0) =     -147.36967212

 total charge

[...]

 magnetization (x)

# of ion       s       p       d       f       tot
    1        0.000   0.000   0.006   0.002   0.009
    2        0.001   0.001   0.009   0.004   0.015
    3        0.000   0.001   0.006   0.002   0.009
    4        0.001   0.001   0.009   0.004   0.015
    5        0.024   0.035   3.176   0.000   3.234
    6        0.024   0.035   3.176   0.000   3.234
    7        0.006  -0.002   1.692   0.000   1.696
    8        0.006  -0.002   1.692   0.000   1.696
    9        0.002  -0.014   0.000   0.000  -0.012
   10        0.004  -0.037   0.000   0.000  -0.034
   11        0.006   0.035   0.000   0.000   0.041
   12        0.004  -0.037   0.000   0.000  -0.034
   13        0.005  -0.006   0.000   0.000  -0.002
   14        0.005  -0.005   0.000   0.000   0.000
   15        0.005  -0.005   0.000   0.000   0.000
   16        0.005  -0.006   0.000   0.000  -0.002
   17        0.005  -0.005   0.000   0.000  -0.001
   18        0.005  -0.006   0.000   0.000  -0.001
   19        0.005  -0.006   0.000   0.000  -0.001
   20        0.005  -0.005   0.000   0.000  -0.001
tot          0.114  -0.028   9.767   0.012   9.865

 BZINTS: Fermi energy:  7.570685;150.000000 electrons
         Band energy:-214.908929;  BLOECHL correction:  0.000000