 vasp.5.4.4.18Apr17-6-g9f103f2a35 (build Oct 03 2018 13:58:34) complex

 executed on             LinuxIFC date 2019.06.04  01:00:51

 INCAR:
 POTCAR:    PAW_PBE La 06Sep2000
 POTCAR:    PAW_PBE Mn 06Sep2000
 POTCAR:    PAW_PBE Ni 02Aug2007
 POTCAR:    PAW_PBE O 08Apr2002

 POTCAR:    PAW_PBE La 06Sep2000
   VRHFIN =La : [core=Kr4d]

   TITEL  = PAW_PBE La 06Sep2000
   POMASS =  138.900; ZVAL   =   11.000    mass and valenz
   ENMAX  =  219.292; ENMIN  =  164.469 eV

 POTCAR:    PAW_PBE Mn 06Sep2000
   VRHFIN =Mn: d6 s1

   TITEL  = PAW_PBE Mn 06Sep2000
   POMASS =   54.938; ZVAL   =    7.000    mass and valenz
   ENMAX  =  269.864; ENMIN  =  202.398 eV

 POTCAR:    PAW_PBE Ni 02Aug2007
   VRHFIN =Ni:

   TITEL  = PAW_PBE Ni 02Aug2007
   POMASS =   58.690; ZVAL   =   10.000    mass and valenz
   ENMAX  =  269.532; ENMIN  =  202.149 eV

 POTCAR:    PAW_PBE O 08Apr2002
   VRHFIN =O: s2p4

   TITEL  = PAW_PBE O 08Apr2002
   POMASS =   16.000; ZVAL   =    6.000    mass and valenz
   ENMAX  =  400.000; ENMIN  =  300.000 eV

 Optimization of the real space projectors (new method)

 maximal supplied QI-value         = 13.42
 optimisation between [QCUT,QGAM] = [ 11.67, 23.35] = [ 38.16,152.62] Ry
 Optimized for a Real-space Cutoff    1.63 Angstroem

   l    n(q)    QCUT    max X(q) W(low)/X(q) W(high)/X(q)  e(spline)
   0     11    11.673    13.882    0.27E-04    0.79E-05    0.11E-06
   0     11    11.673    12.184    0.39E-04    0.13E-04    0.19E-06
   1     11    11.673     4.523    0.73E-05    0.76E-05    0.12E-06
   1     11    11.673     4.424    0.87E-05    0.13E-04    0.19E-06
   2     10    11.673    52.481    0.65E-04    0.36E-04    0.18E-06
   2     10    11.673    38.501    0.61E-04    0.33E-04    0.17E-06
   3     10    11.673    65.631    0.17E-03    0.14E-03    0.37E-06
   3     10    11.673    56.854    0.17E-03    0.14E-03    0.37E-06
 Optimization of the real space projectors (new method)

[...]

   l    n(q)    QCUT    max X(q) W(low)/X(q) W(high)/X(q)  e(spline)
   2      9    11.539    60.317    0.19E-03    0.47E-04    0.16E-06
   2      9    11.539    55.921    0.19E-03    0.48E-04    0.16E-06
   0     10    11.539    51.690    0.80E-04    0.50E-04    0.24E-06
   0     10    11.539    30.015    0.73E-04    0.45E-04    0.22E-06
   1     10    11.539    18.849    0.87E-04    0.16E-03    0.71E-07
   1     10    11.539    14.624    0.73E-04    0.13E-03    0.64E-07
 Optimization of the real space projectors (new method)

 maximal supplied QI-value         = 24.76
 optimisation between [QCUT,QGAM] = [ 11.64, 23.27] = [ 37.91,151.63] Ry
 Optimized for a Real-space Cutoff    1.14 Angstroem

   l    n(q)    QCUT    max X(q) W(low)/X(q) W(high)/X(q)  e(spline)
   0      8    11.635    20.381    0.10E-03    0.33E-03    0.24E-06
   0      8    11.635    15.268    0.11E-03    0.35E-03    0.26E-06
   1      7    11.635     5.964    0.24E-03    0.31E-03    0.30E-06
   1      7    11.635     5.382    0.22E-03    0.25E-03    0.26E-06
  PAW_PBE La 06Sep2000                  :
  PAW_PBE Mn 06Sep2000                  :
  PAW_PBE Ni 02Aug2007                  :
  PAW_PBE O 08Apr2002                   :

 POSCAR: SCEL6_6_1_1_0_5_5/3
  positions in direct lattice
  velocities in cartesian coordinates
 exchange correlation table for  LEXCH =        8
   RHO(1)=    0.500       N(1)  =     2000
   RHO(2)=  100.500       N(2)  =     4000

 ion  position               nearest neighbor table
   1  0.667  0.333  0.850-  17 2.57  23 2.57  29 2.57  22 2.76  28 2.76  16 2.76  16 2.76  28 2.76
                            22 2.76  11 3.16  10 3.29  10 3.29  10 3.29
   2  0.333  0.667  0.673-  28 2.65  22 2.65  16 2.65  21 2.75  21 2.75  27 2.75  15 2.75  15 2.75
                            27 2.75  20 2.80  14 2.80  26 2.80  10 3.27   9 3.33   9 3.33   9 3.33
   3  0.000  0.000  0.493-  13 2.65  19 2.65  25 2.65  14 2.75  26 2.75  20 2.75  14 2.75  20 2.75
                            26 2.75  21 2.80  15 2.80  27 2.80  12 3.27   8 3.33   8 3.33   8 3.33
   4  0.667  0.333  0.317-  30 2.57  24 2.57  18 2.57  19 2.76  25 2.76  13 2.76  13 2.76  25 2.76
                            19 2.76  11 3.16  12 3.29  12 3.29  12 3.29
   5  0.333  0.667  0.157-  17 2.65  23 2.65  29 2.65  24 2.75  18 2.75  30 2.75  30 2.75  24 2.75
                            18 2.75  10 3.26  11 3.32  11 3.32  11 3.32
   6  0.000  0.000  0.010-  18 2.65  24 2.65  30 2.65  23 2.75  17 2.75  29 2.75  29 2.75  17 2.75
                            23 2.75  12 3.26  11 3.32  11 3.32  11 3.32
   7  0.667  0.333  0.583-  14 1.94  20 1.94  27 1.94  26 1.94  15 1.94  21 1.94   3 3.39   3 3.39
                             3 3.39   2 3.39   2 3.39   2 3.39
   8  0.333  0.667  0.416-  25 1.91  19 1.91  13 1.91  20 1.94  14 1.94  26 1.94   3 3.33   3 3.33
                             3 3.33
   9  0.000  0.000  0.750-  16 1.91  22 1.91  28 1.91  15 1.94  21 1.94  27 1.94   2 3.33   2 3.33
                             2 3.33
  10  0.333  0.667  0.916-  17 1.95  23 1.95  29 1.95  28 1.97  22 1.97  16 1.97   5 3.26   2 3.27
                             1 3.29   1 3.29   1 3.29
  11  0.667  0.333  0.083-  17 1.94  23 1.94  29 1.94  30 1.94  18 1.94  24 1.94   1 3.16   4 3.16
                             6 3.32   5 3.32   5 3.32   6 3.32   6 3.32   5 3.32
  12  0.000  0.000  0.251-  18 1.95  24 1.95  30 1.95  13 1.97  19 1.97  25 1.97   6 3.26   3 3.27
                             4 3.29   4 3.29   4 3.29
  13  0.664  0.832  0.337-   8 1.91  12 1.97   3 2.65   4 2.76   4 2.76
  14  0.003  0.501  0.501-   8 1.94   7 1.94   3 2.75   3 2.75   2 2.80
  15  0.330  0.165  0.665-   9 1.94   7 1.94   2 2.75   2 2.75   3 2.80
  16  0.669  0.834  0.830-   9 1.91  10 1.97   2 2.65   1 2.76   1 2.76
  17  0.999  0.500  0.999-  11 1.94  10 1.95   1 2.57   5 2.65   6 2.75   6 2.75
  18  0.334  0.167  0.167-  11 1.94  12 1.95   4 2.57   6 2.65   5 2.75   5 2.75
  19  0.168  0.336  0.337-   8 1.91  12 1.97   3 2.65   4 2.76   4 2.76
  20  0.499  0.997  0.501-   8 1.94   7 1.94   3 2.75   3 2.75   2 2.80
  21  0.835  0.670  0.665-   9 1.94   7 1.94   2 2.75   2 2.75   3 2.80
  22  0.166  0.331  0.830-   9 1.91  10 1.97   2 2.65   1 2.76   1 2.76
  23  0.500  0.001  0.999-  11 1.94  10 1.95   1 2.57   5 2.65   6 2.75   6 2.75
  24  0.833  0.666  0.167-  11 1.94  12 1.95   4 2.57   6 2.65   5 2.75   5 2.75
  25  0.168  0.832  0.337-   8 1.91  12 1.97   3 2.65   4 2.76   4 2.76
  26  0.499  0.501  0.501-   8 1.94   7 1.94   3 2.75   3 2.75   2 2.80
  27  0.835  0.165  0.665-   9 1.94   7 1.94   2 2.75   2 2.75   3 2.80
  28  0.166  0.834  0.830-   9 1.91  10 1.97   2 2.65   1 2.76   1 2.76
  29  0.500  0.500  0.999-  11 1.94  10 1.95   1 2.57   5 2.65   6 2.75   6 2.75
  30  0.833  0.167  0.167-  11 1.94  12 1.95   4 2.57   6 2.65   5 2.75   5 2.75

  LATTYP: Found a hexagonal cell.
 ALAT       =     5.4861764568
 C/A-ratio  =     2.4603513845

  Lattice vectors:

 A1 = (   3.8793125754,   0.0000000000,  -3.8793125754)
 A2 = (  -3.8793125754,   3.8793125754,   0.0000000000)
 A3 = (   7.7930288084,   7.7930288084,   7.7930288084)

Analysis of symmetry for initial positions (statically):
 Subroutine PRICEL returns:
 Original cell was already a primitive cell.

 Routine SETGRP: Setting up the symmetry group for a
 hexagonal supercell.

 Subroutine GETGRP returns: Found 12 space group operations
 (whereof  6 operations were pure point group operations)
 out of a pool of 24 trial point group operations.

The static configuration has the point symmetry C_3v.
 The point group associated with its full space group is D_3d.

Analysis of symmetry for dynamics (positions and initial velocities):
 Subroutine PRICEL returns:
 Original cell was already a primitive cell.

[...]

The dynamic configuration has the point symmetry C_3v.
 The point group associated with its full space group is D_3d.

Analysis of structural, dynamic, and magnetic symmetry:
 Subroutine PRICEL returns:
 Original cell was already a primitive cell.

 Routine SETGRP: Setting up the symmetry group for a
 hexagonal supercell.

 Subroutine GETGRP returns: Found 12 space group operations
 (whereof  6 operations were pure point group operations)
 out of a pool of 24 trial point group operations.

The magnetic configuration has the point symmetry C_3v.
 The point group associated with its full space group is D_3d.

 Subroutine INISYM returns: Found 12 space group operations
 (whereof  6 operations are pure point group operations),
 and found     1 'primitive' translations

 KPOINTS: Automatic mesh

Automatic generation of k-mesh.
 generate k-points for:    4    4    1
Space group operators:
 irot       det(A)        alpha          n_x          n_y          n_z        tau_x        tau_y        tau_z
    1     1.000000     0.000000     1.000000     0.000000     0.000000     0.000000     0.000000     0.000000
    2     1.000000   120.000000    -0.577350    -0.577350    -0.577350     0.000000     0.000000     0.000000
    3     1.000000   120.000000     0.577350     0.577350     0.577350     0.000000     0.000000     0.000000
    4    -1.000000   180.000000     0.707107     0.000000    -0.707107     0.000000     0.000000     0.000000
    5    -1.000000   180.000000     0.707107    -0.707107    -0.000000     0.000000     0.000000     0.000000
    6    -1.000000   180.000000    -0.000000    -0.707107     0.707107     0.000000     0.000000     0.000000
    7    -1.000000     0.000000     1.000000     0.000000     0.000000     0.333333     0.666667     0.166667
    8    -1.000000   120.000000    -0.577350    -0.577350    -0.577350     0.333333     0.666667     0.166667
    9    -1.000000   120.000000     0.577350     0.577350     0.577350     0.333333     0.666667     0.166667
   10     1.000000   180.000000     0.707107     0.000000    -0.707107     0.333333     0.666667     0.166667
   11     1.000000   180.000000     0.707107    -0.707107    -0.000000     0.333333     0.666667     0.166667
   12     1.000000   180.000000    -0.000000    -0.707107     0.707107     0.333333     0.666667     0.166667

 Subroutine IBZKPT returns following result:

 Found      4 irreducible k-points:

 Following reciprocal coordinates:
            Coordinates               Weight
  0.000000  0.000000  0.000000      1.000000
  0.250000  0.000000  0.000000      6.000000
  0.500000  0.000000  0.000000      3.000000
  0.250000  0.250000  0.000000      6.000000

 Following cartesian coordinates:
            Coordinates               Weight
  0.000000  0.000000  0.000000      1.000000
  0.021481  0.021481 -0.042963      6.000000
  0.042963  0.042963 -0.085926      3.000000
  0.000000  0.064444 -0.064444      6.000000

 TETIRR: Found     10 inequivalent tetrahedra from       96

 SYSTEM =  final
 POSCAR =  SCEL6_6_1_1_0_5_5/3

 Startparameter for this run:
   NWRITE =      2    write-flag & timer
   PREC   = accura    normal or accurate (medium, high low for compatibility)
   ISTART =      0    job   : 0-new  1-cont  2-samecut
   ICHARG =      1    charge: 1-file 2-atom 10-const
   ISPIN  =      2    spin polarized calculation?
   LNONCOLLINEAR =      F non collinear calculations
   LSORBIT =      F    spin-orbit coupling
[...]
     30      -7.5799      1.00000
     31      -7.5799      1.00000
     32      -7.4799      1.00000
     33      -7.4456      1.00000
     34      -7.4456      1.00000
     35      -7.3048      1.00000
     36      -7.3048      1.00000
     37      -7.2564      1.00000
     38      -7.2564      1.00000
     39      -7.2016      1.00000
     40      -7.1400      1.00000
     41      -6.8349      1.00000
     42      -6.8220      1.00000
     43       0.2533      1.00000
     44       0.2533      1.00000
     45       0.7015      1.00000
     46       0.7015      1.00000
     47       0.7368      1.00000
     48       1.2811      1.00000
     49       1.2882      1.00000
     50       1.3795      1.00000
     51       1.3795      1.00000
     52       1.7014      1.00000
     53       1.7215      1.00000
     54       1.7215      1.00000
     55       1.7370      1.00000
     56       1.8340      1.00000
     57       1.8340      1.00000
     58       1.8524      1.00000
     59       1.9232      1.00000
     60       1.9232      1.00000
[...]
    132      10.8903      0.00000
    133      10.9148      0.00000
    134      10.9215      0.00000
    135      10.9621      0.00000
    136      10.9997      0.00000
    137      11.0175      0.00000
    138      11.0319      0.00000
    139      11.0825      0.00000
    140      11.0893      0.00000
    141      11.1026      0.00000
    142      11.1202      0.00000
    143      11.1554      0.00000
    144      11.1792      0.00000
    145      11.1943      0.00000
    146      11.2410      0.00000

[...]

 spin component 2

[...]

 k-point     4 :       0.2500    0.2500    0.0000
  band No.  band energies     occupation
      1     -23.9229      1.00000
      2     -23.9023      1.00000
      3     -23.8600      1.00000
      4     -23.8293      1.00000
      5     -23.8105      1.00000
      6     -23.8002      1.00000
      7     -11.1188      1.00000
      8     -11.1137      1.00000
      9     -10.9522      1.00000
     10     -10.7635      1.00000
     11     -10.7532      1.00000
     12     -10.7046      1.00000
     13     -10.2032      1.00000
     14     -10.1964      1.00000
     15     -10.0882      1.00000
     16     -10.0232      1.00000
     17      -9.9445      1.00000
     18      -9.8908      1.00000
     19      -9.7857      1.00000
     20      -9.7500      1.00000
     21      -9.6266      1.00000
     22      -9.5963      1.00000
     23      -9.4167      1.00000
     24      -9.3237      1.00000
     25      -7.6851      1.00000
     26      -7.4621      1.00000
     27      -7.4525      1.00000
     28      -7.3400      1.00000
     29      -7.3262      1.00000
     30      -7.3025      1.00000
     31      -7.1936      1.00000
     32      -7.1853      1.00000
     33      -7.1359      1.00000
     34      -7.1202      1.00000
     35      -7.1152      1.00000
     36      -7.0786      1.00000
     37      -6.9670      1.00000
     38      -6.9457      1.00000
     39      -6.8989      1.00000
     40      -6.8327      1.00000
     41      -6.7098      1.00000
     42      -6.6330      1.00000
     43       1.7312      1.00000
     44       1.8582      1.00000
     45       1.8766      1.00000
     46       2.0411      1.00000
     47       2.1471      1.00000
     48       2.2528      1.00000
     49       2.2828      1.00000
     50       2.3092      1.00000
     51       2.5021      1.00000
     52       2.6994      1.00000
     53       2.7409      1.00000
     54       2.7426      1.00000
     55       2.7910      1.00000
     56       2.8600      1.00000
     57       2.8947      1.00000
     58       3.0655      1.00000
     59       3.0917      1.00000
     60       3.1159      1.00000
[...]
    132      11.0740      0.00000
    133      11.0894      0.00000
    134      11.0986      0.00000
    135      11.1158      0.00000
    136      11.1183      0.00000
    137      11.1307      0.00000
    138      11.1461      0.00000
    139      11.1524      0.00000
    140      11.1532      0.00000
    141      11.1703      0.00000
    142      11.1795      0.00000
    143      11.2040      0.00000
    144      11.2098      0.00000
    145      11.2309      0.00000
    146      11.2614      0.00000

 soft charge-density along one line, spin component           1
         0         1         2         3         4         5         6         7         8         9
 total charge-density along one line

 soft charge-density along one line, spin component           2
         0         1         2         3         4         5         6         7         8         9
 total charge-density along one line

------------------------ aborting loop because EDIFF is reached ----------------------------------------

 total charge

# of ion       s       p       d       f       tot
    1        2.002   5.697   0.508   0.196   8.404
    2        2.000   5.701   0.496   0.194   8.392
    3        2.001   5.701   0.496   0.194   8.392
    4        2.002   5.697   0.508   0.196   8.404
    5        2.001   5.697   0.493   0.189   8.380
    6        2.001   5.697   0.493   0.189   8.380
    7        0.319   0.488   4.868   0.000   5.675
    8        0.342   0.529   4.861   0.000   5.731
    9        0.342   0.529   4.861   0.000   5.731
   10        0.407   0.590   8.321   0.000   9.318
   11        0.423   0.638   8.332   0.000   9.394
   12        0.407   0.590   8.321   0.000   9.318
   13        1.563   3.500   0.000   0.000   5.063
   14        1.563   3.492   0.000   0.000   5.055
   15        1.563   3.492   0.000   0.000   5.055
   16        1.563   3.500   0.000   0.000   5.063
   17        1.560   3.543   0.000   0.000   5.103
   18        1.560   3.543   0.000   0.000   5.103
   19        1.563   3.434   0.000   0.000   4.997
   20        1.563   3.443   0.000   0.000   5.006
   21        1.563   3.443   0.000   0.000   5.006
   22        1.563   3.434   0.000   0.000   4.997
   23        1.560   3.431   0.000   0.000   4.990
   24        1.560   3.431   0.000   0.000   4.990
   25        1.563   3.419   0.000   0.000   4.981
   26        1.564   3.436   0.000   0.000   5.000
   27        1.564   3.436   0.000   0.000   5.000
   28        1.563   3.419   0.000   0.000   4.981
   29        1.559   3.384   0.000   0.000   4.943
   30        1.559   3.384   0.000   0.000   4.943
tot         42.362  99.717  42.560   1.159 185.798

 magnetization (x)

[...]

  FORCE on cell =-STRESS in cart. coord.  units (eV):
  Direction    XX          YY          ZZ          XY          YZ          ZX
  Alpha Z   981.51879   981.51879   981.51879
  Ewald   -5118.07473 -5118.07472 -5118.07472   -83.15312   -83.15312   -83.15312
  Hartree  1207.40460  1207.40461  1207.40461   -89.04989   -89.04989   -89.04989
  E(xc)   -1046.42186 -1046.42188 -1046.42188     0.04839     0.04840     0.04839
  Local    -777.38112  -777.38176  -777.38176   172.07715   172.07779   172.07715
  n-local   415.02487   416.18492   417.20421    -3.14950     1.03052    -0.16342
  augment   488.64043   488.64098   488.64098     0.00477     0.00421     0.00477
  Kinetic  3859.54993  3849.82061  3836.73320    -7.28347     7.36574     2.52989
  Fock        0.00000     0.00000     0.00000     0.00000     0.00000     0.00000
  Total       0.52530     0.52530     0.52530     0.03719     0.03719     0.03719
  in kB       2.39210     2.39210     2.39210     0.16936     0.16936     0.16936

 VOLUME and BASIS-vectors are now :
  energy-cutoff  :      520.00
  volume of cell :      351.83
      direct lattice vectors                 reciprocal lattice vectors
     3.879312575  0.000000000 -3.879312575     0.085925877  0.085925877 -0.171851753
    -3.879312575  3.879312575  0.000000000    -0.085925877  0.171851753 -0.085925877
     7.793028808  7.793028808  7.793028808     0.042773271  0.042773271  0.042773271

  length of vectors
     5.486176457  5.486176457 13.497921841     0.210474553  0.210474553  0.074085479

 FORCES acting on ions
    electron-ion (+dipol)            ewald-force                    non-local-force                 convergence-correction
   0.142E+03 0.142E+03 0.142E+03   -.141E+03 -.141E+03 -.141E+03   -.116E+01 -.116E+01 -.116E+01   0.522E-01 0.522E-01 0.522E-01
   0.675E+02 0.675E+02 0.675E+02   -.671E+02 -.671E+02 -.671E+02   -.487E+00 -.487E+00 -.487E+00   0.229E-01 0.229E-01 0.229E-01
   -.675E+02 -.675E+02 -.675E+02   0.671E+02 0.671E+02 0.671E+02   0.487E+00 0.487E+00 0.487E+00   -.229E-01 -.229E-01 -.229E-01
   -.142E+03 -.142E+03 -.142E+03   0.141E+03 0.141E+03 0.141E+03   0.116E+01 0.116E+01 0.116E+01   -.522E-01 -.522E-01 -.522E-01
   -.730E+02 -.730E+02 -.730E+02   0.724E+02 0.724E+02 0.724E+02   0.681E+00 0.681E+00 0.681E+00   -.288E-01 -.288E-01 -.288E-01
   0.730E+02 0.730E+02 0.730E+02   -.724E+02 -.724E+02 -.724E+02   -.681E+00 -.681E+00 -.681E+00   0.288E-01 0.288E-01 0.288E-01
   -.755E-04 -.102E-03 -.102E-03   -.828E-04 0.634E-04 0.634E-04   -.220E-19 -.169E-20 0.508E-20   0.995E-05 0.998E-05 0.998E-05
   -.499E+02 -.499E+02 -.499E+02   0.494E+02 0.494E+02 0.494E+02   0.464E+00 0.464E+00 0.464E+00   -.262E-01 -.262E-01 -.262E-01
   0.499E+02 0.499E+02 0.499E+02   -.494E+02 -.494E+02 -.494E+02   -.464E+00 -.464E+00 -.464E+00   0.262E-01 0.262E-01 0.262E-01
   0.782E+02 0.782E+02 0.782E+02   -.773E+02 -.773E+02 -.773E+02   -.965E+00 -.965E+00 -.965E+00   0.534E-01 0.534E-01 0.534E-01
   0.136E-03 0.110E-03 0.110E-03   -.141E-03 0.793E-04 0.793E-04   -.203E-19 0.000E+00 0.203E-19   -.647E-05 -.645E-05 -.645E-05
   -.782E+02 -.782E+02 -.782E+02   0.773E+02 0.773E+02 0.773E+02   0.965E+00 0.965E+00 0.965E+00   -.534E-01 -.534E-01 -.534E-01
   -.406E+02 -.406E+02 -.944E+02   0.399E+02 0.399E+02 0.902E+02   0.806E+00 0.806E+00 0.423E+01   -.340E-01 -.340E-01 -.224E-01
   -.179E+02 -.179E+02 -.302E+02   0.176E+02 0.176E+02 0.305E+02   0.256E+00 0.256E+00 -.206E+00   -.124E-01 -.124E-01 -.532E-01
   0.179E+02 0.178E+02 0.302E+02   -.176E+02 -.176E+02 -.305E+02   -.256E+00 -.256E+00 0.206E+00   0.124E-01 0.124E-01 0.532E-01
   0.406E+02 0.406E+02 0.944E+02   -.399E+02 -.399E+02 -.902E+02   -.806E+00 -.806E+00 -.423E+01   0.340E-01 0.340E-01 0.224E-01
   0.228E+02 0.228E+02 0.345E+02   -.224E+02 -.224E+02 -.349E+02   -.452E+00 -.452E+00 0.429E+00   0.200E-01 0.200E-01 0.375E-01
   -.228E+02 -.228E+02 -.345E+02   0.224E+02 0.224E+02 0.349E+02   0.452E+00 0.452E+00 -.429E+00   -.200E-01 -.200E-01 -.375E-01
   -.406E+02 -.944E+02 -.406E+02   0.399E+02 0.902E+02 0.399E+02   0.806E+00 0.423E+01 0.806E+00   -.340E-01 -.224E-01 -.340E-01
   -.179E+02 -.302E+02 -.179E+02   0.176E+02 0.305E+02 0.176E+02   0.256E+00 -.206E+00 0.256E+00   -.124E-01 -.532E-01 -.124E-01
   0.179E+02 0.302E+02 0.178E+02   -.176E+02 -.305E+02 -.176E+02   -.256E+00 0.206E+00 -.256E+00   0.124E-01 0.532E-01 0.124E-01
   0.406E+02 0.944E+02 0.406E+02   -.399E+02 -.902E+02 -.399E+02   -.806E+00 -.423E+01 -.806E+00   0.340E-01 0.224E-01 0.340E-01
   0.228E+02 0.345E+02 0.228E+02   -.224E+02 -.349E+02 -.224E+02   -.452E+00 0.429E+00 -.452E+00   0.200E-01 0.375E-01 0.200E-01
   -.228E+02 -.345E+02 -.228E+02   0.224E+02 0.349E+02 0.224E+02   0.452E+00 -.429E+00 0.452E+00   -.200E-01 -.375E-01 -.200E-01
   -.944E+02 -.406E+02 -.406E+02   0.902E+02 0.399E+02 0.399E+02   0.423E+01 0.806E+00 0.806E+00   -.224E-01 -.340E-01 -.340E-01
   -.302E+02 -.179E+02 -.179E+02   0.305E+02 0.176E+02 0.176E+02   -.206E+00 0.256E+00 0.256E+00   -.532E-01 -.124E-01 -.124E-01
   0.302E+02 0.178E+02 0.178E+02   -.305E+02 -.176E+02 -.176E+02   0.206E+00 -.256E+00 -.256E+00   0.532E-01 0.124E-01 0.124E-01
   0.944E+02 0.406E+02 0.406E+02   -.902E+02 -.399E+02 -.399E+02   -.423E+01 -.806E+00 -.806E+00   0.224E-01 0.340E-01 0.340E-01
   0.345E+02 0.228E+02 0.228E+02   -.349E+02 -.224E+02 -.224E+02   0.429E+00 -.452E+00 -.452E+00   0.375E-01 0.200E-01 0.200E-01
   -.345E+02 -.228E+02 -.228E+02   0.349E+02 0.224E+02 0.224E+02   -.429E+00 0.452E+00 0.452E+00   -.375E-01 -.200E-01 -.200E-01
   0.278E-02 0.352E-02 0.352E-02   0.213E-12 0.284E-13 0.114E-12   0.555E-16 0.105E-14 0.722E-15   -.140E-04 -.137E-04 -.137E-04

 POSITION                                       TOTAL-FORCE (eV/Angst)
      7.91391      7.91391      4.03459        -0.047680     -0.047680     -0.047680
      3.95372      7.83303      3.95372        -0.033780     -0.033780     -0.033780
      3.84504      3.84504      3.84504         0.033780      0.033780      0.033780
      3.76417      3.76417     -0.11514         0.047680      0.047680      0.047680
     -0.06985      3.80946     -0.06985         0.003816      0.003816      0.003816
      0.07559      0.07559      0.07559        -0.003816     -0.003816     -0.003816
      5.83904      5.83904      1.95972         0.000000      0.000000      0.000000
      1.95188      5.83120      1.95188        -0.008425     -0.008425     -0.008425
      5.84688      5.84688      5.84688         0.008425      0.008425      0.008425
      5.84191      9.72123      5.84191        -0.006120     -0.006120     -0.006120
      1.94252      1.94252     -1.93679         0.000000      0.000000      0.000000
      1.95685      1.95685      1.95685         0.006120      0.006120      0.006120
      1.97304      5.85236      0.04690         0.003196      0.003196      0.010130
      1.97205      5.85136      3.89496         0.013656      0.013656      0.007981
      5.82672      5.82672      3.90380        -0.013656     -0.013656     -0.007981
      5.82572      9.70503      3.87255        -0.003196     -0.003196     -0.010130
      9.72721      9.72721      3.91230         0.024115      0.024115     -0.002922
      1.95087      1.95087      0.00715        -0.024115     -0.024115      0.002922
      1.97304      3.92621      1.97304         0.003196      0.010130      0.003196
      1.97205      7.77427      1.97205         0.013656      0.007981      0.013656
      5.82672      7.78311      1.94740        -0.013656     -0.007981     -0.013656
      5.82572      7.75186      5.82572        -0.003196     -0.010130     -0.003196
      9.72721      7.79161      5.84789         0.024115     -0.002922      0.024115
      1.95087      3.88646     -1.92844        -0.024115      0.002922     -0.024115
      0.04690      5.85236      1.97304         0.010130      0.003196      0.003196
      3.89496      5.85136      1.97205         0.007981      0.013656      0.013656
      7.78311      5.82672      1.94740        -0.007981     -0.013656     -0.013656
      3.87255      9.70503      5.82572        -0.010130     -0.003196     -0.003196
      7.79161      9.72721      5.84789        -0.002922      0.024115      0.024115
      3.88646      1.95087     -1.92844         0.002922     -0.024115     -0.024115
    total drift:                                0.002764      0.003505      0.003504

  FREE ENERGIE OF THE ION-ELECTRON SYSTEM (eV)
  free  energy   TOTEN  =      -220.16323792 eV

  energy  without entropy=     -220.16323792  energy(sigma->0) =     -220.16323792

 total charge

[...]

 magnetization (x)

# of ion       s       p       d       f       tot
    1        0.000   0.000   0.008   0.004   0.013
    2        0.001   0.001   0.012   0.006   0.020
    3        0.001   0.001   0.012   0.006   0.020
    4        0.000   0.000   0.008   0.004   0.012
    5        0.000  -0.000   0.003   0.002   0.005
    6        0.000  -0.000   0.003   0.002   0.005
    7        0.018   0.019   3.598   0.000   3.634
    8        0.025   0.024   3.411   0.000   3.460
    9        0.025   0.024   3.411   0.000   3.460
   10        0.016   0.004   1.591   0.000   1.611
   11        0.018   0.022   1.495   0.000   1.534
   12        0.016   0.004   1.591   0.000   1.611
   13        0.006  -0.028   0.000   0.000  -0.022
   14        0.004  -0.033   0.000   0.000  -0.029
   15        0.004  -0.033   0.000   0.000  -0.029
   16        0.006  -0.028   0.000   0.000  -0.022
   17        0.008   0.018   0.000   0.000   0.026
   18        0.008   0.018   0.000   0.000   0.026
   19        0.005  -0.051   0.000   0.000  -0.046
   20        0.003  -0.050   0.000   0.000  -0.047
   21        0.003  -0.050   0.000   0.000  -0.047
   22        0.005  -0.051   0.000   0.000  -0.046
   23        0.007  -0.038   0.000   0.000  -0.031
   24        0.007  -0.038   0.000   0.000  -0.031
   25        0.005  -0.049   0.000   0.000  -0.044
   26        0.003  -0.042   0.000   0.000  -0.039
   27        0.003  -0.042   0.000   0.000  -0.039
   28        0.005  -0.049   0.000   0.000  -0.044
   29        0.006  -0.062   0.000   0.000  -0.056
   30        0.006  -0.063   0.000   0.000  -0.056
tot          0.211  -0.569  15.142   0.024  14.807

 BZINTS: Fermi energy:  7.725578;225.000000 electrons
         Band energy:-335.043716;  BLOECHL correction:  0.000000