 vasp.5.4.4.18Apr17-6-g9f103f2a35 (build Oct 03 2018 13:58:34) complex

 executed on             LinuxIFC date 2019.06.04  01:52:41

 INCAR:
 POTCAR:    PAW_PBE La 06Sep2000
 POTCAR:    PAW_PBE Mn 06Sep2000
 POTCAR:    PAW_PBE Ni 02Aug2007
 POTCAR:    PAW_PBE O 08Apr2002

 POTCAR:    PAW_PBE La 06Sep2000
   VRHFIN =La : [core=Kr4d]

   TITEL  = PAW_PBE La 06Sep2000
   POMASS =  138.900; ZVAL   =   11.000    mass and valenz
   ENMAX  =  219.292; ENMIN  =  164.469 eV

 POTCAR:    PAW_PBE Mn 06Sep2000
   VRHFIN =Mn: d6 s1

   TITEL  = PAW_PBE Mn 06Sep2000
   POMASS =   54.938; ZVAL   =    7.000    mass and valenz
   ENMAX  =  269.864; ENMIN  =  202.398 eV

 POTCAR:    PAW_PBE Ni 02Aug2007
   VRHFIN =Ni:

   TITEL  = PAW_PBE Ni 02Aug2007
   POMASS =   58.690; ZVAL   =   10.000    mass and valenz
   ENMAX  =  269.532; ENMIN  =  202.149 eV

 POTCAR:    PAW_PBE O 08Apr2002
   VRHFIN =O: s2p4

   TITEL  = PAW_PBE O 08Apr2002
   POMASS =   16.000; ZVAL   =    6.000    mass and valenz
   ENMAX  =  400.000; ENMIN  =  300.000 eV

 Optimization of the real space projectors (new method)

 maximal supplied QI-value         = 13.42
 optimisation between [QCUT,QGAM] = [ 11.67, 23.35] = [ 38.16,152.62] Ry
 Optimized for a Real-space Cutoff    1.63 Angstroem

   l    n(q)    QCUT    max X(q) W(low)/X(q) W(high)/X(q)  e(spline)
   0     11    11.673    13.882    0.27E-04    0.79E-05    0.11E-06
   0     11    11.673    12.184    0.39E-04    0.13E-04    0.19E-06
   1     11    11.673     4.523    0.73E-05    0.76E-05    0.12E-06
   1     11    11.673     4.424    0.87E-05    0.13E-04    0.19E-06
   2     10    11.673    52.481    0.65E-04    0.36E-04    0.18E-06
   2     10    11.673    38.501    0.61E-04    0.33E-04    0.17E-06
   3     10    11.673    65.631    0.17E-03    0.14E-03    0.37E-06
   3     10    11.673    56.854    0.17E-03    0.14E-03    0.37E-06
 Optimization of the real space projectors (new method)

[...]

   l    n(q)    QCUT    max X(q) W(low)/X(q) W(high)/X(q)  e(spline)
   2      9    11.539    60.317    0.19E-03    0.47E-04    0.16E-06
   2      9    11.539    55.921    0.19E-03    0.48E-04    0.16E-06
   0     10    11.539    51.690    0.80E-04    0.50E-04    0.24E-06
   0     10    11.539    30.015    0.73E-04    0.45E-04    0.22E-06
   1     10    11.539    18.849    0.87E-04    0.16E-03    0.71E-07
   1     10    11.539    14.624    0.73E-04    0.13E-03    0.64E-07
 Optimization of the real space projectors (new method)

 maximal supplied QI-value         = 24.76
 optimisation between [QCUT,QGAM] = [ 11.64, 23.27] = [ 37.91,151.63] Ry
 Optimized for a Real-space Cutoff    1.14 Angstroem

   l    n(q)    QCUT    max X(q) W(low)/X(q) W(high)/X(q)  e(spline)
   0      8    11.635    20.381    0.10E-03    0.33E-03    0.24E-06
   0      8    11.635    15.268    0.11E-03    0.35E-03    0.26E-06
   1      7    11.635     5.964    0.24E-03    0.31E-03    0.30E-06
   1      7    11.635     5.382    0.22E-03    0.25E-03    0.26E-06
  PAW_PBE La 06Sep2000                  :
  PAW_PBE Mn 06Sep2000                  :
  PAW_PBE Ni 02Aug2007                  :
  PAW_PBE O 08Apr2002                   :

 POSCAR: SCEL5_5_1_1_0_1_1/5
  positions in direct lattice
  velocities in cartesian coordinates
 exchange correlation table for  LEXCH =        8
   RHO(1)=    0.500       N(1)  =     2000
   RHO(2)=  100.500       N(2)  =     4000

 ion  position               nearest neighbor table
   1  0.799  0.799  0.603-  24 2.70  17 2.70  12 2.70  19 2.73  14 2.73  21 2.73  21 2.73  19 2.73
                            14 2.73  23 2.75  11 2.75  16 2.75   7 3.31   9 3.33   9 3.33   9 3.33
   2  0.601  0.601  0.196-  22 2.69  20 2.69  15 2.69  13 2.73  18 2.73  25 2.73  25 2.73  13 2.73
                            18 2.73  23 2.77  11 2.77  16 2.77   7 3.30  10 3.32  10 3.32  10 3.32
   3  0.399  0.399  0.804-  22 2.69  20 2.69  15 2.69  12 2.73  17 2.73  24 2.73  24 2.73  12 2.73
                            17 2.73  21 2.77  19 2.77  14 2.77  10 3.30   7 3.32   7 3.32   7 3.32
   4  0.201  0.201  0.397-  25 2.70  18 2.70  13 2.70  11 2.73  16 2.73  23 2.73  23 2.73  16 2.73
                            11 2.73  21 2.75  14 2.75  19 2.75  10 3.31   8 3.33   8 3.33   8 3.33
   5  0.000  0.000  0.000-  15 2.72  20 2.72  15 2.72  22 2.72  20 2.72  22 2.72  24 2.73  25 2.73
                            18 2.73  13 2.73  12 2.73  17 2.73   7 3.34  10 3.34   7 3.34  10 3.34
   6  0.500  0.500  0.500-  16 1.90  19 1.90  11 1.90  14 1.90  21 1.90  23 1.90   1 3.35   4 3.35
                             4 3.35   4 3.35   1 3.35   1 3.35   3 3.39   2 3.39
   7  0.700  0.700  0.900-  12 1.91  17 1.91  24 1.91  20 1.93  15 1.93  22 1.93   2 3.30   1 3.31
                             3 3.32   3 3.32   3 3.32   5 3.34   5 3.34   5 3.34
   8  0.900  0.900  0.300-  13 1.94  18 1.94  25 1.94  16 1.96  11 1.96  23 1.96   4 3.33   4 3.33
                             4 3.33   5 3.34   2 3.35   2 3.35   2 3.35   1 3.38
   9  0.100  0.100  0.700-  12 1.94  17 1.94  24 1.94  19 1.96  14 1.96  21 1.96   1 3.33   1 3.33
                             1 3.33   5 3.34   3 3.35   3 3.35   3 3.35   4 3.38
  10  0.300  0.300  0.100-  13 1.91  18 1.91  25 1.91  20 1.93  15 1.93  22 1.93   3 3.30   4 3.31
                             2 3.32   2 3.32   2 3.32   5 3.34   5 3.34   5 3.34
  11  0.204  0.697  0.402-   6 1.90   8 1.96   4 2.73   4 2.73   1 2.75   2 2.77
  12  0.403  0.898  0.801-   7 1.91   9 1.94   1 2.70   3 2.73   3 2.73   5 2.73
  13  0.597  0.102  0.199-  10 1.91   8 1.94   4 2.70   2 2.73   2 2.73   5 2.73
  14  0.796  0.303  0.598-   6 1.90   9 1.96   1 2.73   1 2.73   4 2.75   3 2.77
  15  0.000  0.500  0.000-   7 1.93  10 1.93   2 2.69   3 2.69   5 2.72   5 2.72
  16  0.697  0.204  0.402-   6 1.90   8 1.96   4 2.73   4 2.73   1 2.75   2 2.77
  17  0.898  0.403  0.801-   7 1.91   9 1.94   1 2.70   3 2.73   3 2.73   5 2.73
  18  0.102  0.597  0.199-  10 1.91   8 1.94   4 2.70   2 2.73   2 2.73   5 2.73
  19  0.303  0.796  0.598-   6 1.90   9 1.96   1 2.73   1 2.73   4 2.75   3 2.77
  20  0.500  0.000  0.000-   7 1.93  10 1.93   2 2.69   3 2.69   5 2.72   5 2.72
  21  0.303  0.303  0.598-   6 1.90   9 1.96   1 2.73   1 2.73   4 2.75   3 2.77
  22  0.500  0.500  0.000-   7 1.93  10 1.93   2 2.69   3 2.69   5 2.72   5 2.72
  23  0.697  0.697  0.402-   6 1.90   8 1.96   4 2.73   4 2.73   1 2.75   2 2.77
  24  0.898  0.898  0.801-   7 1.91   9 1.94   1 2.70   3 2.73   3 2.73   5 2.73
  25  0.102  0.102  0.199-  10 1.91   8 1.94   4 2.70   2 2.73   2 2.73   5 2.73

  LATTYP: Found a trigonal (rhomboedric) cell.
 ALAT       =    11.5827845594
 COS(alpha) =     0.8893164552

  Lattice vectors:

 A1 = (   7.7203681933,  -3.8668757694,  -7.7203681837)
 A2 = (   7.7203681933,  -7.7203681837,  -3.8668757694)
 A3 = (   3.8668757790,  -7.7203681838,  -7.7203681838)

Analysis of symmetry for initial positions (statically):
 Subroutine PRICEL returns:
 Original cell was already a primitive cell.

 Routine SETGRP: Setting up the symmetry group for a
 trigonal (rhombohedral) supercell.

 Subroutine GETGRP returns: Found 12 space group operations
 (whereof 12 operations were pure point group operations)
 out of a pool of 12 trial point group operations.

The static configuration has the point symmetry D_3d.

Analysis of symmetry for dynamics (positions and initial velocities):
 Subroutine PRICEL returns:
 Original cell was already a primitive cell.

[...]

The dynamic configuration has the point symmetry D_3d.

Analysis of structural, dynamic, and magnetic symmetry:
 Subroutine PRICEL returns:
 Original cell was already a primitive cell.

 Routine SETGRP: Setting up the symmetry group for a
 trigonal (rhombohedral) supercell.

 Subroutine GETGRP returns: Found 12 space group operations
 (whereof 12 operations were pure point group operations)
 out of a pool of 12 trial point group operations.

The magnetic configuration has the point symmetry D_3d.

 Subroutine INISYM returns: Found 12 space group operations
 (whereof 12 operations are pure point group operations),
 and found     1 'primitive' translations

 KPOINTS: Automatic mesh

Automatic generation of k-mesh.
 generate k-points for:    4    4    2
Space group operators:
 irot       det(A)        alpha          n_x          n_y          n_z        tau_x        tau_y        tau_z
    1     1.000000     0.000000     1.000000     0.000000     0.000000     0.000000     0.000000     0.000000
    2    -1.000000     0.000000     1.000000     0.000000     0.000000     0.000000     0.000000     0.000000
    3     1.000000   180.000000     0.707107     0.000000     0.707107     0.000000     0.000000     0.000000
    4    -1.000000   180.000000     0.707107     0.000000     0.707107     0.000000     0.000000     0.000000
    5     1.000000   120.000000    -0.577350     0.577350     0.577350     0.000000     0.000000     0.000000
    6    -1.000000   120.000000    -0.577350     0.577350     0.577350     0.000000     0.000000     0.000000
    7     1.000000   180.000000    -0.000000     0.707107    -0.707107     0.000000     0.000000     0.000000
    8    -1.000000   180.000000    -0.000000     0.707107    -0.707107     0.000000     0.000000     0.000000
    9     1.000000   120.000000     0.577350    -0.577350    -0.577350     0.000000     0.000000     0.000000
   10    -1.000000   120.000000     0.577350    -0.577350    -0.577350     0.000000     0.000000     0.000000
   11     1.000000   180.000000     0.707107     0.707107     0.000000     0.000000     0.000000     0.000000
   12    -1.000000   180.000000     0.707107     0.707107     0.000000     0.000000     0.000000     0.000000

 Subroutine IBZKPT returns following result:

 Found     11 irreducible k-points:

 Following reciprocal coordinates:
            Coordinates               Weight
  0.000000  0.000000  0.000000      1.000000
  0.250000  0.000000  0.000000      4.000000
  0.500000  0.000000  0.000000      3.000000
  0.250000  0.250000  0.000000      2.000000
  0.500000  0.250000  0.000000      8.000000
 -0.250000  0.250000  0.000000      2.000000
  0.500000  0.500000  0.000000      3.000000
  0.000000  0.000000  0.500000      1.000000
  0.250000  0.000000  0.500000      4.000000
  0.250000  0.250000  0.500000      2.000000
 -0.250000  0.250000  0.500000      2.000000

 Following cartesian coordinates:
            Coordinates               Weight
  0.000000  0.000000  0.000000      1.000000
  0.025941 -0.025941  0.038935      4.000000
  0.051883 -0.051883  0.077869      3.000000
  0.051883  0.012993  0.012993      2.000000
  0.077824 -0.012948  0.051928      8.000000
 -0.000000  0.064876 -0.064876      2.000000
  0.103766  0.025986  0.025986      3.000000
 -0.025897  0.025897  0.025897      1.000000
  0.000045 -0.000045  0.064831      4.000000
  0.025986  0.038890  0.038890      2.000000
 -0.025897  0.090773 -0.038980      2.000000

 TETIRR: Found     48 inequivalent tetrahedra from      192

 SYSTEM =  final
 POSCAR =  SCEL5_5_1_1_0_1_1/5

 Startparameter for this run:
   NWRITE =      2    write-flag & timer
   PREC   = accura    normal or accurate (medium, high low for compatibility)
[...]
       1 -95.0200       2 -94.9800       3 -94.9800       4 -95.0200       5 -94.9536
       6 -43.0169       7 -83.9578       8 -83.6678       9 -83.6678      10 -83.9578
      11 -66.6679      12 -66.6492      13 -66.6492      14 -66.6679      15 -66.6676
      16 -66.6679      17 -66.6492      18 -66.6492      19 -66.6679      20 -66.6676
      21 -66.6679      22 -66.6676      23 -66.6679      24 -66.6492      25 -66.6492

 E-fermi :   7.5584     XC(G=0): -11.8390     alpha+bet :-16.9123

[...]

 k-point     1 :       0.0000    0.0000    0.0000
  band No.  band energies     occupation
      1     -23.5330      1.00000
      2     -23.4631      1.00000
      3     -23.4514      1.00000
      4     -23.3749      1.00000
      5     -23.3298      1.00000
      6     -10.7205      1.00000
      7     -10.5831      1.00000
      8     -10.5704      1.00000
      9      -9.8199      1.00000
     10      -9.8016      1.00000
     11      -9.5468      1.00000
     12      -9.5468      1.00000
     13      -9.5388      1.00000
     14      -9.5388      1.00000
     15      -9.4614      1.00000
     16      -9.4614      1.00000
     17      -9.4438      1.00000
     18      -9.4438      1.00000
     19      -9.3008      1.00000
     20      -9.3008      1.00000
     21      -7.4149      1.00000
     22      -7.4149      1.00000
     23      -7.4104      1.00000
     24      -7.4104      1.00000
     25      -7.1736      1.00000
     26      -7.0754      1.00000
     27      -7.0479      1.00000
     28      -7.0479      1.00000
     29      -7.0346      1.00000
     30      -6.9282      1.00000
     31      -6.9282      1.00000
     32      -6.9113      1.00000
     33      -6.9113      1.00000
     34      -6.4517      1.00000
     35      -6.4344      1.00000
     36       0.4513      1.00000
     37       0.4513      1.00000
     38       0.6346      1.00000
     39       0.6346      1.00000
     40       1.1676      1.00000
     41       1.2397      1.00000
     42       1.4560      1.00000
     43       1.4560      1.00000
     44       1.7422      1.00000
     45       1.7599      1.00000
     46       1.8611      1.00000
     47       1.8659      1.00000
     48       1.8659      1.00000
     49       1.9340      1.00000
     50       1.9340      1.00000
     51       1.9482      1.00000
     52       2.0392      1.00000
     53       2.0392      1.00000
     54       2.1970      1.00000
     55       2.1970      1.00000
     56       2.3290      1.00000
     57       2.3290      1.00000
     58       2.6928      1.00000
     59       2.7392      1.00000
     60       2.7392      1.00000
[...]
    110      11.2593      0.00000
    111      11.3272      0.00000
    112      11.3373      0.00000
    113      11.3751      0.00000
    114      11.3850      0.00000
    115      11.4314      0.00000
    116      11.4562      0.00000
    117      11.4745      0.00000
    118      11.5243      0.00000
    119      11.5478      0.00000
    120      11.5971      0.00000
    121      11.6064      0.00000
    122      11.6220      0.00000
    123      11.6816      0.00000
    124      11.7381      0.00000

[...]

 spin component 2

[...]

 k-point    11 :      -0.2500    0.2500    0.5000
  band No.  band energies     occupation
      1     -23.4697      1.00000
      2     -23.4466      1.00000
      3     -23.4157      1.00000
      4     -23.4046      1.00000
      5     -23.3688      1.00000
      6     -10.8539      1.00000
      7     -10.8352      1.00000
      8     -10.6401      1.00000
      9     -10.5768      1.00000
     10     -10.4414      1.00000
     11      -9.9076      1.00000
     12      -9.9060      1.00000
     13      -9.8223      1.00000
     14      -9.6369      1.00000
     15      -9.6169      1.00000
     16      -9.3500      1.00000
     17      -9.3495      1.00000
     18      -9.2960      1.00000
     19      -9.1976      1.00000
     20      -9.1576      1.00000
     21      -7.2506      1.00000
     22      -6.9946      1.00000
     23      -6.9644      1.00000
     24      -6.8770      1.00000
     25      -6.8715      1.00000
     26      -6.7585      1.00000
     27      -6.7457      1.00000
     28      -6.7161      1.00000
     29      -6.6657      1.00000
     30      -6.6449      1.00000
     31      -6.6387      1.00000
     32      -6.4686      1.00000
     33      -6.4567      1.00000
     34      -6.3779      1.00000
     35      -6.3492      1.00000
     36       1.8146      1.00000
     37       1.9227      1.00000
     38       2.0015      1.00000
     39       2.0450      1.00000
     40       2.2233      1.00000
     41       2.2768      1.00000
     42       2.3525      1.00000
     43       2.4399      1.00000
     44       2.5885      1.00000
     45       2.6392      1.00000
     46       2.6755      1.00000
     47       2.8823      1.00000
     48       2.8985      1.00000
     49       2.9125      1.00000
     50       2.9560      1.00000
     51       2.9633      1.00000
     52       3.0813      1.00000
     53       3.3965      1.00000
     54       3.3990      1.00000
     55       3.4923      1.00000
     56       3.6181      1.00000
     57       3.6513      1.00000
     58       3.8346      1.00000
     59       3.8532      1.00000
     60       3.8616      1.00000
[...]
    110      11.4490      0.00000
    111      11.4624      0.00000
    112      11.4817      0.00000
    113      11.4920      0.00000
    114      11.4977      0.00000
    115      11.5218      0.00000
    116      11.5268      0.00000
    117      11.5329      0.00000
    118      11.5457      0.00000
    119      11.5547      0.00000
    120      11.5648      0.00000
    121      11.5741      0.00000
    122      11.6160      0.00000
    123      11.6266      0.00000
    124      11.6717      0.00000

 soft charge-density along one line, spin component           1
         0         1         2         3         4         5         6         7         8         9
 total charge-density along one line

 soft charge-density along one line, spin component           2
         0         1         2         3         4         5         6         7         8         9
 total charge-density along one line

------------------------ aborting loop because EDIFF is reached ----------------------------------------

 total charge

# of ion       s       p       d       f       tot
    1        2.000   5.702   0.498   0.195   8.395
    2        2.000   5.701   0.497   0.193   8.391
    3        2.000   5.701   0.497   0.193   8.391
    4        2.000   5.702   0.498   0.195   8.395
    5        2.000   5.701   0.495   0.192   8.389
    6        0.362   0.583   4.863   0.000   5.807
    7        0.440   0.669   8.320   0.000   9.429
    8        0.406   0.593   8.319   0.000   9.319
    9        0.406   0.593   8.319   0.000   9.319
   10        0.440   0.669   8.320   0.000   9.429
   11        1.562   3.482   0.000   0.000   5.044
   12        1.563   3.470   0.000   0.000   5.033
   13        1.563   3.470   0.000   0.000   5.033
   14        1.562   3.482   0.000   0.000   5.044
   15        1.563   3.462   0.000   0.000   5.026
   16        1.562   3.434   0.000   0.000   4.996
   17        1.563   3.383   0.000   0.000   4.946
   18        1.563   3.383   0.000   0.000   4.946
   19        1.562   3.434   0.000   0.000   4.996
   20        1.563   3.404   0.000   0.000   4.967
   21        1.562   3.465   0.000   0.000   5.027
   22        1.563   3.439   0.000   0.000   5.002
   23        1.562   3.465   0.000   0.000   5.027
   24        1.563   3.444   0.000   0.000   5.007
   25        1.563   3.444   0.000   0.000   5.007
tot         35.493  83.274  40.628   0.968 160.364

 magnetization (x)

[...]

  FORCE on cell =-STRESS in cart. coord.  units (eV):
  Direction    XX          YY          ZZ          XY          YZ          ZX
  Alpha Z   828.52221   828.52221   828.52221
  Ewald   -4531.42219 -4531.42218 -4531.42218    16.32025   -16.32025    16.32025
  Hartree  1078.89434  1078.89434  1078.89434    15.71598   -15.71598    15.71598
  E(xc)    -902.80032  -902.80033  -902.80033    -0.00336     0.00338    -0.00336
  Local    -689.08390  -689.08414  -689.08414   -31.73588    31.73668   -31.73588
  n-local   366.94880   366.15832   367.65122     1.38101    -0.28712    -1.42006
  augment   625.35187   625.35159   625.35159     0.00447    -0.00508     0.00447
  Kinetic  3223.30431  3229.95576  3217.98694     1.72411    -0.28263    -3.05429
  Fock        0.00000     0.00000     0.00000     0.00000     0.00000     0.00000
  Total       0.13012     0.13012     0.13012     0.03576    -0.03576     0.03576
  in kB       0.72712     0.72712     0.72712     0.19983    -0.19983     0.19983

 VOLUME and BASIS-vectors are now :
  energy-cutoff  :      520.00
  volume of cell :      286.71
      direct lattice vectors                 reciprocal lattice vectors
     3.853492414  0.000000000  3.853492414     0.103765967 -0.103765967  0.155738890
     3.853492414  3.853492414  0.000000000     0.103765967  0.155738890 -0.103765967
    -3.866875779  7.720368184  7.720368184    -0.051793044  0.051793044  0.051793044

  length of vectors
     5.449661235  5.449661235 11.582784556     0.213984471  0.213984471  0.089708183

 FORCES acting on ions
    electron-ion (+dipol)            ewald-force                    non-local-force                 convergence-correction
   -.364E+02 0.364E+02 0.364E+02   0.361E+02 -.361E+02 -.361E+02   0.191E+00 -.191E+00 -.191E+00   -.536E-03 0.538E-03 0.538E-03
   0.474E+02 -.474E+02 -.474E+02   -.471E+02 0.471E+02 0.471E+02   -.229E+00 0.229E+00 0.229E+00   0.295E-02 -.295E-02 -.295E-02
   -.474E+02 0.474E+02 0.474E+02   0.471E+02 -.471E+02 -.471E+02   0.229E+00 -.229E+00 -.229E+00   -.295E-02 0.295E-02 0.295E-02
   0.364E+02 -.364E+02 -.364E+02   -.361E+02 0.361E+02 0.361E+02   -.191E+00 0.191E+00 0.191E+00   0.536E-03 -.538E-03 -.538E-03
   -.446E-13 -.142E-13 0.199E-14   0.568E-13 -.128E-12 0.284E-13   -.542E-19 -.108E-18 -.108E-18   -.646E-12 0.639E-12 0.692E-12
   0.342E-11 -.163E-11 0.232E-12   0.114E-12 0.711E-14 0.426E-13   -.212E-20 0.000E+00 0.212E-20   0.383E-12 -.394E-12 -.406E-12
   -.117E+02 0.117E+02 0.117E+02   0.120E+02 -.120E+02 -.120E+02   -.254E+00 0.254E+00 0.254E+00   -.297E-02 0.297E-02 0.297E-02
   0.376E+02 -.376E+02 -.376E+02   -.375E+02 0.375E+02 0.375E+02   -.111E+00 0.111E+00 0.111E+00   0.135E-02 -.135E-02 -.135E-02
   -.376E+02 0.376E+02 0.376E+02   0.375E+02 -.375E+02 -.375E+02   0.111E+00 -.111E+00 -.111E+00   -.135E-02 0.135E-02 0.135E-02
   0.117E+02 -.117E+02 -.117E+02   -.120E+02 0.120E+02 0.120E+02   0.254E+00 -.254E+00 -.254E+00   0.297E-02 -.297E-02 -.297E-02
   0.121E+02 -.121E+02 -.487E+02   -.121E+02 0.121E+02 0.442E+02   0.825E-01 -.825E-01 0.445E+01   -.705E-03 0.705E-03 -.860E-02
   -.164E+02 0.164E+02 0.331E+02   0.163E+02 -.163E+02 -.344E+02   0.911E-01 -.911E-01 0.132E+01   -.126E-02 0.126E-02 0.178E-02
   0.164E+02 -.164E+02 -.331E+02   -.163E+02 0.163E+02 0.344E+02   -.911E-01 0.911E-01 -.132E+01   0.126E-02 -.126E-02 -.178E-02
   -.121E+02 0.121E+02 0.487E+02   0.121E+02 -.121E+02 -.442E+02   -.825E-01 0.825E-01 -.445E+01   0.705E-03 -.705E-03 0.860E-02
   0.207E-12 0.145E-12 -.312E-13   0.213E-13 -.107E-13 0.284E-13   0.229E-19 0.169E-20 0.847E-20   -.386E-12 0.411E-12 0.451E-12
   0.121E+02 -.487E+02 -.121E+02   -.121E+02 0.442E+02 0.121E+02   0.825E-01 0.445E+01 -.825E-01   -.705E-03 -.860E-02 0.705E-03
   -.164E+02 0.331E+02 0.164E+02   0.163E+02 -.344E+02 -.163E+02   0.911E-01 0.132E+01 -.911E-01   -.126E-02 0.178E-02 0.126E-02
   0.164E+02 -.331E+02 -.164E+02   -.163E+02 0.344E+02 0.163E+02   -.911E-01 -.132E+01 0.911E-01   0.126E-02 -.178E-02 -.126E-02
   -.121E+02 0.487E+02 0.121E+02   0.121E+02 -.442E+02 -.121E+02   -.825E-01 -.445E+01 0.825E-01   0.705E-03 0.860E-02 -.705E-03
   0.470E-11 -.206E-11 -.577E-11   0.497E-13 -.355E-13 -.213E-13   -.847E-20 0.000E+00 0.678E-20   -.420E-12 0.445E-12 0.383E-12
   -.487E+02 0.121E+02 0.121E+02   0.442E+02 -.121E+02 -.121E+02   0.445E+01 0.825E-01 0.825E-01   -.860E-02 -.705E-03 -.705E-03
   0.361E-11 -.142E-11 -.388E-11   0.156E-12 -.711E-14 0.711E-14   -.551E-20 -.169E-20 -.508E-20   -.426E-12 0.425E-12 0.372E-12
   0.487E+02 -.121E+02 -.121E+02   -.442E+02 0.121E+02 0.121E+02   -.445E+01 -.825E-01 -.825E-01   0.860E-02 0.705E-03 0.705E-03
   -.331E+02 0.164E+02 0.164E+02   0.344E+02 -.163E+02 -.163E+02   -.132E+01 -.911E-01 -.911E-01   -.178E-02 0.126E-02 0.126E-02
   0.331E+02 -.164E+02 -.164E+02   -.344E+02 0.163E+02 0.163E+02   0.132E+01 0.911E-01 0.911E-01   0.178E-02 -.126E-02 -.126E-02
   0.112E-10 0.200E-10 0.141E-10   -.853E-13 -.142E-13 0.853E-13   0.111E-14 -.172E-14 0.416E-16   -.262E-12 0.483E-12 0.244E-12

 POSITION                                       TOTAL-FORCE (eV/Angst)
      3.82399      7.73649      7.73649        -0.050134      0.050134      0.050134
      3.87553      3.83146      3.83146         0.047157     -0.047157     -0.047157
     -0.03542      7.74240      7.74240        -0.047157      0.047157      0.047157
      0.01612      3.83737      3.83737         0.050134     -0.050134     -0.050134
      0.00000      0.00000      0.00000         0.000000      0.000000      0.000000
      1.92005      5.78693      5.78693         0.000000      0.000000      0.000000
      1.91420      9.64628      9.64628         0.009560     -0.009560     -0.009560
      5.77731      5.78317      5.78317        -0.013741      0.013741      0.013741
     -1.93720      5.79069      5.79069         0.013741     -0.013741     -0.013741
      1.92591      1.92758      1.92758        -0.009560      0.009560      0.009560
      1.91769      5.78929      3.88763         0.009774     -0.009774     -0.014283
      1.91749      9.64298      7.73556        -0.024468      0.024468      0.013018
      1.92262      1.93088      3.83830         0.024468     -0.024468     -0.013018
      1.92242      5.78457      7.68623        -0.009774      0.009774      0.014283
      1.92675      1.92675      0.00000         0.000000      0.000000      0.000000
      1.91769      3.88763      5.78929         0.009774     -0.014283     -0.009774
      1.91749      7.73556      9.64298        -0.024468      0.013018      0.024468
      1.92262      3.83830      1.93088         0.024468     -0.013018     -0.024468
      1.92242      7.68623      5.78457        -0.009774      0.014283      0.009774
      1.92675      0.00000      1.92675         0.000000      0.000000      0.000000
      0.02075      5.78457      5.78457        -0.014283      0.009774      0.009774
      3.85349      1.92675      1.92675         0.000000      0.000000      0.000000
      3.81936      5.78929      5.78929         0.014283     -0.009774     -0.009774
      3.82491      9.64298      9.64298        -0.013018      0.024468      0.024468
      0.01520      1.93088      1.93088         0.013018     -0.024468     -0.024468
    total drift:                                0.000000      0.000000      0.000000

  FREE ENERGIE OF THE ION-ELECTRON SYSTEM (eV)
  free  energy   TOTEN  =      -173.67629662 eV

  energy  without entropy=     -173.67629662  energy(sigma->0) =     -173.67629662

 total charge

[...]

 magnetization (x)

# of ion       s       p       d       f       tot
    1        0.001   0.001   0.008   0.003   0.013
    2        0.001  -0.000   0.006   0.003   0.009
    3        0.001  -0.000   0.006   0.003   0.009
    4        0.001   0.001   0.008   0.003   0.013
    5        0.001  -0.001   0.005   0.003   0.008
    6        0.025   0.035   3.181   0.000   3.242
    7        0.019   0.012   1.277   0.000   1.308
    8        0.012  -0.001   1.549   0.000   1.560
    9        0.012  -0.001   1.549   0.000   1.560
   10        0.019   0.012   1.277   0.000   1.308
   11        0.005  -0.023   0.000   0.000  -0.019
   12        0.006  -0.088   0.000   0.000  -0.081
   13        0.006  -0.088   0.000   0.000  -0.081
   14        0.005  -0.023   0.000   0.000  -0.019
   15        0.006  -0.086   0.000   0.000  -0.080
   16        0.004  -0.032   0.000   0.000  -0.028
   17        0.005  -0.126   0.000   0.000  -0.121
   18        0.005  -0.126   0.000   0.000  -0.121
   19        0.004  -0.032   0.000   0.000  -0.028
   20        0.005  -0.097   0.000   0.000  -0.092
   21        0.004  -0.026   0.000   0.000  -0.021
   22        0.006  -0.093   0.000   0.000  -0.086
   23        0.004  -0.026   0.000   0.000  -0.021
   24        0.006  -0.096   0.000   0.000  -0.090
   25        0.006  -0.096   0.000   0.000  -0.090
tot          0.168  -0.997   8.866   0.015   8.052

 BZINTS: Fermi energy:  7.558365;192.000000 electrons
         Band energy:-214.842885;  BLOECHL correction: -0.018000