 vasp.5.4.4.18Apr17-6-g9f103f2a35 (build Oct 03 2018 13:58:34) complex

 executed on             LinuxIFC date 2019.06.04  01:00:55

 INCAR:
 POTCAR:    PAW_PBE La 06Sep2000
 POTCAR:    PAW_PBE Mn 06Sep2000
 POTCAR:    PAW_PBE Ni 02Aug2007
 POTCAR:    PAW_PBE O 08Apr2002

 POTCAR:    PAW_PBE La 06Sep2000
   VRHFIN =La : [core=Kr4d]

   TITEL  = PAW_PBE La 06Sep2000
   POMASS =  138.900; ZVAL   =   11.000    mass and valenz
   ENMAX  =  219.292; ENMIN  =  164.469 eV

 POTCAR:    PAW_PBE Mn 06Sep2000
   VRHFIN =Mn: d6 s1

   TITEL  = PAW_PBE Mn 06Sep2000
   POMASS =   54.938; ZVAL   =    7.000    mass and valenz
   ENMAX  =  269.864; ENMIN  =  202.398 eV

 POTCAR:    PAW_PBE Ni 02Aug2007
   VRHFIN =Ni:

   TITEL  = PAW_PBE Ni 02Aug2007
   POMASS =   58.690; ZVAL   =   10.000    mass and valenz
   ENMAX  =  269.532; ENMIN  =  202.149 eV

 POTCAR:    PAW_PBE O 08Apr2002
   VRHFIN =O: s2p4

   TITEL  = PAW_PBE O 08Apr2002
   POMASS =   16.000; ZVAL   =    6.000    mass and valenz
   ENMAX  =  400.000; ENMIN  =  300.000 eV

 Optimization of the real space projectors (new method)

 maximal supplied QI-value         = 13.42
 optimisation between [QCUT,QGAM] = [ 11.67, 23.35] = [ 38.16,152.62] Ry
 Optimized for a Real-space Cutoff    1.63 Angstroem

   l    n(q)    QCUT    max X(q) W(low)/X(q) W(high)/X(q)  e(spline)
   0     11    11.673    13.882    0.27E-04    0.79E-05    0.11E-06
   0     11    11.673    12.184    0.39E-04    0.13E-04    0.19E-06
   1     11    11.673     4.523    0.73E-05    0.76E-05    0.12E-06
   1     11    11.673     4.424    0.87E-05    0.13E-04    0.19E-06
   2     10    11.673    52.481    0.65E-04    0.36E-04    0.18E-06
   2     10    11.673    38.501    0.61E-04    0.33E-04    0.17E-06
   3     10    11.673    65.631    0.17E-03    0.14E-03    0.37E-06
   3     10    11.673    56.854    0.17E-03    0.14E-03    0.37E-06
 Optimization of the real space projectors (new method)

[...]

   l    n(q)    QCUT    max X(q) W(low)/X(q) W(high)/X(q)  e(spline)
   2      9    11.539    60.317    0.19E-03    0.47E-04    0.16E-06
   2      9    11.539    55.921    0.19E-03    0.48E-04    0.16E-06
   0     10    11.539    51.690    0.80E-04    0.50E-04    0.24E-06
   0     10    11.539    30.015    0.73E-04    0.45E-04    0.22E-06
   1     10    11.539    18.849    0.87E-04    0.16E-03    0.71E-07
   1     10    11.539    14.624    0.73E-04    0.13E-03    0.64E-07
 Optimization of the real space projectors (new method)

 maximal supplied QI-value         = 24.76
 optimisation between [QCUT,QGAM] = [ 11.64, 23.27] = [ 37.91,151.63] Ry
 Optimized for a Real-space Cutoff    1.14 Angstroem

   l    n(q)    QCUT    max X(q) W(low)/X(q) W(high)/X(q)  e(spline)
   0      8    11.635    20.381    0.10E-03    0.33E-03    0.24E-06
   0      8    11.635    15.268    0.11E-03    0.35E-03    0.26E-06
   1      7    11.635     5.964    0.24E-03    0.31E-03    0.30E-06
   1      7    11.635     5.382    0.22E-03    0.25E-03    0.26E-06
  PAW_PBE La 06Sep2000                  :
  PAW_PBE Mn 06Sep2000                  :
  PAW_PBE Ni 02Aug2007                  :
  PAW_PBE O 08Apr2002                   :

 POSCAR: SCEL4_1_4_1_1_0_0/0
  positions in direct lattice
  velocities in cartesian coordinates
 exchange correlation table for  LEXCH =        8
   RHO(1)=    0.500       N(1)  =     2000
   RHO(2)=  100.500       N(2)  =     4000

 ion  position               nearest neighbor table
   1  0.000  0.500  0.238-  20 2.63  16 2.70  11 2.70  11 2.70  16 2.70  19 2.78  19 2.78   8 3.28
                             8 3.28   5 3.39   5 3.39   5 3.39   5 3.39
   2  0.000  0.000  0.500-   9 2.76  10 2.76   9 2.76  10 2.76  14 2.76  15 2.76  14 2.76  15 2.76
                            17 2.77  19 2.77  18 2.77  18 2.77   5 3.39   7 3.39   5 3.39   7 3.39
   3  0.000  0.500  0.762-  20 2.63  13 2.70  12 2.70  12 2.70  13 2.70  17 2.78  17 2.78   8 3.28
                             8 3.28   7 3.39   7 3.39   7 3.39   7 3.39
   4  0.000  0.000  0.000-  17 2.77  19 2.77  20 2.77  20 2.77  11 2.77  12 2.77  13 2.77  16 2.77
                            11 2.77  12 2.77  13 2.77  16 2.77   5 3.39   7 3.39   5 3.39   7 3.39
   5  0.500  0.000  0.250-  10 1.92  15 1.92  11 1.92  16 1.92  19 1.96  19 1.96   2 3.39   2 3.39
                             4 3.39   4 3.39   1 3.39   1 3.39   1 3.39   1 3.39
   6  0.500  0.500  0.500-  18 1.96  18 1.96  14 2.00  15 2.00   9 2.00  10 2.00   2 3.39   2 3.39
                             2 3.39   2 3.39
   7  0.500  0.000  0.750-   9 1.92  14 1.92  13 1.92  12 1.92  17 1.96  17 1.96   2 3.39   2 3.39
                             4 3.39   4 3.39   3 3.39   3 3.39   3 3.39   3 3.39
   8  0.500  0.500  0.000-  20 1.96  20 1.96  13 2.00  16 2.00  11 2.00  12 2.00   1 3.28   1 3.28
                             3 3.28   3 3.28
   9  0.500  0.757  0.626-   7 1.92   6 2.00   2 2.76   2 2.76
  10  0.500  0.243  0.374-   5 1.92   6 2.00   2 2.76   2 2.76
  11  0.500  0.754  0.128-   5 1.92   8 2.00   1 2.70   1 2.70   4 2.77   4 2.77
  12  0.500  0.246  0.872-   7 1.92   8 2.00   3 2.70   3 2.70   4 2.77   4 2.77
  13  0.500  0.754  0.872-   7 1.92   8 2.00   3 2.70   3 2.70   4 2.77   4 2.77
  14  0.500  0.243  0.626-   7 1.92   6 2.00   2 2.76   2 2.76
  15  0.500  0.757  0.374-   5 1.92   6 2.00   2 2.76   2 2.76
  16  0.500  0.246  0.128-   5 1.92   8 2.00   1 2.70   1 2.70   4 2.77   4 2.77
  17  0.000  0.000  0.750-   7 1.96   7 1.96   4 2.77   2 2.77   3 2.78   3 2.78
  18  0.000  0.500  0.500-   6 1.96   6 1.96   2 2.77   2 2.77
  19  0.000  0.000  0.250-   5 1.96   5 1.96   4 2.77   2 2.77   1 2.78   1 2.78
  20  0.000  0.500  0.000-   8 1.96   8 1.96   1 2.63   3 2.63   4 2.77   4 2.77

  LATTYP: Found a simple orthorhombic cell.
 ALAT       =     3.9100008804
 B/A-ratio  =     1.4178313212
 C/A-ratio  =     2.8334493936

  Lattice vectors:

 A1 = (   3.9100008804,   0.0000000000,   0.0000000000)
 A2 = (   0.0000000000,   3.9200032171,   3.9200032171)
 A3 = (   0.0000000000,  -7.8338872701,   7.8338872701)

Analysis of symmetry for initial positions (statically):
 Subroutine PRICEL returns:
 Original cell was already a primitive cell.

 Routine SETGRP: Setting up the symmetry group for a
 simple orthorhombic supercell.

 Subroutine GETGRP returns: Found  8 space group operations
 (whereof  8 operations were pure point group operations)
 out of a pool of  8 trial point group operations.

The static configuration has the point symmetry D_2h.

Analysis of symmetry for dynamics (positions and initial velocities):
 Subroutine PRICEL returns:
 Original cell was already a primitive cell.

[...]

The dynamic configuration has the point symmetry D_2h.

Analysis of structural, dynamic, and magnetic symmetry:
 Subroutine PRICEL returns:
 Original cell was already a primitive cell.

 Routine SETGRP: Setting up the symmetry group for a
 simple orthorhombic supercell.

 Subroutine GETGRP returns: Found  8 space group operations
 (whereof  8 operations were pure point group operations)
 out of a pool of  8 trial point group operations.

The magnetic configuration has the point symmetry D_2h.

 Subroutine INISYM returns: Found  8 space group operations
 (whereof  8 operations are pure point group operations),
 and found     1 'primitive' translations

 KPOINTS: Automatic mesh

Automatic generation of k-mesh.
 generate k-points for:    5    4    2
Space group operators:
 irot       det(A)        alpha          n_x          n_y          n_z        tau_x        tau_y        tau_z
    1     1.000000     0.000000     1.000000     0.000000     0.000000     0.000000     0.000000     0.000000
    2    -1.000000     0.000000     1.000000     0.000000     0.000000     0.000000     0.000000     0.000000
    3     1.000000   180.000000     0.000000    -0.707107     0.707107     0.000000     0.000000     0.000000
    4    -1.000000   180.000000     0.000000    -0.707107     0.707107     0.000000     0.000000     0.000000
    5     1.000000   180.000000     0.000000     0.707107     0.707107     0.000000     0.000000     0.000000
    6    -1.000000   180.000000     0.000000     0.707107     0.707107     0.000000     0.000000     0.000000
    7     1.000000   180.000000     1.000000     0.000000     0.000000     0.000000     0.000000     0.000000
    8    -1.000000   180.000000     1.000000     0.000000     0.000000     0.000000     0.000000     0.000000

 Subroutine IBZKPT returns following result:

 Found     18 irreducible k-points:

 Following reciprocal coordinates:
            Coordinates               Weight
  0.000000  0.000000  0.000000      1.000000
  0.200000  0.000000  0.000000      2.000000
  0.400000  0.000000  0.000000      2.000000
  0.000000  0.250000  0.000000      2.000000
  0.200000  0.250000  0.000000      4.000000
  0.400000  0.250000  0.000000      4.000000
  0.000000  0.500000  0.000000      1.000000
  0.200000  0.500000  0.000000      2.000000
  0.400000  0.500000  0.000000      2.000000
  0.000000  0.000000  0.500000      1.000000
  0.200000  0.000000  0.500000      2.000000
  0.400000  0.000000  0.500000      2.000000
  0.000000  0.250000  0.500000      2.000000
  0.200000  0.250000  0.500000      4.000000
  0.400000  0.250000  0.500000      4.000000
  0.000000  0.500000  0.500000      1.000000
  0.200000  0.500000  0.500000      2.000000
  0.400000  0.500000  0.500000      2.000000

 Following cartesian coordinates:
            Coordinates               Weight
  0.000000  0.000000  0.000000      1.000000
  0.051151  0.000000  0.000000      2.000000
  0.102302  0.000000  0.000000      2.000000
  0.000000  0.031888  0.031888      2.000000
  0.051151  0.031888  0.031888      4.000000
  0.102302  0.031888  0.031888      4.000000
  0.000000  0.063775  0.063775      1.000000
  0.051151  0.063775  0.063775      2.000000
  0.102302  0.063775  0.063775      2.000000
  0.000000 -0.031913  0.031913      1.000000
  0.051151 -0.031913  0.031913      2.000000
  0.102302 -0.031913  0.031913      2.000000
  0.000000 -0.000025  0.063800      2.000000
  0.051151 -0.000025  0.063800      4.000000
  0.102302 -0.000025  0.063800      4.000000
  0.000000  0.031863  0.095688      1.000000
  0.051151  0.031863  0.095688      2.000000
  0.102302  0.031863  0.095688      2.000000

 TETIRR: Found    120 inequivalent tetrahedra from      240

 SYSTEM =  final
 POSCAR =  SCEL4_1_4_1_1_0_0/0

 Startparameter for this run:
   NWRITE =      2    write-flag & timer
   PREC   = accura    normal or accurate (medium, high low for compatibility)
   ISTART =      0    job   : 0-new  1-cont  2-samecut
   ICHARG =      1    charge: 1-file 2-atom 10-const
   ISPIN  =      2    spin polarized calculation?
   LNONCOLLINEAR =      F non collinear calculations
   LSORBIT =      F    spin-orbit coupling
   INIWAV =      1    electr: 0-lowe 1-rand  2-diag
   LASPH  =      F    aspherical Exc in radial PAW
   METAGGA=      F    non-selfconsistent MetaGGA calc.

 Electronic Relaxation 1
   ENCUT  =  520.0 eV  38.22 Ry    6.18 a.u.   7.27 10.31 20.60*2*pi/ulx,y,z
   ENINI  =  520.0     initial cutoff
   ENAUG  =  605.4 eV  augmentation charge cutoff
   NELM   =    100;   NELMIN=  2; NELMDL= -5     # of ELM steps
[...]
  0.6684  0.6684

[...]

--------------------------------------- Iteration      1(  18)  ---------------------------------------

atom =   1  type =  1  l = 0

[...]

  o =  0.7873  v =  0.0000  1.0000      0.0000  0.0000
  o =  0.7929  v =  1.0000  0.0000      0.0000  0.0000
atom =  20  type =  4  l = 0

 onsite density matrix

[...]

  0.7817

 occupancies and eigenvectors

  o =  0.7817  v =  0.0000  1.0000      0.0000  0.0000
  o =  0.7880  v =  1.0000  0.0000      0.0000  0.0000
 BZINTS: Fermi energy:  7.887257;147.000000 electrons
         Band energy:-269.904892;  BLOECHL correction: -0.104875

 eigenvalue-minimisations  :  6992
 total energy-change (2. order) :-0.7044867E-03  (-0.9499490E-03)
 number of electron     147.0000005 magnetization      13.0023211
 augmentation part       16.4804679 magnetization       9.3363093

 Free energy of the ion-electron system (eV)
  alpha Z        PSCENC =       643.39698888
  Ewald energy   TEWEN  =     -9839.25657475
  -Hartree energ DENC   =     -2126.22557556
  -exchange      EXHF   =         0.00000000
  -V(xc)+E(xc)   XCENC  =       471.83950446
  PAW double counting   =     11804.94345461   -11817.92076940
  entropy T*S    EENTRO =         0.00000000
  eigenvalues    EBANDS =      -269.90489223
  atomic energy  EATOM  =     10980.12334246
  Solvation  Ediel_sol  =         0.00000000
  free energy    TOTEN  =      -153.00452152 eV

  energy without entropy =     -153.00452152  energy(sigma->0) =     -153.00452152

 average (electrostatic) potential at core
  the test charge radii are     1.1480  1.0210  0.9791  0.7215
  (the norm of the test charge is              1.0000)
       1 -95.9408       2 -95.9854       3 -95.9408       4 -95.9855       5 -43.0002
       6 -42.2101       7 -43.0002       8 -83.7503       9 -67.2576      10 -67.2576
      11 -67.1358      12 -67.1358      13 -67.1358      14 -67.2576      15 -67.2576
      16 -67.1358      17 -67.4108      18 -67.1883      19 -67.4108      20 -66.7434

 E-fermi :   7.8873     XC(G=0): -11.5817     alpha+bet :-16.0614

[...]

 k-point     1 :       0.0000    0.0000    0.0000
  band No.  band energies     occupation
      1     -24.4507      1.00000
      2     -24.4124      1.00000
      3     -24.3739      1.00000
      4     -24.3352      1.00000
      5     -11.3371      1.00000
      6     -11.1347      1.00000
      7     -11.0373      1.00000
      8     -10.5893      1.00000
      9     -10.5764      1.00000
     10     -10.3967      1.00000
     11     -10.3006      1.00000
     12     -10.2805      1.00000
     13      -9.9948      1.00000
     14      -9.9017      1.00000
     15      -9.8995      1.00000
     16      -9.7520      1.00000
     17      -7.9523      1.00000
     18      -7.9511      1.00000
     19      -7.9350      1.00000
     20      -7.8723      1.00000
     21      -7.8363      1.00000
     22      -7.7371      1.00000
     23      -7.6769      1.00000
     24      -7.6251      1.00000
     25      -7.5274      1.00000
     26      -7.4574      1.00000
     27      -7.4548      1.00000
     28      -7.3604      1.00000
     29       0.4300      1.00000
     30       0.5249      1.00000
     31       0.8270      1.00000
     32       1.4816      1.00000
     33       1.5044      1.00000
     34       1.6052      1.00000
     35       1.8333      1.00000
     36       1.8396      1.00000
     37       1.9627      1.00000
     38       2.0020      1.00000
     39       2.0563      1.00000
     40       2.1869      1.00000
     41       2.2499      1.00000
     42       2.3470      1.00000
     43       2.4063      1.00000
     44       2.9105      1.00000
     45       2.9571      1.00000
     46       3.0254      1.00000
     47       3.0353      1.00000
     48       3.0424      1.00000
     49       3.0544      1.00000
     50       3.3147      1.00000
     51       3.4978      1.00000
     52       3.6701      1.00000
     53       3.9974      1.00000
     54       4.3383      1.00000
     55       4.4994      1.00000
     56       4.5105      1.00000
     57       4.7904      1.00000
     58       4.8929      1.00000
     59       4.9279      1.00000
     60       4.9336      1.00000
[...]
     82       7.5899      0.80255
     83       8.9928      0.00000
     84       9.7455      0.00000
     85       9.8220      0.00000
     86      10.2584      0.00000
     87      10.2861      0.00000
     88      10.3299      0.00000
     89      10.3756      0.00000
     90      10.3962      0.00000
     91      10.4981      0.00000
     92      10.5266      0.00000
     93      10.5591      0.00000
     94      10.6016      0.00000
     95      10.6237      0.00000
     96      10.6701      0.00000

[...]

 spin component 2

[...]

 k-point    18 :       0.4000    0.5000    0.5000
  band No.  band energies     occupation
      1     -24.3590      1.00000
      2     -24.3551      1.00000
      3     -24.3215      1.00000
      4     -24.3201      1.00000
      5     -10.9644      1.00000
      6     -10.9171      1.00000
      7     -10.7886      1.00000
      8     -10.7515      1.00000
      9     -10.5927      1.00000
     10     -10.5030      1.00000
     11     -10.3856      1.00000
     12     -10.2753      1.00000
     13     -10.0609      1.00000
     14      -9.9812      1.00000
     15      -9.9147      1.00000
     16      -9.8672      1.00000
     17      -7.9555      1.00000
     18      -7.9521      1.00000
     19      -7.9050      1.00000
     20      -7.7874      1.00000
     21      -7.6522      1.00000
     22      -7.6481      1.00000
     23      -7.5923      1.00000
     24      -7.5242      1.00000
     25      -7.5179      1.00000
     26      -7.4798      1.00000
     27      -7.4440      1.00000
     28      -7.3119      1.00000
     29       1.6256      1.00000
     30       1.6624      1.00000
     31       1.7434      1.00000
     32       1.7479      1.00000
     33       2.0443      1.00000
     34       2.1662      1.00000
     35       2.4454      1.00000
     36       2.5597      1.00000
     37       2.7534      1.00000
     38       3.0166      1.00000
     39       3.0564      1.00000
     40       3.0896      1.00000
     41       3.1961      1.00000
     42       3.2528      1.00000
     43       3.3791      1.00000
     44       3.4149      1.00000
     45       3.4406      1.00000
     46       3.5036      1.00000
     47       3.6644      1.00000
     48       3.8643      1.00000
     49       4.0378      1.00000
     50       4.0702      1.00000
     51       4.1233      1.00000
     52       4.1881      1.00000
     53       5.0198      1.00000
     54       5.0292      1.00000
     55       5.0710      1.00000
     56       5.1211      1.00000
     57       5.2364      1.00000
     58       5.2637      1.00000
     59       5.3441      1.00000
     60       5.3833      1.00000
[...]
     82      10.5403      0.00000
     83      10.5432      0.00000
     84      10.5503      0.00000
     85      10.5543      0.00000
     86      10.5560      0.00000
     87      10.5572      0.00000
     88      10.5692      0.00000
     89      10.5707      0.00000
     90      10.5722      0.00000
     91      10.5781      0.00000
     92      10.6358      0.00000
     93      10.6623      0.00000
     94      10.6697      0.00000
     95      10.6996      0.00000
     96      10.9572      0.00000

 soft charge-density along one line, spin component           1
         0         1         2         3         4         5         6         7         8         9
 total charge-density along one line

 soft charge-density along one line, spin component           2
         0         1         2         3         4         5         6         7         8         9
 total charge-density along one line

------------------------ aborting loop because EDIFF is reached ----------------------------------------

 total charge

# of ion       s       p       d       f       tot
    1        1.999   5.695   0.482   0.186   8.363
    2        1.998   5.697   0.477   0.185   8.357
    3        1.999   5.695   0.482   0.186   8.363
    4        1.998   5.695   0.473   0.183   8.349
    5        0.336   0.522   4.871   0.000   5.730
    6        0.294   0.432   4.900   0.000   5.626
    7        0.336   0.522   4.872   0.000   5.730
    8        0.391   0.556   8.322   0.000   9.268
    9        1.563   3.455   0.000   0.000   5.018
   10        1.563   3.455   0.000   0.000   5.018
   11        1.560   3.455   0.000   0.000   5.016
   12        1.560   3.455   0.000   0.000   5.016
   13        1.560   3.455   0.000   0.000   5.016
   14        1.563   3.455   0.000   0.000   5.018
   15        1.563   3.455   0.000   0.000   5.018
   16        1.560   3.455   0.000   0.000   5.016
   17        1.565   3.455   0.000   0.000   5.020
   18        1.563   3.450   0.000   0.000   5.013
   19        1.565   3.455   0.000   0.000   5.020
   20        1.555   3.458   0.000   0.000   5.012
tot         28.093  66.272  24.880   0.741 119.987

 magnetization (x)

[...]

  FORCE on cell =-STRESS in cart. coord.  units (eV):
  Direction    XX          YY          ZZ          XY          YZ          ZX
  Alpha Z   643.39699   643.39699   643.39699
  Ewald   -3222.25210 -3308.51611 -3308.51611     0.00000    30.38622     0.00000
  Hartree   759.03719   683.76793   683.76793     0.00000    33.39169    -0.00000
  E(xc)    -676.84730  -676.94590  -676.94590     0.00000    -0.02063    -0.00000
  Local    -500.61875  -338.99849  -338.99849    -0.00000   -63.68613    -0.00000
  n-local   264.28788   263.90659   263.90170    -0.29698     0.29025    -0.29858
  augment   181.29566   180.77599   180.77599     0.00000     0.00627     0.00000
  Kinetic  2551.39370  2551.50084  2551.52745     0.53289    -0.37152     0.53379
  Fock        0.00000     0.00000     0.00000     0.00000     0.00000     0.00000
  Total      -0.30673    -1.10130    -1.10130     0.00000    -0.00380     0.00000
  in kB      -2.04643    -7.34760    -7.34760     0.00000    -0.02538     0.00000

 VOLUME and BASIS-vectors are now :
  energy-cutoff  :      520.00
  volume of cell :      240.14
      direct lattice vectors                 reciprocal lattice vectors
     3.910000880  0.000000000  0.000000000     0.255754418  0.000000000  0.000000000
     0.000000000  3.920003217  3.920003217     0.000000000  0.127550916  0.127550916
     0.000000000 -7.833887270  7.833887270     0.000000000 -0.063825274  0.063825274

  length of vectors
     3.910000880  5.543721714 11.078789623     0.255754418  0.180384235  0.090262568

 FORCES acting on ions
    electron-ion (+dipol)            ewald-force                    non-local-force                 convergence-correction
   -.163E-13 0.110E+03 -.110E+03   0.801E-14 -.109E+03 0.109E+03   0.542E-19 -.856E+00 0.856E+00   0.342E-14 -.614E-01 0.614E-01
   -.523E-14 -.486E-13 0.300E-13   0.185E-13 -.533E-14 0.622E-13   0.000E+00 0.542E-19 0.000E+00   0.559E-14 -.694E-13 0.816E-13
   -.567E-14 -.110E+03 0.110E+03   0.260E-13 0.109E+03 -.109E+03   0.000E+00 0.856E+00 -.856E+00   0.913E-14 0.614E-01 -.614E-01
   -.596E-14 0.788E-13 -.115E-12   0.187E-13 0.115E-13 -.735E-14   0.000E+00 0.542E-19 -.542E-19   0.508E-14 0.556E-13 -.839E-14
   0.698E-13 0.391E+02 -.391E+02   0.402E-13 -.389E+02 0.389E+02   0.000E+00 -.164E+00 0.164E+00   0.118E-13 -.364E-01 0.364E-01
   0.623E-13 0.853E-12 0.101E-11   0.621E-14 0.535E-13 0.888E-13   0.000E+00 0.000E+00 0.000E+00   0.354E-14 -.695E-13 0.613E-13
   0.553E-13 -.391E+02 0.391E+02   -.294E-13 0.389E+02 -.389E+02   0.000E+00 0.164E+00 -.164E+00   -.210E-14 0.364E-01 -.364E-01
   0.293E-12 0.637E-11 0.409E-12   0.310E-15 0.116E-15 -.140E-13   0.000E+00 0.000E+00 0.000E+00   0.431E-13 0.128E-13 -.691E-13
   0.113E-12 -.133E+02 0.461E+02   -.715E-14 0.126E+02 -.489E+02   0.217E-18 0.641E+00 0.277E+01   0.320E-13 0.226E-01 -.593E-02
   0.131E-12 0.133E+02 -.461E+02   -.540E-14 -.126E+02 0.489E+02   -.217E-18 -.641E+00 -.277E+01   0.215E-13 -.226E-01 0.593E-02
   0.117E-12 0.162E+02 -.651E+02   -.667E-14 -.156E+02 0.606E+02   0.000E+00 -.594E+00 0.445E+01   0.274E-13 -.178E-01 0.614E-01
   0.115E-12 -.162E+02 0.651E+02   -.450E-14 0.156E+02 -.606E+02   0.000E+00 0.594E+00 -.445E+01   0.295E-13 0.178E-01 -.614E-01
   0.116E-12 -.651E+02 0.162E+02   0.141E-13 0.606E+02 -.156E+02   -.434E-18 0.445E+01 -.594E+00   0.222E-13 0.614E-01 -.178E-01
   0.111E-12 -.461E+02 0.133E+02   0.249E-14 0.489E+02 -.126E+02   0.000E+00 -.277E+01 -.641E+00   0.183E-13 0.593E-02 -.226E-01
   0.122E-12 0.461E+02 -.133E+02   -.189E-13 -.489E+02 0.126E+02   0.542E-18 0.277E+01 0.641E+00   0.315E-13 -.593E-02 0.226E-01
   0.116E-12 0.651E+02 -.162E+02   -.221E-13 -.606E+02 0.156E+02   0.434E-18 -.445E+01 0.594E+00   0.246E-13 -.614E-01 0.178E-01
   -.215E-14 -.350E+02 0.350E+02   0.179E-14 0.350E+02 -.350E+02   0.000E+00 -.109E+00 0.109E+00   0.142E-13 0.289E-01 -.289E-01
   -.696E-14 -.227E-12 0.578E-12   -.288E-14 -.172E-13 0.287E-14   0.000E+00 0.339E-20 -.339E-20   0.140E-13 -.488E-13 0.485E-13
   -.112E-13 0.350E+02 -.350E+02   -.291E-13 -.350E+02 0.350E+02   0.000E+00 0.109E+00 -.109E+00   0.695E-14 -.289E-01 0.289E-01
   -.891E-14 0.220E-12 0.145E-12   0.401E-14 0.142E-13 0.129E-15   0.000E+00 0.000E+00 -.339E-20   0.752E-14 0.326E-13 -.559E-13
   0.136E-11 0.992E-12 0.113E-10   0.141E-13 -.568E-13 0.214E-13   0.596E-18 0.874E-15 -.777E-15   0.329E-12 0.635E-13 -.352E-14

 POSITION                                       TOTAL-FORCE (eV/Angst)
      0.00000      0.09804      3.82197         0.000000      0.045389     -0.045389
      0.00000     -3.91694      3.91694        -0.000000     -0.000000      0.000000
      0.00000     -4.01192      7.93192        -0.000000     -0.045389      0.045389
      0.00000      0.00000      0.00000        -0.000000     -0.000000      0.000000
      1.95500     -1.96134      1.96134        -0.000000      0.020878     -0.020878
      1.95500     -1.95694      5.87695        -0.000000     -0.000000     -0.000000
      1.95500     -5.87255      5.87255         0.000000     -0.020878      0.020878
      1.95500      1.96000      1.96000        -0.000000     -0.000000      0.000000
      1.95500     -1.94176      7.87307        -0.000000      0.016883     -0.050708
      1.95500     -1.97212      3.88082        -0.000000     -0.016883      0.050708
      1.95500      1.95162      3.95713        -0.000000      0.005094      0.002183
      1.95500     -5.86550      7.79676        -0.000000     -0.005094     -0.002183
      1.95500     -3.87676      9.78551        -0.000000      0.002183      0.005094
      1.95500     -3.95307      5.86176        -0.000000      0.050708     -0.016883
      1.95500      0.03919      5.89213        -0.000000     -0.050708      0.016883
      1.95500     -0.03712      1.96839        -0.000000     -0.002183     -0.005094
      0.00000     -5.87608      5.87608        -0.000000     -0.040382      0.040382
      0.00000     -1.95694      5.87695        -0.000000     -0.000000      0.000000
      0.00000     -1.95780      1.95780        -0.000000      0.040382     -0.040382
      0.00000      1.96000      1.96000        -0.000000     -0.000000      0.000000
    total drift:                                0.000000      0.000000      0.000000

  FREE ENERGIE OF THE ION-ELECTRON SYSTEM (eV)
  free  energy   TOTEN  =      -153.00452152 eV

  energy  without entropy=     -153.00452152  energy(sigma->0) =     -153.00452152

 total charge

[...]

 magnetization (x)

# of ion       s       p       d       f       tot
    1        0.000   0.001   0.009   0.005   0.015
    2        0.001   0.001   0.013   0.007   0.022
    3        0.000   0.001   0.009   0.005   0.015
    4        0.000   0.000   0.007   0.004   0.011
    5        0.025   0.031   3.536   0.000   3.592
    6        0.021   0.021   3.926   0.000   3.967
    7        0.025   0.031   3.536   0.000   3.593
    8        0.013   0.004   1.706   0.000   1.723
    9        0.005  -0.035   0.000   0.000  -0.030
   10        0.005  -0.035   0.000   0.000  -0.030
   11        0.006  -0.007   0.000   0.000  -0.001
   12        0.006  -0.007   0.000   0.000  -0.001
   13        0.006  -0.007   0.000   0.000  -0.001
   14        0.005  -0.035   0.000   0.000  -0.030
   15        0.005  -0.035   0.000   0.000  -0.030
   16        0.006  -0.007   0.000   0.000  -0.001
   17        0.006  -0.047   0.000   0.000  -0.042
   18        0.004  -0.048   0.000   0.000  -0.044
   19        0.006  -0.048   0.000   0.000  -0.042
   20        0.006   0.026   0.000   0.000   0.032
tot          0.149  -0.195  12.742   0.021  12.718

 BZINTS: Fermi energy:  7.887257;147.000000 electrons
         Band energy:-269.904892;  BLOECHL correction: -0.104875