 vasp.5.4.4.18Apr17-6-g9f103f2a35 (build Oct 03 2018 13:58:34) complex

 executed on             LinuxIFC date 2019.06.04  01:28:56

 INCAR:
 POTCAR:    PAW_PBE La 06Sep2000
 POTCAR:    PAW_PBE Mn 06Sep2000
 POTCAR:    PAW_PBE Ni 02Aug2007
 POTCAR:    PAW_PBE O 08Apr2002

 POTCAR:    PAW_PBE La 06Sep2000
   VRHFIN =La : [core=Kr4d]

   TITEL  = PAW_PBE La 06Sep2000
   POMASS =  138.900; ZVAL   =   11.000    mass and valenz
   ENMAX  =  219.292; ENMIN  =  164.469 eV

 POTCAR:    PAW_PBE Mn 06Sep2000
   VRHFIN =Mn: d6 s1

   TITEL  = PAW_PBE Mn 06Sep2000
   POMASS =   54.938; ZVAL   =    7.000    mass and valenz
   ENMAX  =  269.864; ENMIN  =  202.398 eV

 POTCAR:    PAW_PBE Ni 02Aug2007
   VRHFIN =Ni:

   TITEL  = PAW_PBE Ni 02Aug2007
   POMASS =   58.690; ZVAL   =   10.000    mass and valenz
   ENMAX  =  269.532; ENMIN  =  202.149 eV

 POTCAR:    PAW_PBE O 08Apr2002
   VRHFIN =O: s2p4

   TITEL  = PAW_PBE O 08Apr2002
   POMASS =   16.000; ZVAL   =    6.000    mass and valenz
   ENMAX  =  400.000; ENMIN  =  300.000 eV

 Optimization of the real space projectors (new method)

 maximal supplied QI-value         = 13.42
 optimisation between [QCUT,QGAM] = [ 11.67, 23.35] = [ 38.16,152.62] Ry
 Optimized for a Real-space Cutoff    1.63 Angstroem

   l    n(q)    QCUT    max X(q) W(low)/X(q) W(high)/X(q)  e(spline)
   0     11    11.673    13.882    0.27E-04    0.79E-05    0.11E-06
   0     11    11.673    12.184    0.39E-04    0.13E-04    0.19E-06
   1     11    11.673     4.523    0.73E-05    0.76E-05    0.12E-06
   1     11    11.673     4.424    0.87E-05    0.13E-04    0.19E-06
   2     10    11.673    52.481    0.65E-04    0.36E-04    0.18E-06
   2     10    11.673    38.501    0.61E-04    0.33E-04    0.17E-06
   3     10    11.673    65.631    0.17E-03    0.14E-03    0.37E-06
   3     10    11.673    56.854    0.17E-03    0.14E-03    0.37E-06
 Optimization of the real space projectors (new method)

[...]

   l    n(q)    QCUT    max X(q) W(low)/X(q) W(high)/X(q)  e(spline)
   2      9    11.539    60.317    0.19E-03    0.47E-04    0.16E-06
   2      9    11.539    55.921    0.19E-03    0.48E-04    0.16E-06
   0     10    11.539    51.690    0.80E-04    0.50E-04    0.24E-06
   0     10    11.539    30.015    0.73E-04    0.45E-04    0.22E-06
   1     10    11.539    18.849    0.87E-04    0.16E-03    0.71E-07
   1     10    11.539    14.624    0.73E-04    0.13E-03    0.64E-07
 Optimization of the real space projectors (new method)

 maximal supplied QI-value         = 24.76
 optimisation between [QCUT,QGAM] = [ 11.64, 23.27] = [ 37.91,151.63] Ry
 Optimized for a Real-space Cutoff    1.14 Angstroem

   l    n(q)    QCUT    max X(q) W(low)/X(q) W(high)/X(q)  e(spline)
   0      8    11.635    20.381    0.10E-03    0.33E-03    0.24E-06
   0      8    11.635    15.268    0.11E-03    0.35E-03    0.26E-06
   1      7    11.635     5.964    0.24E-03    0.31E-03    0.30E-06
   1      7    11.635     5.382    0.22E-03    0.25E-03    0.26E-06
  PAW_PBE La 06Sep2000                  :
  PAW_PBE Mn 06Sep2000                  :
  PAW_PBE Ni 02Aug2007                  :
  PAW_PBE O 08Apr2002                   :

 POSCAR: SCEL6_3_1_2_0_2_1/5
  positions in direct lattice
  velocities in cartesian coordinates
 exchange correlation table for  LEXCH =        8
   RHO(1)=    0.500       N(1)  =     2000
   RHO(2)=  100.500       N(2)  =     4000

 ion  position               nearest neighbor table
   1  0.838  0.822  0.501-  15 2.65  27 2.69  23 2.69  28 2.70  24 2.70  17 2.74  17 2.74  19 2.78
                            29 2.78  30 2.79  20 2.79  10 3.29   9 3.29  11 3.35  11 3.35  12 3.35
   2  0.667  0.667  1.000-  28 2.73  24 2.73  23 2.73  27 2.73  16 2.74  16 2.74  29 2.74  19 2.74
                            26 2.74  22 2.74  14 2.74  18 2.74  11 3.34  11 3.34   9 3.34   9 3.34
   3  0.495  0.511  0.499-  17 2.65  28 2.69  24 2.69  27 2.70  23 2.70  15 2.74  15 2.74  26 2.78
                            22 2.78  25 2.79  21 2.79  12 3.29  11 3.29   9 3.35   9 3.35  10 3.35
   4  0.332  0.341  0.995-  27 2.68  23 2.68  16 2.69  22 2.73  26 2.73  25 2.74  21 2.74  14 2.74
                            14 2.74  30 2.79  20 2.79  18 2.79  11 3.29   9 3.32  10 3.33  10 3.33
   5  0.167  0.167  0.500-  20 2.73  30 2.73  25 2.73  21 2.73  26 2.73  22 2.73  29 2.73  19 2.73
                            13 2.74  13 2.74  17 2.74  15 2.74  12 3.34  10 3.34  11 3.35   9 3.35
   6  0.001  0.992  0.005-  28 2.68  24 2.68  16 2.69  29 2.73  19 2.73  30 2.74  20 2.74  18 2.74
                            18 2.74  25 2.79  21 2.79  14 2.79   9 3.29  11 3.32  12 3.33  12 3.33
   7  0.751  0.249  0.249-  14 1.88  30 1.90  20 1.90  26 1.90  22 1.90  13 1.94   5 3.35   5 3.35
                             2 3.36   6 3.36   4 3.37   4 3.37   1 3.43   3 3.43
   8  0.583  0.084  0.751-  18 1.88  25 1.90  21 1.90  19 1.90  29 1.90  13 1.94   5 3.35   5 3.35
                             2 3.36   4 3.36   6 3.37   6 3.37   3 3.43   1 3.43
   9  0.084  0.582  0.249-  15 1.91  16 1.92  28 1.95  24 1.95  22 1.97  26 1.97   6 3.29   1 3.29
                             4 3.32   2 3.34   2 3.34   3 3.35   3 3.35   5 3.35
  10  0.918  0.415  0.750-  23 1.94  27 1.94  15 1.95  25 1.96  21 1.96  14 1.97   1 3.29   4 3.33
                             4 3.33   5 3.34   3 3.35   3 3.35   2 3.36
  11  0.249  0.751  0.751-  17 1.91  16 1.92  27 1.95  23 1.95  29 1.97  19 1.97   4 3.29   3 3.29
                             6 3.32   2 3.34   2 3.34   1 3.35   1 3.35   5 3.35
  12  0.416  0.919  0.250-  28 1.94  24 1.94  17 1.95  20 1.96  30 1.96  18 1.97   3 3.29   6 3.33
                             6 3.33   5 3.34   1 3.35   1 3.35   2 3.36
  13  0.667  0.167  0.500-   8 1.94   7 1.94   5 2.74   5 2.74
  14  0.832  0.331  0.005-   7 1.88  10 1.97   4 2.74   4 2.74   2 2.74   6 2.79
  15  0.001  0.501  0.497-   9 1.91  10 1.95   1 2.65   3 2.74   3 2.74   5 2.74
  16  0.167  0.667  0.000-   9 1.92  11 1.92   6 2.69   4 2.69   2 2.74   2 2.74
  17  0.332  0.832  0.503-  11 1.91  12 1.95   3 2.65   1 2.74   1 2.74   5 2.74
  18  0.502  0.002  0.995-   8 1.88  12 1.97   6 2.74   6 2.74   2 2.74   4 2.79
  19  0.418  0.921  0.750-   8 1.90  11 1.97   6 2.73   5 2.73   2 2.74   1 2.78
  20  0.585  0.086  0.250-   7 1.90  12 1.96   5 2.73   6 2.74   4 2.79   1 2.79
  21  0.748  0.247  0.750-   8 1.90  10 1.96   5 2.73   4 2.74   6 2.79   3 2.79
  22  0.915  0.413  0.250-   7 1.90   9 1.97   4 2.73   5 2.73   2 2.74   3 2.78
  23  0.083  0.583  0.751-  10 1.94  11 1.95   4 2.68   1 2.69   3 2.70   2 2.73
  24  0.251  0.750  0.249-  12 1.94   9 1.95   6 2.68   3 2.69   1 2.70   2 2.73
  25  0.255  0.247  0.750-   8 1.90  10 1.96   5 2.73   4 2.74   6 2.79   3 2.79
  26  0.423  0.413  0.250-   7 1.90   9 1.97   4 2.73   5 2.73   2 2.74   3 2.78
  27  0.584  0.583  0.751-  10 1.94  11 1.95   4 2.68   1 2.69   3 2.70   2 2.73
  28  0.750  0.750  0.249-  12 1.94   9 1.95   6 2.68   3 2.69   1 2.70   2 2.73
  29  0.911  0.921  0.750-   8 1.90  11 1.97   6 2.73   5 2.73   2 2.74   1 2.78
  30  0.078  0.086  0.250-   7 1.90  12 1.96   5 2.73   6 2.74   4 2.79   1 2.79

  LATTYP: Found a base centered monoclinic cell.
 ALAT       =    16.4460610808
 B/A-ratio  =     0.3326037949
 C/A-ratio  =     0.8148759955
 COS(beta)  =    -0.7757446727

  Lattice vectors:

 A1 = (  -7.7485048377,   3.8806149478,  -0.0042160396)
 A2 = (  -3.8806149575,   7.7485048281,  -0.0042160396)
 A3 = (   7.7499298900,  -7.7499298804,  -7.7121583472)

Analysis of symmetry for initial positions (statically):
 Subroutine PRICEL returns:
 Original cell was already a primitive cell.

 Routine SETGRP: Setting up the symmetry group for a
 base centered monoclinic supercell.

 Subroutine GETGRP returns: Found  2 space group operations
 (whereof  2 operations were pure point group operations)
 out of a pool of  4 trial point group operations.

The static configuration has the point symmetry C_1h.

Analysis of symmetry for dynamics (positions and initial velocities):
 Subroutine PRICEL returns:
 Original cell was already a primitive cell.

[...]

The dynamic configuration has the point symmetry C_1h.

Analysis of structural, dynamic, and magnetic symmetry:
 Subroutine PRICEL returns:
 Original cell was already a primitive cell.

 Routine SETGRP: Setting up the symmetry group for a
 base centered monoclinic supercell.

 Subroutine GETGRP returns: Found  2 space group operations
 (whereof  2 operations were pure point group operations)
 out of a pool of  4 trial point group operations.

The magnetic configuration has the point symmetry C_1h.

 Subroutine INISYM returns: Found  2 space group operations
 (whereof  2 operations are pure point group operations),
 and found     1 'primitive' translations

 KPOINTS: Automatic mesh

Automatic generation of k-mesh.
 generate k-points for:    4    3    3
Space group operators:
 irot       det(A)        alpha          n_x          n_y          n_z        tau_x        tau_y        tau_z
    1     1.000000     0.000000     1.000000     0.000000     0.000000     0.000000     0.000000     0.000000
    2    -1.000000   180.000000     0.707107     0.707107    -0.000000     0.000000     0.000000     0.000000

 Subroutine IBZKPT returns following result:

 Found     19 irreducible k-points:

 Following reciprocal coordinates:
            Coordinates               Weight
  0.000000  0.000000  0.000000      1.000000
  0.250000 -0.000000  0.000000      2.000000
  0.500000 -0.000000  0.000000      1.000000
 -0.000000  0.333333  0.000000      2.000000
  0.250000  0.333333 -0.000000      2.000000
  0.500000  0.333333 -0.000000      2.000000
 -0.250000  0.333333 -0.000000      2.000000
 -0.000000  0.000000  0.333333      2.000000
  0.250000 -0.000000  0.333333      2.000000
  0.500000  0.000000  0.333333      2.000000
 -0.250000  0.000000  0.333333      2.000000
 -0.000000  0.333333  0.333333      2.000000
  0.250000  0.333333  0.333333      2.000000
  0.500000  0.333333  0.333333      2.000000
 -0.250000  0.333333  0.333333      2.000000
 -0.000000 -0.333333  0.333333      2.000000
  0.250000 -0.333333  0.333333      2.000000
  0.500000 -0.333333  0.333333      2.000000
 -0.250000 -0.333333  0.333333      2.000000

 Following cartesian coordinates:
            Coordinates               Weight
  0.000000  0.000000  0.000000      1.000000
  0.043070  0.021565 -0.010805      2.000000
  0.086140  0.043129 -0.021611      1.000000
 -0.028658  0.028658 -0.014376      2.000000
  0.014412  0.050223 -0.025181      2.000000
  0.057482  0.071788 -0.035987      2.000000
 -0.071729  0.007094 -0.003570      2.000000
 -0.000016  0.000016  0.043190      2.000000
  0.043055  0.021580  0.032385      2.000000
  0.086125  0.043145  0.021579      2.000000
 -0.043086 -0.021549  0.053996      2.000000
 -0.028674  0.028674  0.028814      2.000000
  0.014396  0.050239  0.018009      2.000000
  0.057466  0.071803  0.007204      2.000000
 -0.071744  0.007110  0.039620      2.000000
  0.028643 -0.028643  0.057566      2.000000
  0.071713 -0.007078  0.046761      2.000000
  0.114783  0.014486  0.035955      2.000000
 -0.014427 -0.050207  0.068372      2.000000

[...]
     30      -7.2394      1.00000
     31      -7.2269      1.00000
     32      -7.2252      1.00000
     33      -7.1962      1.00000
     34      -7.1045      1.00000
     35      -7.1025      1.00000
     36      -7.0044      1.00000
     37      -6.9626      1.00000
     38      -6.8912      1.00000
     39      -6.8513      1.00000
     40      -6.6643      1.00000
     41      -6.6512      1.00000
     42      -6.3322      1.00000
     43       0.4003      1.00000
     44       0.5033      1.00000
     45       0.5047      1.00000
     46       0.6232      1.00000
     47       0.8369      1.00000
     48       1.1041      1.00000
     49       1.1075      1.00000
     50       1.2520      1.00000
     51       1.3522      1.00000
     52       1.4115      1.00000
     53       1.4968      1.00000
     54       1.5404      1.00000
     55       1.6663      1.00000
     56       1.8278      1.00000
     57       1.8391      1.00000
     58       1.8776      1.00000
     59       1.9130      1.00000
     60       1.9222      1.00000
[...]
    132      11.1157      0.00000
    133      11.1334      0.00000
    134      11.1791      0.00000
    135      11.2163      0.00000
    136      11.2381      0.00000
    137      11.2592      0.00000
    138      11.2790      0.00000
    139      11.2974      0.00000
    140      11.3093      0.00000
    141      11.3234      0.00000
    142      11.3596      0.00000
    143      11.3677      0.00000
    144      11.3918      0.00000
    145      11.4133      0.00000
    146      11.4775      0.00000

[...]

 spin component 2

[...]

 k-point    19 :      -0.2500   -0.3333    0.3333
  band No.  band energies     occupation
      1     -23.6744      1.00000
      2     -23.6642      1.00000
      3     -23.6351      1.00000
      4     -23.6050      1.00000
      5     -23.5893      1.00000
      6     -23.5407      1.00000
      7     -11.0045      1.00000
      8     -10.8508      1.00000
      9     -10.8187      1.00000
     10     -10.7232      1.00000
     11     -10.4333      1.00000
     12     -10.0723      1.00000
     13     -10.0373      1.00000
     14      -9.9414      1.00000
     15      -9.8770      1.00000
     16      -9.7661      1.00000
     17      -9.7146      1.00000
     18      -9.6940      1.00000
     19      -9.6291      1.00000
     20      -9.5442      1.00000
     21      -9.4664      1.00000
     22      -9.2970      1.00000
     23      -9.2906      1.00000
     24      -9.2260      1.00000
     25      -7.4909      1.00000
     26      -7.2866      1.00000
     27      -7.2143      1.00000
     28      -7.1839      1.00000
     29      -7.1750      1.00000
     30      -7.1364      1.00000
     31      -7.1240      1.00000
     32      -7.0933      1.00000
     33      -6.9886      1.00000
     34      -6.9525      1.00000
     35      -6.9315      1.00000
     36      -6.9069      1.00000
     37      -6.8336      1.00000
     38      -6.7841      1.00000
     39      -6.7105      1.00000
     40      -6.6658      1.00000
     41      -6.6092      1.00000
     42      -6.5030      1.00000
     43       1.3614      1.00000
     44       1.8021      1.00000
     45       2.0730      1.00000
     46       2.1651      1.00000
     47       2.2266      1.00000
     48       2.2841      1.00000
     49       2.3677      1.00000
     50       2.4383      1.00000
     51       2.4884      1.00000
     52       2.7021      1.00000
     53       2.7605      1.00000
     54       2.8191      1.00000
     55       2.8531      1.00000
     56       2.8678      1.00000
     57       2.9591      1.00000
     58       2.9848      1.00000
     59       3.0375      1.00000
     60       3.1072      1.00000
[...]
    132      11.2847      0.00000
    133      11.2994      0.00000
    134      11.3108      0.00000
    135      11.3198      0.00000
    136      11.3217      0.00000
    137      11.3384      0.00000
    138      11.3569      0.00000
    139      11.3677      0.00000
    140      11.3747      0.00000
    141      11.3868      0.00000
    142      11.3933      0.00000
    143      11.4081      0.00000
    144      11.4238      0.00000
    145      11.4476      0.00000
    146      11.4790      0.00000

 soft charge-density along one line, spin component           1
         0         1         2         3         4         5         6         7         8         9
 total charge-density along one line

 soft charge-density along one line, spin component           2
         0         1         2         3         4         5         6         7         8         9
 total charge-density along one line

------------------------ aborting loop because EDIFF is reached ----------------------------------------

 total charge

# of ion       s       p       d       f       tot
    1        2.000   5.699   0.497   0.192   8.388
    2        2.000   5.700   0.493   0.191   8.384
    3        2.000   5.699   0.497   0.192   8.388
    4        2.000   5.700   0.495   0.193   8.388
    5        1.999   5.701   0.490   0.192   8.383
    6        2.000   5.700   0.495   0.193   8.389
    7        0.358   0.572   4.862   0.000   5.791
    8        0.358   0.572   4.862   0.000   5.791
    9        0.418   0.620   8.319   0.000   9.356
   10        0.407   0.593   8.318   0.000   9.318
   11        0.418   0.620   8.318   0.000   9.356
   12        0.407   0.593   8.318   0.000   9.319
   13        1.562   3.470   0.000   0.000   5.032
   14        1.563   3.455   0.000   0.000   5.018
   15        1.562   3.437   0.000   0.000   4.998
   16        1.560   3.443   0.000   0.000   5.003
   17        1.562   3.437   0.000   0.000   4.998
   18        1.563   3.455   0.000   0.000   5.018
   19        1.562   3.456   0.000   0.000   5.018
   20        1.562   3.457   0.000   0.000   5.018
   21        1.562   3.457   0.000   0.000   5.018
   22        1.562   3.456   0.000   0.000   5.018
   23        1.561   3.436   0.000   0.000   4.997
   24        1.561   3.436   0.000   0.000   4.997
   25        1.562   3.456   0.000   0.000   5.018
   26        1.562   3.457   0.000   0.000   5.019
   27        1.561   3.440   0.000   0.000   5.001
   28        1.561   3.440   0.000   0.000   5.001
   29        1.562   3.457   0.000   0.000   5.019
   30        1.562   3.456   0.000   0.000   5.018
tot         42.479  99.867  45.964   1.153 189.464

 magnetization (x)

[...]

  FORCE on cell =-STRESS in cart. coord.  units (eV):
  Direction    XX          YY          ZZ          XY          YZ          ZX
  Alpha Z   989.72978   989.72978   989.72978
  Ewald   -5340.19924 -5340.19922 -5277.94603    15.23310     8.99716    -8.99714
  Hartree  1219.34993  1219.34979  1260.75508    14.18344     8.36393    -8.36394
  E(xc)   -1066.83110 -1066.83109 -1066.70377    -0.01637    -0.00203     0.00205
  Local    -727.79409  -727.79273  -823.98141   -28.63539   -17.23212    17.23268
  n-local   429.19599   429.21266   430.12195     0.32010     0.07626    -0.11114
  augment   635.56809   635.56785   632.59730     0.00344     0.01419    -0.01480
  Kinetic  3861.20785  3860.68363  3855.15334    -0.99501    -0.13003     0.27582
  Fock        0.00000     0.00000     0.00000     0.00000     0.00000     0.00000
  Total      -0.02606    -0.02606    -0.27377     0.09303     0.03186    -0.03186
  in kB      -0.12027    -0.12027    -1.26352     0.42938     0.14706    -0.14706

 VOLUME and BASIS-vectors are now :
  energy-cutoff  :      520.00
  volume of cell :      347.15
      direct lattice vectors                 reciprocal lattice vectors
     3.867889880  3.867889880 -0.000000000     0.172280636  0.086258266 -0.043221709
    -3.880614957  7.748504828 -0.004216040    -0.085975395  0.085975395 -0.043127560
    -0.001425052  3.869314933  7.716374387    -0.000046975  0.000046975  0.129570978

  length of vectors
     5.470022326  8.665940070  8.632151166     0.197456886  0.129009781  0.129570995

 FORCES acting on ions
    electron-ion (+dipol)            ewald-force                    non-local-force                 convergence-correction
   0.591E+02 -.591E+02 0.370E+01   -.585E+02 0.585E+02 -.366E+01   -.591E+00 0.591E+00 -.143E-01   0.500E-02 -.500E-02 0.633E-02
   -.137E-01 0.133E-01 0.307E-02   0.131E-01 -.133E-01 0.547E-02   0.788E-03 -.788E-03 0.110E-03   0.561E-03 -.559E-03 -.766E-02
   -.591E+02 0.591E+02 -.373E+01   0.585E+02 -.585E+02 0.368E+01   0.590E+00 -.590E+00 0.158E-01   -.646E-02 0.646E-02 0.723E-02
   -.368E+02 0.368E+02 -.304E+02   0.364E+02 -.364E+02 0.301E+02   0.356E+00 -.356E+00 0.323E+00   -.155E-02 0.155E-02 -.923E-02
   0.394E-01 -.399E-01 -.182E-01   -.400E-01 0.399E-01 0.119E-01   -.310E-04 0.310E-04 -.564E-03   0.113E-02 -.113E-02 0.549E-02
   0.368E+02 -.368E+02 0.305E+02   -.365E+02 0.365E+02 -.301E+02   -.355E+00 0.355E+00 -.322E+00   0.107E-02 -.107E-02 -.241E-02
   -.414E+01 0.414E+01 -.225E+02   0.419E+01 -.419E+01 0.222E+02   -.386E-01 0.386E-01 0.346E+00   0.746E-03 -.746E-03 -.143E-02
   0.415E+01 -.415E+01 0.225E+02   -.420E+01 0.420E+01 -.222E+02   0.399E-01 -.399E-01 -.345E+00   -.145E-03 0.145E-03 0.490E-03
   -.287E+02 0.287E+02 -.216E+00   0.282E+02 -.282E+02 0.494E+00   0.547E+00 -.547E+00 -.271E+00   -.935E-03 0.935E-03 0.580E-02
   -.342E+02 0.342E+02 -.222E+02   0.337E+02 -.337E+02 0.216E+02   0.485E+00 -.485E+00 0.588E+00   -.474E-02 0.474E-02 -.319E-02
   0.287E+02 -.287E+02 0.151E+00   -.281E+02 0.281E+02 -.428E+00   -.549E+00 0.549E+00 0.272E+00   0.501E-02 -.501E-02 -.701E-02
   0.342E+02 -.342E+02 0.222E+02   -.337E+02 0.337E+02 -.216E+02   -.485E+00 0.485E+00 -.585E+00   0.104E-03 -.104E-03 0.595E-02
   0.134E-01 -.139E-01 0.128E-01   -.136E-01 0.136E-01 -.205E-01   0.638E-04 -.638E-04 0.269E-02   0.184E-03 -.184E-03 0.590E-02
   -.121E+02 0.121E+02 -.389E+02   0.122E+02 -.122E+02 0.332E+02   -.136E+00 0.136E+00 0.573E+01   -.241E-03 0.242E-03 -.197E-01
   -.211E+02 0.211E+02 -.134E+02   0.213E+02 -.213E+02 0.146E+02   -.277E+00 0.277E+00 -.121E+01   -.102E-02 0.102E-02 0.726E-02
   -.191E-01 0.186E-01 0.362E-01   0.193E-01 -.192E-01 -.295E-01   -.939E-04 0.939E-04 0.335E-02   0.115E-03 -.116E-03 -.898E-02
   0.210E+02 -.210E+02 0.134E+02   -.213E+02 0.213E+02 -.146E+02   0.280E+00 -.280E+00 0.121E+01   0.576E-03 -.576E-03 0.562E-02
   0.121E+02 -.121E+02 0.390E+02   -.122E+02 0.122E+02 -.332E+02   0.129E+00 -.129E+00 -.572E+01   0.254E-03 -.254E-03 0.963E-02
   0.834E+01 -.524E+02 0.125E+02   -.798E+01 0.480E+02 -.129E+02   -.368E+00 0.443E+01 0.372E+00   0.772E-03 -.135E-01 -.349E-03
   0.824E+01 -.471E+02 -.895E+00   -.820E+01 0.427E+02 0.920E+00   -.215E-01 0.438E+01 0.236E-02   0.857E-03 -.151E-01 -.167E-03
   -.823E+01 0.470E+02 0.906E+00   0.819E+01 -.427E+02 -.933E+00   0.191E-01 -.438E+01 0.541E-02   -.316E-03 0.126E-01 -.383E-04
   -.834E+01 0.524E+02 -.125E+02   0.797E+01 -.480E+02 0.129E+02   0.368E+00 -.443E+01 -.370E+00   -.356E-05 0.112E-01 0.350E-03
   0.336E+00 0.637E+01 -.890E+01   -.645E+00 -.635E+01 0.887E+01   0.310E+00 -.355E-03 0.899E-02   -.487E-03 0.110E-02 -.153E-02
   -.370E+00 -.635E+01 0.888E+01   0.679E+00 0.633E+01 -.886E+01   -.310E+00 0.302E-02 -.176E-01   -.749E-03 0.403E-02 0.182E-02
   -.470E+02 0.823E+01 0.906E+00   0.427E+02 -.819E+01 -.933E+00   0.438E+01 -.191E-01 0.541E-02   -.126E-01 0.316E-03 -.383E-04
   -.524E+02 0.834E+01 -.125E+02   0.480E+02 -.797E+01 0.129E+02   0.443E+01 -.368E+00 -.370E+00   -.112E-01 0.344E-05 0.350E-03
   -.637E+01 -.335E+00 -.890E+01   0.635E+01 0.645E+00 0.887E+01   0.355E-03 -.310E+00 0.899E-02   -.110E-02 0.487E-03 -.153E-02
   0.635E+01 0.370E+00 0.888E+01   -.633E+01 -.679E+00 -.886E+01   -.302E-02 0.310E+00 -.176E-01   -.403E-02 0.749E-03 0.182E-02
   0.524E+02 -.834E+01 0.125E+02   -.480E+02 0.798E+01 -.129E+02   -.443E+01 0.368E+00 0.372E+00   0.135E-01 -.773E-03 -.349E-03
   0.471E+02 -.823E+01 -.895E+00   -.427E+02 0.820E+01 0.920E+00   -.438E+01 0.215E-01 0.236E-02   0.151E-01 -.857E-03 -.167E-03
   0.700E-03 -.697E-03 -.807E-02   -.497E-13 -.320E-13 0.355E-13   -.461E-02 0.461E-02 0.202E-01   -.613E-03 0.613E-03 0.230E-03

 POSITION                                       TOTAL-FORCE (eV/Angst)
      0.05090     11.55277      3.86181         0.016027     -0.016027      0.027284
     -0.00991     11.61358      7.71354         0.001182     -0.001182      0.000582
     -0.06928      7.80506      3.84889        -0.016283      0.016283     -0.027773
     -0.04244      7.77822      7.67563        -0.005991      0.005991     -0.039196
     -0.00281      3.87070      3.85746         0.000938     -0.000938     -0.001784
     -3.84375      7.71164      0.03520         0.009068     -0.009068      0.040734
      1.93559      5.80019      1.92231         0.007707     -0.007707     -0.018141
      1.92667      5.80911      5.79266        -0.007474      0.007474      0.018523
     -1.93428      5.80217      1.92184        -0.011313      0.011313      0.011999
      1.93899      9.66468      5.78526        -0.011513      0.011513      0.002225
     -1.95200      9.68778      5.78889         0.012237     -0.012237     -0.012835
     -1.95737      9.69315      1.92547         0.012067     -0.012067     -0.002403
      1.93114      5.80464      3.85753         0.000471     -0.000471      0.000481
      1.93133      5.80445      0.04027        -0.011100      0.011100     -0.001971
     -1.94161      5.80950      3.83342        -0.042461      0.042461      0.021552
     -1.94239      5.81028     -0.00277         0.000582     -0.000582      0.000679
     -1.94479      9.68057      3.87736         0.041074     -0.041074     -0.021265
      1.93081      5.80497      7.67470         0.006542     -0.006542      0.003281
     -1.95532     11.65466      5.78553        -0.001527     -0.016020      0.018081
      1.92872      3.90085      1.92920         0.012342      0.002279      0.026850
      1.93354      7.70840      5.78587        -0.012599     -0.002662     -0.022409
      1.93691      7.70318      1.92525         0.001109      0.015317     -0.017376
     -1.94286      7.74058      5.78918         0.000520      0.012725     -0.019333
     -1.94351      7.74940      1.92142        -0.001870     -0.011902      0.013201
      0.02738      5.80224      5.78587         0.002662      0.012599     -0.022409
      0.03260      5.79887      1.92525        -0.015317     -0.001109     -0.017376
     -0.00480      9.67864      5.78918        -0.012725     -0.000520     -0.019333
     -0.01362      9.67929      1.92142         0.011902      0.001870      0.013201
     -0.05099     13.55899      5.78553         0.016020      0.001527      0.018081
     -0.03296      1.93917      1.92920        -0.002279     -0.012342      0.026850
    total drift:                               -0.004528      0.004531      0.012317

  FREE ENERGIE OF THE ION-ELECTRON SYSTEM (eV)
  free  energy   TOTEN  =      -213.92342802 eV

  energy  without entropy=     -213.92342802  energy(sigma->0) =     -213.92342802

 total charge

[...]

 magnetization (x)

# of ion       s       p       d       f       tot
    1        0.000   0.000   0.005   0.003   0.009
    2        0.001   0.000   0.006   0.003   0.010
    3        0.000   0.000   0.005   0.003   0.009
    4        0.001   0.001   0.008   0.004   0.013
    5        0.001   0.001   0.009   0.004   0.014
    6        0.001   0.001   0.008   0.004   0.013
    7        0.024   0.031   3.208   0.000   3.263
    8        0.024   0.031   3.208   0.000   3.263
    9        0.015   0.007   1.468   0.000   1.490
   10        0.013   0.001   1.555   0.000   1.568
   11        0.015   0.007   1.468   0.000   1.490
   12        0.013   0.001   1.554   0.000   1.568
   13        0.001  -0.015   0.000   0.000  -0.014
   14        0.004  -0.045   0.000   0.000  -0.041
   15        0.006  -0.084   0.000   0.000  -0.078
   16        0.005  -0.074   0.000   0.000  -0.069
   17        0.006  -0.084   0.000   0.000  -0.078
   18        0.004  -0.045   0.000   0.000  -0.041
   19        0.005  -0.027   0.000   0.000  -0.022
   20        0.004  -0.027   0.000   0.000  -0.023
   21        0.004  -0.027   0.000   0.000  -0.023
   22        0.005  -0.027   0.000   0.000  -0.022
   23        0.006  -0.073   0.000   0.000  -0.067
   24        0.006  -0.073   0.000   0.000  -0.067
   25        0.004  -0.028   0.000   0.000  -0.023
   26        0.005  -0.026   0.000   0.000  -0.021
   27        0.006  -0.069   0.000   0.000  -0.063
   28        0.006  -0.069   0.000   0.000  -0.063
   29        0.005  -0.026   0.000   0.000  -0.021
   30        0.004  -0.028   0.000   0.000  -0.023
tot          0.196  -0.767  12.503   0.019  11.952

 BZINTS: Fermi energy:  7.602845;228.000000 electrons
         Band energy:-290.239498;  BLOECHL correction: -0.021152