 vasp.5.4.4.18Apr17-6-g9f103f2a35 (build Oct 03 2018 13:58:34) complex

 executed on             LinuxIFC date 2019.06.04  01:14:37

 INCAR:
 POTCAR:    PAW_PBE La 06Sep2000
 POTCAR:    PAW_PBE Mn 06Sep2000
 POTCAR:    PAW_PBE Ni 02Aug2007
 POTCAR:    PAW_PBE O 08Apr2002

 POTCAR:    PAW_PBE La 06Sep2000
   VRHFIN =La : [core=Kr4d]

   TITEL  = PAW_PBE La 06Sep2000
   POMASS =  138.900; ZVAL   =   11.000    mass and valenz
   ENMAX  =  219.292; ENMIN  =  164.469 eV

 POTCAR:    PAW_PBE Mn 06Sep2000
   VRHFIN =Mn: d6 s1

   TITEL  = PAW_PBE Mn 06Sep2000
   POMASS =   54.938; ZVAL   =    7.000    mass and valenz
   ENMAX  =  269.864; ENMIN  =  202.398 eV

 POTCAR:    PAW_PBE Ni 02Aug2007
   VRHFIN =Ni:

   TITEL  = PAW_PBE Ni 02Aug2007
   POMASS =   58.690; ZVAL   =   10.000    mass and valenz
   ENMAX  =  269.532; ENMIN  =  202.149 eV

 POTCAR:    PAW_PBE O 08Apr2002
   VRHFIN =O: s2p4

   TITEL  = PAW_PBE O 08Apr2002
   POMASS =   16.000; ZVAL   =    6.000    mass and valenz
   ENMAX  =  400.000; ENMIN  =  300.000 eV

 Optimization of the real space projectors (new method)

 maximal supplied QI-value         = 13.42
 optimisation between [QCUT,QGAM] = [ 11.67, 23.35] = [ 38.16,152.62] Ry
 Optimized for a Real-space Cutoff    1.63 Angstroem

   l    n(q)    QCUT    max X(q) W(low)/X(q) W(high)/X(q)  e(spline)
   0     11    11.673    13.882    0.27E-04    0.79E-05    0.11E-06
   0     11    11.673    12.184    0.39E-04    0.13E-04    0.19E-06
   1     11    11.673     4.523    0.73E-05    0.76E-05    0.12E-06
   1     11    11.673     4.424    0.87E-05    0.13E-04    0.19E-06
   2     10    11.673    52.481    0.65E-04    0.36E-04    0.18E-06
   2     10    11.673    38.501    0.61E-04    0.33E-04    0.17E-06
   3     10    11.673    65.631    0.17E-03    0.14E-03    0.37E-06
   3     10    11.673    56.854    0.17E-03    0.14E-03    0.37E-06
 Optimization of the real space projectors (new method)

[...]

   l    n(q)    QCUT    max X(q) W(low)/X(q) W(high)/X(q)  e(spline)
   2      9    11.539    60.317    0.19E-03    0.47E-04    0.16E-06
   2      9    11.539    55.921    0.19E-03    0.48E-04    0.16E-06
   0     10    11.539    51.690    0.80E-04    0.50E-04    0.24E-06
   0     10    11.539    30.015    0.73E-04    0.45E-04    0.22E-06
   1     10    11.539    18.849    0.87E-04    0.16E-03    0.71E-07
   1     10    11.539    14.624    0.73E-04    0.13E-03    0.64E-07
 Optimization of the real space projectors (new method)

 maximal supplied QI-value         = 24.76
 optimisation between [QCUT,QGAM] = [ 11.64, 23.27] = [ 37.91,151.63] Ry
 Optimized for a Real-space Cutoff    1.14 Angstroem

   l    n(q)    QCUT    max X(q) W(low)/X(q) W(high)/X(q)  e(spline)
   0      8    11.635    20.381    0.10E-03    0.33E-03    0.24E-06
   0      8    11.635    15.268    0.11E-03    0.35E-03    0.26E-06
   1      7    11.635     5.964    0.24E-03    0.31E-03    0.30E-06
   1      7    11.635     5.382    0.22E-03    0.25E-03    0.26E-06
  PAW_PBE La 06Sep2000                  :
  PAW_PBE Mn 06Sep2000                  :
  PAW_PBE Ni 02Aug2007                  :
  PAW_PBE O 08Apr2002                   :

 POSCAR: SCEL6_6_1_1_0_4_1/2
  positions in direct lattice
  velocities in cartesian coordinates
 exchange correlation table for  LEXCH =        8
   RHO(1)=    0.500       N(1)  =     2000
   RHO(2)=  100.500       N(2)  =     4000

 ion  position               nearest neighbor table
   1  0.500  0.326  0.840-  18 2.68  23 2.71  30 2.71  28 2.75  21 2.75  17 2.76  17 2.76  22 2.77
                            29 2.77  20 2.81  27 2.81  12 3.30  11 3.33  10 3.36  10 3.36   9 3.39
   2  0.000  0.671  0.672-  21 2.71  28 2.71  22 2.71  29 2.71  17 2.76  16 2.76  16 2.76  15 2.76
                            26 2.80  19 2.80  27 2.80  20 2.80  11 3.34  11 3.34  10 3.34   9 3.34
   3  0.500  0.000  0.500-  14 2.74  16 2.74  21 2.75  24 2.75  25 2.75  28 2.75  19 2.75  26 2.75
                            27 2.75  20 2.75  15 2.75  15 2.75  11 3.37  12 3.37   8 3.37   8 3.37
   4  0.000  0.329  0.328-  24 2.71  25 2.71  23 2.71  30 2.71  13 2.76  14 2.76  14 2.76  15 2.76
                            20 2.80  27 2.80  26 2.80  19 2.80  12 3.34  12 3.34  10 3.34   8 3.34
   5  0.500  0.674  0.160-  18 2.68  22 2.71  29 2.71  25 2.75  24 2.75  13 2.76  13 2.76  30 2.77
                            23 2.77  26 2.81  19 2.81  11 3.30  12 3.33  10 3.36  10 3.36   8 3.39
   6  0.000  0.000  0.000-  13 2.75  17 2.75  18 2.75  18 2.75  23 2.76  29 2.76  30 2.76  22 2.76
                            28 2.76  21 2.76  24 2.76  25 2.76   8 3.37   9 3.37  10 3.37  10 3.37
   7  0.500  0.500  0.500-  14 1.90  16 1.90  19 1.98  20 1.98  26 1.98  27 1.98   3 3.37   3 3.37
                             4 3.41   2 3.41   2 3.41   4 3.41
   8  0.000  0.834  0.333-  24 1.91  25 1.91  19 1.92  26 1.92  15 1.95  13 1.96   4 3.34   6 3.37
                             3 3.37   3 3.37   5 3.39   5 3.39   4 3.41   2 3.42
   9  0.000  0.166  0.667-  21 1.91  28 1.91  27 1.92  20 1.92  15 1.95  17 1.96   2 3.34   6 3.37
                             3 3.37   3 3.37   1 3.39   1 3.39   2 3.41   4 3.42
  10  0.000  0.500  0.000-  22 1.91  23 1.91  29 1.91  30 1.91  13 1.95  17 1.95   2 3.34   4 3.34
                             1 3.36   5 3.36   1 3.36   5 3.36   6 3.37   6 3.37
  11  0.500  0.832  0.832-  18 1.96  21 1.98  28 1.98  16 1.99  22 1.99  29 1.99   5 3.30   1 3.33
                             2 3.34   2 3.34   3 3.37   6 3.38   6 3.38
  12  0.500  0.168  0.168-  18 1.96  24 1.98  25 1.98  14 1.99  23 1.99  30 1.99   1 3.30   5 3.33
                             4 3.34   4 3.34   3 3.37   6 3.38   6 3.38
  13  0.000  0.667  0.166-  10 1.95   8 1.96   6 2.75   5 2.76   5 2.76   4 2.76
  14  0.500  0.336  0.338-   7 1.90  12 1.99   3 2.74   4 2.76   4 2.76
  15  0.000  0.000  0.500-   8 1.95   9 1.95   3 2.75   3 2.75   4 2.76   2 2.76
  16  0.500  0.664  0.662-   7 1.90  11 1.99   3 2.74   2 2.76   2 2.76
  17  0.000  0.333  0.834-  10 1.95   9 1.96   6 2.75   1 2.76   1 2.76   2 2.76
  18  0.500  0.000  0.000-  11 1.96  12 1.96   1 2.68   5 2.68   6 2.75   6 2.75
  19  0.754  0.670  0.415-   8 1.92   7 1.98   3 2.75   2 2.80   4 2.80   5 2.81
  20  0.246  0.330  0.585-   9 1.92   7 1.98   3 2.75   4 2.80   2 2.80   1 2.81
  21  0.755  0.001  0.748-   9 1.91  11 1.98   2 2.71   1 2.75   3 2.75   6 2.76
  22  0.245  0.662  0.918-  10 1.91  11 1.99   2 2.71   5 2.71   6 2.76   1 2.77
  23  0.755  0.338  0.082-  10 1.91  12 1.99   4 2.71   1 2.71   6 2.76   5 2.77
  24  0.245  0.999  0.252-   8 1.91  12 1.98   4 2.71   5 2.75   3 2.75   6 2.76
  25  0.755  0.999  0.252-   8 1.91  12 1.98   4 2.71   5 2.75   3 2.75   6 2.76
  26  0.246  0.670  0.415-   8 1.92   7 1.98   3 2.75   2 2.80   4 2.80   5 2.81
  27  0.754  0.330  0.585-   9 1.92   7 1.98   3 2.75   4 2.80   2 2.80   1 2.81
  28  0.245  0.001  0.748-   9 1.91  11 1.98   2 2.71   1 2.75   3 2.75   6 2.76
  29  0.755  0.662  0.918-  10 1.91  11 1.99   2 2.71   5 2.71   6 2.76   1 2.77
  30  0.245  0.338  0.082-  10 1.91  12 1.99   4 2.71   1 2.71   6 2.76   5 2.77

  LATTYP: Found a simple monoclinic cell.
 ALAT       =    11.7078107294
 B/A-ratio  =     0.4704972936
 C/A-ratio  =     1.4137659392
 COS(beta)  =    -0.9430087061

  Lattice vectors:

 A1 = (  -0.0012309398,   0.0012309398, -11.7078105999)
 A2 = (  -3.8950929400,  -3.8950929400,   0.0000000000)
 A3 = (  -3.8931111642,   3.8931111642,  15.6095970094)

Analysis of symmetry for initial positions (statically):
 Subroutine PRICEL returns:
 Original cell was already a primitive cell.

 Routine SETGRP: Setting up the symmetry group for a
 simple monoclinic supercell.

 Subroutine GETGRP returns: Found  4 space group operations
 (whereof  4 operations were pure point group operations)
 out of a pool of  4 trial point group operations.

The static configuration has the point symmetry C_2h.

Analysis of symmetry for dynamics (positions and initial velocities):
 Subroutine PRICEL returns:
 Original cell was already a primitive cell.

[...]

The dynamic configuration has the point symmetry C_2h.

Analysis of structural, dynamic, and magnetic symmetry:
 Subroutine PRICEL returns:
 Original cell was already a primitive cell.

 Routine SETGRP: Setting up the symmetry group for a
 simple monoclinic supercell.

 Subroutine GETGRP returns: Found  4 space group operations
 (whereof  4 operations were pure point group operations)
 out of a pool of  4 trial point group operations.

The magnetic configuration has the point symmetry C_2h.

 Subroutine INISYM returns: Found  4 space group operations
 (whereof  4 operations are pure point group operations),
 and found     1 'primitive' translations

 KPOINTS: Automatic mesh

Automatic generation of k-mesh.
 generate k-points for:    4    3    2
Space group operators:
 irot       det(A)        alpha          n_x          n_y          n_z        tau_x        tau_y        tau_z
    1     1.000000     0.000001     1.000000     0.000000     0.000000     0.000000     0.000000     0.000000
    2    -1.000000     0.000001     1.000000     0.000000     0.000000     0.000000     0.000000     0.000000
    3     1.000000   180.000000     0.707107     0.707107     0.000000     0.000000     0.000000     0.000000
    4    -1.000000   180.000000     0.707107     0.707107     0.000000     0.000000     0.000000     0.000000

 Subroutine IBZKPT returns following result:

 Found     12 irreducible k-points:

 Following reciprocal coordinates:
            Coordinates               Weight
  0.000000  0.000000  0.000000      1.000000
  0.250000  0.000000  0.000000      2.000000
  0.500000  0.000000  0.000000      1.000000
  0.000000  0.333333 -0.000000      2.000000
  0.250000  0.333333 -0.000000      4.000000
  0.500000  0.333333  0.000000      2.000000
  0.000000  0.000000  0.500000      1.000000
  0.250000  0.000000  0.500000      2.000000
  0.500000  0.000000  0.500000      1.000000
  0.000000  0.333333  0.500000      2.000000
  0.250000  0.333333  0.500000      4.000000
  0.500000  0.333333  0.500000      2.000000

 Following cartesian coordinates:
            Coordinates               Weight
  0.000000  0.000000  0.000000      1.000000
  0.032092  0.032092  0.000000      2.000000
  0.064183  0.064183  0.000000      1.000000
 -0.028531  0.028531  0.028477      2.000000
  0.003560  0.060623  0.028477      4.000000
  0.035652  0.092715  0.028477      2.000000
  0.021392 -0.021392  0.042702      1.000000
  0.053483  0.010700  0.042702      2.000000
  0.085575  0.042791  0.042702      1.000000
 -0.007140  0.007140  0.071179      2.000000
  0.024952  0.039231  0.071179      4.000000
  0.057044  0.071323  0.071179      2.000000

 TETIRR: Found     72 inequivalent tetrahedra from      144

 SYSTEM =  final
 POSCAR =  SCEL6_6_1_1_0_4_1/2

 Startparameter for this run:
   NWRITE =      2    write-flag & timer
   PREC   = accura    normal or accurate (medium, high low for compatibility)
   ISTART =      0    job   : 0-new  1-cont  2-samecut
   ICHARG =      1    charge: 1-file 2-atom 10-const
   ISPIN  =      2    spin polarized calculation?
   LNONCOLLINEAR =      F non collinear calculations
[...]
     30      -7.7239      1.00000
     31      -7.7219      1.00000
     32      -7.7139      1.00000
     33      -7.6634      1.00000
     34      -7.5051      1.00000
     35      -7.4467      1.00000
     36      -7.4407      1.00000
     37      -7.4054      1.00000
     38      -7.3075      1.00000
     39      -7.2371      1.00000
     40      -7.2347      1.00000
     41      -7.1329      1.00000
     42      -7.1006      1.00000
     43       0.4386      1.00000
     44       0.4415      1.00000
     45       0.4480      1.00000
     46       0.6215      1.00000
     47       0.8907      1.00000
     48       1.2191      1.00000
     49       1.2680      1.00000
     50       1.3326      1.00000
     51       1.3752      1.00000
     52       1.4561      1.00000
     53       1.4699      1.00000
     54       1.6844      1.00000
     55       1.7309      1.00000
     56       1.7545      1.00000
     57       1.7740      1.00000
     58       1.7957      1.00000
     59       1.8782      1.00000
     60       1.8785      1.00000
[...]
    130      10.5921      0.00000
    131      10.6390      0.00000
    132      10.6438      0.00000
    133      10.6830      0.00000
    134      10.6981      0.00000
    135      10.7118      0.00000
    136      10.7118      0.00000
    137      10.7475      0.00000
    138      10.7694      0.00000
    139      10.7942      0.00000
    140      10.8028      0.00000
    141      10.8299      0.00000
    142      10.8406      0.00000
    143      10.8639      0.00000
    144      10.8910      0.00000

[...]

 spin component 2

[...]

 k-point    12 :       0.5000    0.3333    0.5000
  band No.  band energies     occupation
      1     -24.1498      1.00000
      2     -24.1454      1.00000
      3     -24.1281      1.00000
      4     -24.1165      1.00000
      5     -24.0926      1.00000
      6     -24.0926      1.00000
      7     -11.4854      1.00000
      8     -11.1745      1.00000
      9     -11.0142      1.00000
     10     -10.8425      1.00000
     11     -10.7576      1.00000
     12     -10.6207      1.00000
     13     -10.4215      1.00000
     14     -10.2110      1.00000
     15     -10.1380      1.00000
     16      -9.9259      1.00000
     17      -9.8835      1.00000
     18      -9.8711      1.00000
     19      -9.8628      1.00000
     20      -9.8236      1.00000
     21      -9.7615      1.00000
     22      -9.7282      1.00000
     23      -9.6736      1.00000
     24      -9.3038      1.00000
     25      -7.7149      1.00000
     26      -7.6777      1.00000
     27      -7.6721      1.00000
     28      -7.6424      1.00000
     29      -7.6156      1.00000
     30      -7.6011      1.00000
     31      -7.5917      1.00000
     32      -7.5655      1.00000
     33      -7.5631      1.00000
     34      -7.5213      1.00000
     35      -7.3913      1.00000
     36      -7.2901      1.00000
     37      -7.2529      1.00000
     38      -7.1737      1.00000
     39      -7.1548      1.00000
     40      -7.0974      1.00000
     41      -6.9297      1.00000
     42      -6.8124      1.00000
     43       1.7380      1.00000
     44       1.8386      1.00000
     45       1.8443      1.00000
     46       1.8789      1.00000
     47       2.2639      1.00000
     48       2.2853      1.00000
     49       2.3827      1.00000
     50       2.6177      1.00000
     51       2.8471      1.00000
     52       2.8568      1.00000
     53       2.9304      1.00000
     54       2.9565      1.00000
     55       2.9857      1.00000
     56       3.0262      1.00000
     57       3.0876      1.00000
     58       3.1454      1.00000
     59       3.1529      1.00000
     60       3.1819      1.00000
[...]
    130      10.8016      0.00000
    131      10.8067      0.00000
    132      10.8140      0.00000
    133      10.8189      0.00000
    134      10.8350      0.00000
    135      10.8409      0.00000
    136      10.8649      0.00000
    137      10.8926      0.00000
    138      10.9140      0.00000
    139      10.9396      0.00000
    140      10.9543      0.00000
    141      10.9712      0.00000
    142      11.0003      0.00000
    143      11.0667      0.00000
    144      11.1039      0.00000

 soft charge-density along one line, spin component           1
         0         1         2         3         4         5         6         7         8         9
 total charge-density along one line

 soft charge-density along one line, spin component           2
         0         1         2         3         4         5         6         7         8         9
 total charge-density along one line

------------------------ aborting loop because EDIFF is reached ----------------------------------------

 total charge

# of ion       s       p       d       f       tot
    1        1.999   5.697   0.483   0.187   8.365
    2        1.999   5.698   0.483   0.188   8.367
    3        1.999   5.698   0.486   0.189   8.372
    4        1.999   5.698   0.483   0.188   8.367
    5        1.999   5.697   0.483   0.187   8.365
    6        1.999   5.696   0.484   0.187   8.366
    7        0.315   0.483   4.879   0.000   5.677
    8        0.341   0.531   4.878   0.000   5.751
    9        0.341   0.531   4.878   0.000   5.751
   10        0.349   0.551   4.870   0.000   5.770
   11        0.384   0.548   8.319   0.000   9.250
   12        0.384   0.548   8.319   0.000   9.250
   13        1.566   3.458   0.000   0.000   5.025
   14        1.559   3.456   0.000   0.000   5.015
   15        1.567   3.458   0.000   0.000   5.025
   16        1.559   3.456   0.000   0.000   5.015
   17        1.566   3.458   0.000   0.000   5.025
   18        1.554   3.452   0.000   0.000   5.007
   19        1.563   3.464   0.000   0.000   5.027
   20        1.563   3.464   0.000   0.000   5.027
   21        1.561   3.462   0.000   0.000   5.023
   22        1.561   3.460   0.000   0.000   5.020
   23        1.561   3.460   0.000   0.000   5.020
   24        1.561   3.462   0.000   0.000   5.023
   25        1.560   3.457   0.000   0.000   5.017
   26        1.562   3.460   0.000   0.000   5.022
   27        1.562   3.460   0.000   0.000   5.022
   28        1.560   3.457   0.000   0.000   5.017
   29        1.560   3.461   0.000   0.000   5.020
   30        1.560   3.461   0.000   0.000   5.020
tot         42.212  99.640  39.045   1.126 182.023

 magnetization (x)

[...]

  FORCE on cell =-STRESS in cart. coord.  units (eV):
  Direction    XX          YY          ZZ          XY          YZ          ZX
  Alpha Z   976.60239   976.60239   976.60239
  Ewald   -5013.78782 -5013.78782 -5041.68374     9.34264     1.28757    -1.28757
  Hartree  1085.75435  1085.75435  1069.76020     9.70589     1.94064    -1.94064
  E(xc)   -1025.94275 -1025.94275 -1025.86800    -0.00573    -0.00495     0.00495
  Local    -605.05171  -605.05171  -561.55594   -19.07619    -3.04027     3.04027
  n-local   402.77671   402.83615   403.77827     0.13102     0.23238     0.14412
  augment   344.34258   344.34258   344.69835    -0.02119    -0.00095     0.00151
  Kinetic  3835.06275  3836.11573  3834.55506    -0.06654    -0.76422    -0.25872
  Fock        0.00000     0.00000     0.00000     0.00000     0.00000     0.00000
  Total       0.31270     0.31270     0.28659     0.00957    -0.00650     0.00650
  in kB       1.41036     1.41036     1.29260     0.04314    -0.02931     0.02931

 VOLUME and BASIS-vectors are now :
  energy-cutoff  :      520.00
  volume of cell :      355.22
      direct lattice vectors                 reciprocal lattice vectors
     3.895092940  3.895092940  0.000000000     0.128366642  0.128366642  0.000000000
    -3.894342104  3.894342104  3.901786409    -0.085594205  0.085594205  0.085431065
     3.895573044 -3.895573044  7.806024190     0.042783663 -0.042783663  0.085404070

  length of vectors
     5.508493262  6.749499095  9.554317995     0.181537846  0.148159383  0.104664888

 FORCES acting on ions
    electron-ion (+dipol)            ewald-force                    non-local-force                 convergence-correction
   0.422E+02 -.422E+02 0.377E+02   -.416E+02 0.416E+02 -.375E+02   -.465E+00 0.465E+00 -.238E+00   -.247E-01 0.247E-01 -.288E-01
   0.301E+01 -.301E+01 0.715E+02   -.303E+01 0.303E+01 -.709E+02   0.268E-01 -.268E-01 -.557E+00   -.497E-02 0.497E-02 -.492E-01
   -.940E-12 0.922E-12 0.315E-12   -.355E-13 0.142E-13 -.426E-13   -.122E-18 -.949E-19 0.000E+00   -.163E-12 0.190E-12 -.476E-12
   -.301E+01 0.301E+01 -.715E+02   0.303E+01 -.303E+01 0.709E+02   -.268E-01 0.268E-01 0.557E+00   0.497E-02 -.497E-02 0.492E-01
   -.422E+02 0.422E+02 -.377E+02   0.416E+02 -.416E+02 0.375E+02   0.465E+00 -.465E+00 0.238E+00   0.247E-01 -.247E-01 0.288E-01
   -.307E-13 0.166E-14 -.435E-13   -.191E-13 0.000E+00 -.142E-13   -.108E-18 0.108E-18 0.000E+00   0.242E-12 -.206E-12 0.451E-12
   -.347E-11 0.374E-11 -.206E-11   0.231E-13 -.311E-14 0.711E-13   -.169E-20 0.000E+00 0.000E+00   -.181E-12 0.191E-12 -.265E-12
   -.204E+02 0.204E+02 -.418E+01   0.203E+02 -.203E+02 0.427E+01   0.190E+00 -.190E+00 -.617E-01   0.203E-01 -.203E-01 0.564E-02
   0.204E+02 -.204E+02 0.418E+01   -.203E+02 0.203E+02 -.427E+01   -.190E+00 0.190E+00 0.617E-01   -.203E-01 0.203E-01 -.564E-02
   -.339E-13 0.389E-13 -.316E-13   0.284E-13 -.178E-14 0.320E-13   0.424E-21 -.424E-21 -.169E-20   0.157E-12 -.135E-12 0.288E-12
   0.351E+01 -.351E+01 0.398E+02   -.369E+01 0.369E+01 -.384E+02   0.195E+00 -.195E+00 -.147E+01   -.530E-02 0.530E-02 -.283E-01
   -.351E+01 0.351E+01 -.398E+02   0.369E+01 -.369E+01 0.384E+02   -.195E+00 0.195E+00 0.147E+01   0.530E-02 -.530E-02 0.283E-01
   -.117E+02 0.117E+02 -.176E+02   0.119E+02 -.119E+02 0.181E+02   -.180E+00 0.180E+00 -.639E+00   0.113E-01 -.113E-01 0.118E-01
   0.219E+01 -.219E+01 -.581E+02   -.248E+01 0.248E+01 0.532E+02   0.312E+00 -.312E+00 0.492E+01   0.295E-02 -.295E-02 0.586E-01
   0.164E-12 -.156E-12 0.302E-12   -.533E-14 0.142E-13 -.586E-13   -.339E-20 0.339E-20 0.000E+00   -.124E-12 0.106E-12 -.314E-12
   -.219E+01 0.219E+01 0.581E+02   0.248E+01 -.248E+01 -.532E+02   -.312E+00 0.312E+00 -.492E+01   -.295E-02 0.295E-02 -.586E-01
   0.117E+02 -.117E+02 0.176E+02   -.119E+02 0.119E+02 -.181E+02   0.180E+00 -.180E+00 0.639E+00   -.113E-01 0.113E-01 -.118E-01
   -.455E-11 0.490E-11 -.270E-11   -.639E-13 0.266E-14 -.355E-13   -.508E-20 -.847E-20 0.102E-19   0.121E-12 -.141E-12 0.270E-12
   -.116E+02 0.202E+02 0.139E+01   0.118E+02 -.226E+02 -.160E+01   -.224E+00 0.248E+01 0.200E+00   0.126E-01 -.649E-02 0.356E-02
   0.116E+02 -.202E+02 -.139E+01   -.118E+02 0.226E+02 0.160E+01   0.224E+00 -.248E+01 -.200E+00   -.126E-01 0.649E-02 -.356E-02
   0.121E+02 -.457E+02 0.124E+02   -.123E+02 0.409E+02 -.121E+02   0.290E+00 0.481E+01 -.278E+00   -.933E-02 0.474E-01 -.133E-01
   -.159E+00 0.319E+02 0.137E+02   0.184E+00 -.266E+02 -.137E+02   -.236E-01 -.524E+01 0.533E-02   -.348E-02 -.410E-01 -.101E-01
   0.159E+00 -.319E+02 -.137E+02   -.184E+00 0.266E+02 0.137E+02   0.236E-01 0.524E+01 -.533E-02   0.348E-02 0.410E-01 0.101E-01
   -.121E+02 0.457E+02 -.124E+02   0.123E+02 -.409E+02 0.121E+02   -.290E+00 -.481E+01 0.278E+00   0.933E-02 -.474E-01 0.133E-01
   -.457E+02 0.121E+02 -.124E+02   0.409E+02 -.123E+02 0.121E+02   0.481E+01 0.290E+00 0.278E+00   0.474E-01 -.933E-02 0.133E-01
   -.202E+02 0.116E+02 0.139E+01   0.226E+02 -.118E+02 -.160E+01   -.248E+01 0.224E+00 0.200E+00   0.649E-02 -.126E-01 0.356E-02
   0.202E+02 -.116E+02 -.139E+01   -.226E+02 0.118E+02 0.160E+01   0.248E+01 -.224E+00 -.200E+00   -.649E-02 0.126E-01 -.356E-02
   0.457E+02 -.121E+02 0.124E+02   -.409E+02 0.123E+02 -.121E+02   -.481E+01 -.290E+00 -.278E+00   -.474E-01 0.933E-02 -.133E-01
   -.319E+02 0.159E+00 0.137E+02   0.266E+02 -.184E+00 -.137E+02   0.524E+01 0.236E-01 0.533E-02   0.410E-01 0.348E-02 -.101E-01
   0.319E+02 -.159E+00 -.137E+02   -.266E+02 0.184E+00 0.137E+02   -.524E+01 -.236E-01 -.533E-02   -.410E-01 -.348E-02 0.101E-01
   -.121E-10 0.156E-10 0.117E-11   -.284E-13 -.161E-13 0.533E-13   0.178E-14 -.175E-14 -.555E-15   -.745E-13 -.423E-13 0.529E-13

 POSITION                                       TOTAL-FORCE (eV/Angst)
      3.95071     -0.05561      7.82989         0.089881     -0.089881     -0.055176
      0.00459     -0.00459      7.86177         0.002458     -0.002458     -0.011415
      3.89533     -0.00024      3.90301        -0.000000     -0.000000      0.000000
     -0.00336      0.00336      3.84604        -0.002458      0.002458      0.011415
     -0.05438      3.94947      3.87792        -0.089881      0.089881      0.055176
      0.00000      0.00000      0.00000        -0.000000     -0.000000      0.000000
      1.94816      1.94693      5.85391        -0.000000     -0.000000      0.000000
     -1.95180      1.95180      5.85669         0.039696     -0.039696      0.035423
      1.95303     -1.95303      5.85112        -0.039696      0.039696     -0.035423
     -1.94717      1.94717      1.95089        -0.000000     -0.000000      0.000000
      1.94898      1.94611      9.74518         0.008830     -0.008830     -0.040210
      1.94735      1.94775      1.96263        -0.008830      0.008830      0.040210
     -1.95169      1.95169      3.89979        -0.054733      0.054733     -0.068841
      1.95504      1.94005      3.95134         0.018408     -0.018408      0.024640
      1.94779     -1.94779      3.90301        -0.000000     -0.000000      0.000000
      1.94128      1.95381      7.75647        -0.018408      0.018408     -0.024640
      1.95292     -1.95292      7.80802         0.054733     -0.054733      0.068841
      1.94755      1.94755      0.00000        -0.000000     -0.000000      0.000000
      1.94518      3.92918      5.85832        -0.013907      0.075051     -0.001092
      1.95114     -0.03531      5.84949         0.013907     -0.075051      0.001092
      5.84661      0.03280      5.84023         0.031913      0.004423     -0.003307
      1.94883     -0.04289      9.74613        -0.002278     -0.012942     -0.012622
      1.94750      3.93675      1.96168         0.002278      0.012942      0.012622
     -1.95028      3.86106      5.86758        -0.031913     -0.004423      0.003307
      0.03403      5.84538      5.86758         0.004423      0.031913      0.003307
     -0.03408      1.94991      5.85832        -0.075051      0.013907     -0.001092
      3.93041      1.94395      5.84949         0.075051     -0.013907      0.001092
      3.86229     -1.95151      5.84023        -0.004423     -0.031913     -0.003307
      3.93798      1.94626      9.74613         0.012942      0.002278     -0.012622
     -0.04166      1.94760      1.96168        -0.012942     -0.002278      0.012622
    total drift:                               -0.000000      0.000000      0.000000

  FREE ENERGIE OF THE ION-ELECTRON SYSTEM (eV)
  free  energy   TOTEN  =      -226.78086970 eV

  energy  without entropy=     -226.78086970  energy(sigma->0) =     -226.78086970

 total charge

[...]

 magnetization (x)

# of ion       s       p       d       f       tot
    1        0.000   0.001   0.008   0.004   0.014
    2        0.001   0.001   0.010   0.005   0.017
    3        0.001   0.001   0.011   0.005   0.017
    4        0.001   0.001   0.010   0.005   0.017
    5        0.000   0.001   0.008   0.004   0.013
    6        0.000   0.001   0.007   0.003   0.011
    7        0.021   0.026   3.682   0.000   3.729
    8        0.026   0.031   3.505   0.000   3.562
    9        0.026   0.031   3.505   0.000   3.562
   10        0.027   0.036   3.398   0.000   3.461
   11        0.007  -0.002   1.706   0.000   1.711
   12        0.007  -0.002   1.706   0.000   1.711
   13        0.007  -0.043   0.000   0.000  -0.036
   14        0.004  -0.013   0.000   0.000  -0.009
   15        0.007  -0.051   0.000   0.000  -0.044
   16        0.004  -0.013   0.000   0.000  -0.009
   17        0.007  -0.043   0.000   0.000  -0.036
   18        0.006   0.035   0.000   0.000   0.041
   19        0.005  -0.018   0.000   0.000  -0.014
   20        0.005  -0.018   0.000   0.000  -0.014
   21        0.005  -0.004   0.000   0.000   0.001
   22        0.005  -0.006   0.000   0.000  -0.001
   23        0.005  -0.006   0.000   0.000  -0.001
   24        0.005  -0.004   0.000   0.000   0.001
   25        0.005  -0.011   0.000   0.000  -0.006
   26        0.004  -0.024   0.000   0.000  -0.020
   27        0.004  -0.024   0.000   0.000  -0.020
   28        0.005  -0.011   0.000   0.000  -0.006
   29        0.004  -0.005   0.000   0.000  -0.001
   30        0.004  -0.005   0.000   0.000  -0.001
tot          0.208  -0.140  17.556   0.028  17.653

 BZINTS: Fermi energy:  7.909299;222.000000 electrons
         Band energy:-368.715271;  BLOECHL correction: -0.010190