 vasp.5.4.4.18Apr17-6-g9f103f2a35 (build Oct 03 2018 13:58:34) complex

 executed on             LinuxIFC date 2019.06.04  01:14:43

 INCAR:
 POTCAR:    PAW_PBE La 06Sep2000
 POTCAR:    PAW_PBE Mn 06Sep2000
 POTCAR:    PAW_PBE Ni 02Aug2007
 POTCAR:    PAW_PBE O 08Apr2002

 POTCAR:    PAW_PBE La 06Sep2000
   VRHFIN =La : [core=Kr4d]

   TITEL  = PAW_PBE La 06Sep2000
   POMASS =  138.900; ZVAL   =   11.000    mass and valenz
   ENMAX  =  219.292; ENMIN  =  164.469 eV

 POTCAR:    PAW_PBE Mn 06Sep2000
   VRHFIN =Mn: d6 s1

   TITEL  = PAW_PBE Mn 06Sep2000
   POMASS =   54.938; ZVAL   =    7.000    mass and valenz
   ENMAX  =  269.864; ENMIN  =  202.398 eV

 POTCAR:    PAW_PBE Ni 02Aug2007
   VRHFIN =Ni:

   TITEL  = PAW_PBE Ni 02Aug2007
   POMASS =   58.690; ZVAL   =   10.000    mass and valenz
   ENMAX  =  269.532; ENMIN  =  202.149 eV

 POTCAR:    PAW_PBE O 08Apr2002
   VRHFIN =O: s2p4

   TITEL  = PAW_PBE O 08Apr2002
   POMASS =   16.000; ZVAL   =    6.000    mass and valenz
   ENMAX  =  400.000; ENMIN  =  300.000 eV

 Optimization of the real space projectors (new method)

 maximal supplied QI-value         = 13.42
 optimisation between [QCUT,QGAM] = [ 11.67, 23.35] = [ 38.16,152.62] Ry
 Optimized for a Real-space Cutoff    1.63 Angstroem

   l    n(q)    QCUT    max X(q) W(low)/X(q) W(high)/X(q)  e(spline)
   0     11    11.673    13.882    0.27E-04    0.79E-05    0.11E-06
   0     11    11.673    12.184    0.39E-04    0.13E-04    0.19E-06
   1     11    11.673     4.523    0.73E-05    0.76E-05    0.12E-06
   1     11    11.673     4.424    0.87E-05    0.13E-04    0.19E-06
   2     10    11.673    52.481    0.65E-04    0.36E-04    0.18E-06
   2     10    11.673    38.501    0.61E-04    0.33E-04    0.17E-06
   3     10    11.673    65.631    0.17E-03    0.14E-03    0.37E-06
   3     10    11.673    56.854    0.17E-03    0.14E-03    0.37E-06
 Optimization of the real space projectors (new method)

[...]

   l    n(q)    QCUT    max X(q) W(low)/X(q) W(high)/X(q)  e(spline)
   2      9    11.539    60.317    0.19E-03    0.47E-04    0.16E-06
   2      9    11.539    55.921    0.19E-03    0.48E-04    0.16E-06
   0     10    11.539    51.690    0.80E-04    0.50E-04    0.24E-06
   0     10    11.539    30.015    0.73E-04    0.45E-04    0.22E-06
   1     10    11.539    18.849    0.87E-04    0.16E-03    0.71E-07
   1     10    11.539    14.624    0.73E-04    0.13E-03    0.64E-07
 Optimization of the real space projectors (new method)

 maximal supplied QI-value         = 24.76
 optimisation between [QCUT,QGAM] = [ 11.64, 23.27] = [ 37.91,151.63] Ry
 Optimized for a Real-space Cutoff    1.14 Angstroem

   l    n(q)    QCUT    max X(q) W(low)/X(q) W(high)/X(q)  e(spline)
   0      8    11.635    20.381    0.10E-03    0.33E-03    0.24E-06
   0      8    11.635    15.268    0.11E-03    0.35E-03    0.26E-06
   1      7    11.635     5.964    0.24E-03    0.31E-03    0.30E-06
   1      7    11.635     5.382    0.22E-03    0.25E-03    0.26E-06
  PAW_PBE La 06Sep2000                  :
  PAW_PBE Mn 06Sep2000                  :
  PAW_PBE Ni 02Aug2007                  :
  PAW_PBE O 08Apr2002                   :

 POSCAR: SCEL4_1_4_1_2_0_0/0
  positions in direct lattice
  velocities in cartesian coordinates
 exchange correlation table for  LEXCH =        8
   RHO(1)=    0.500       N(1)  =     2000
   RHO(2)=  100.500       N(2)  =     4000

 ion  position               nearest neighbor table
   1  0.000  0.255  0.494-  20 2.69  15 2.72  15 2.72  12 2.73  12 2.73  19 2.75  18 2.77  11 2.79
                            11 2.79  13 2.80  13 2.80   8 3.32   8 3.32   5 3.38   5 3.38   6 3.39
   2  0.000  0.495  0.006-  20 2.69  16 2.72  16 2.72  10 2.73  10 2.73  17 2.75  18 2.77  11 2.79
                            11 2.79  14 2.80  14 2.80   8 3.32   8 3.32   7 3.38   7 3.38   6 3.39
   3  0.000  0.740  0.494-  20 2.69  15 2.72  15 2.72  10 2.73  10 2.73  19 2.75  18 2.77   9 2.79
                             9 2.79  13 2.80  13 2.80   8 3.32   8 3.32   5 3.38   5 3.38   6 3.39
   4  0.000  0.010  0.006-  20 2.69  16 2.72  16 2.72  12 2.73  12 2.73  17 2.75  18 2.77   9 2.79
                             9 2.79  14 2.80  14 2.80   8 3.32   8 3.32   7 3.38   7 3.38   6 3.39
   5  0.500  0.625  0.751-  14 1.91  15 1.92  11 1.95   9 1.95  19 1.95  19 1.95   1 3.38   1 3.38
                             3 3.38   3 3.38
   6  0.500  0.875  0.250-  10 1.90  12 1.90  18 1.95  18 1.95  13 1.99  14 1.99   1 3.39   1 3.39
                             2 3.39   2 3.39   3 3.39   3 3.39   4 3.39   4 3.39
   7  0.500  0.125  0.749-  13 1.91  16 1.92  11 1.95   9 1.95  17 1.95  17 1.95   2 3.38   2 3.38
                             4 3.38   4 3.38
   8  0.500  0.375  0.250-  20 1.95  20 1.95  15 1.99  16 1.99  10 2.00  12 2.00   3 3.32   3 3.32
                             4 3.32   4 3.32   2 3.32   2 3.32   1 3.32   1 3.32
   9  0.500  0.875  0.750-   5 1.95   7 1.95   3 2.79   4 2.79   3 2.79   4 2.79
  10  0.500  0.631  0.250-   6 1.90   8 2.00   2 2.73   2 2.73   3 2.73   3 2.73
  11  0.500  0.375  0.750-   5 1.95   7 1.95   1 2.79   2 2.79   1 2.79   2 2.79
  12  0.500  0.119  0.250-   6 1.90   8 2.00   1 2.73   1 2.73   4 2.73   4 2.73
  13  0.500  0.002  0.504-   7 1.91   6 1.99   3 2.80   3 2.80   1 2.80   1 2.80
  14  0.500  0.748  0.996-   5 1.91   6 1.99   4 2.80   4 2.80   2 2.80   2 2.80
  15  0.500  0.502  0.504-   5 1.92   8 1.99   1 2.72   1 2.72   3 2.72   3 2.72
  16  0.500  0.248  0.996-   7 1.92   8 1.99   2 2.72   2 2.72   4 2.72   4 2.72
  17  0.000  0.126  0.751-   7 1.95   7 1.95   2 2.75   4 2.75
  18  0.000  0.875  0.250-   6 1.95   6 1.95   1 2.77   2 2.77   3 2.77   4 2.77
  19  0.000  0.624  0.749-   5 1.95   5 1.95   1 2.75   3 2.75
  20  0.000  0.375  0.250-   8 1.95   8 1.95   3 2.69   4 2.69   1 2.69   2 2.69

  LATTYP: Found a base centered orthorhombic cell.
 ALAT       =     7.8008196186
 B/A-ratio  =     2.0041130882
 C/A-ratio  =     0.5004657173

  Lattice vectors:

 A1 = (   0.0000000000,   7.8168623482,   3.9004098044)
 A2 = (   0.0000000000,  -7.8168623482,   3.9004098142)
 A3 = (   3.9040427857,   0.0000000000,   0.0000000000)

Analysis of symmetry for initial positions (statically):
 Subroutine PRICEL returns:
 Original cell was already a primitive cell.

 Routine SETGRP: Setting up the symmetry group for a
 base centered orthorhombic supercell.

 Subroutine GETGRP returns: Found  8 space group operations
 (whereof  2 operations were pure point group operations)
 out of a pool of  8 trial point group operations.

The static configuration has the point symmetry C_1h.
 The point group associated with its full space group is D_2h.

Analysis of symmetry for dynamics (positions and initial velocities):
 Subroutine PRICEL returns:
 Original cell was already a primitive cell.

[...]

The dynamic configuration has the point symmetry C_1h.
 The point group associated with its full space group is D_2h.

Analysis of structural, dynamic, and magnetic symmetry:
 Subroutine PRICEL returns:
 Original cell was already a primitive cell.

 Routine SETGRP: Setting up the symmetry group for a
 base centered orthorhombic supercell.

 Subroutine GETGRP returns: Found  8 space group operations
 (whereof  2 operations were pure point group operations)
 out of a pool of  8 trial point group operations.

The magnetic configuration has the point symmetry C_1h.
 The point group associated with its full space group is D_2h.

 Subroutine INISYM returns: Found  8 space group operations
 (whereof  2 operations are pure point group operations),
 and found     1 'primitive' translations

 KPOINTS: Automatic mesh

Automatic generation of k-mesh.
 generate k-points for:    5    3    3
Space group operators:
 irot       det(A)        alpha          n_x          n_y          n_z        tau_x        tau_y        tau_z
    1     1.000000     0.000000     1.000000     0.000000     0.000000     0.000000     0.000000     0.000000
    2    -1.000000   180.000000     1.000000     0.000000     0.000000     0.000000     0.000000     0.000000
    3    -1.000000     0.000000     1.000000     0.000000     0.000000     0.000000     0.750000     0.500000
    4     1.000000   180.000000     1.000000     0.000000     0.000000     0.000000     0.750000     0.500000
    5     1.000000   180.000000     0.000000    -1.000000     0.000000     0.000000     0.500000     0.000000
    6    -1.000000   180.000000     0.000000    -1.000000     0.000000     0.000000     0.250000    -0.500000
    7     1.000000   179.999999     0.000000     0.000000     1.000000     0.000000     0.250000    -0.500000
    8    -1.000000   179.999999     0.000000     0.000000     1.000000     0.000000     0.500000     0.000000

 Subroutine IBZKPT returns following result:

 Found     12 irreducible k-points:

 Following reciprocal coordinates:
            Coordinates               Weight
  0.000000  0.000000  0.000000      1.000000
  0.200000  0.000000  0.000000      2.000000
  0.400000  0.000000  0.000000      2.000000
  0.000000  0.333333  0.000000      4.000000
  0.200000  0.333333  0.000000      8.000000
  0.400000  0.333333  0.000000      8.000000
  0.000000  0.000000  0.333333      2.000000
  0.200000  0.000000  0.333333      4.000000
  0.400000  0.000000  0.333333      4.000000
  0.000000  0.333333  0.333333      2.000000
  0.200000  0.333333  0.333333      4.000000
  0.400000  0.333333  0.333333      4.000000

 Following cartesian coordinates:
            Coordinates               Weight
  0.000000  0.000000  0.000000      1.000000
 -0.051229  0.000000  0.000000      2.000000
 -0.102458  0.000000  0.000000      2.000000
  0.000000  0.021321  0.042731      4.000000
 -0.051229  0.021321  0.042731      8.000000
 -0.102458  0.021321  0.042731      8.000000
  0.000000  0.042643 -0.000000      2.000000
 -0.051229  0.042643 -0.000000      4.000000
 -0.102458  0.042643 -0.000000      4.000000
  0.000000  0.063964  0.042731      2.000000
 -0.051229  0.063964  0.042731      4.000000
 -0.102458  0.063964  0.042731      4.000000

 TETIRR: Found     90 inequivalent tetrahedra from      270

 SYSTEM =  final
 POSCAR =  SCEL4_1_4_1_2_0_0/0

 Startparameter for this run:
   NWRITE =      2    write-flag & timer
   PREC   = accura    normal or accurate (medium, high low for compatibility)
   ISTART =      0    job   : 0-new  1-cont  2-samecut
   ICHARG =      1    charge: 1-file 2-atom 10-const
   ISPIN  =      2    spin polarized calculation?
   LNONCOLLINEAR =      F non collinear calculations
   LSORBIT =      F    spin-orbit coupling
   INIWAV =      1    electr: 0-lowe 1-rand  2-diag
   LASPH  =      F    aspherical Exc in radial PAW
   METAGGA=      F    non-selfconsistent MetaGGA calc.

 Electronic Relaxation 1
   ENCUT  =  520.0 eV  38.22 Ry    6.18 a.u.   7.26 14.50 16.24*2*pi/ulx,y,z
   ENINI  =  520.0     initial cutoff
   ENAUG  =  605.4 eV  augmentation charge cutoff
   NELM   =    100;   NELMIN=  2; NELMDL= -5     # of ELM steps
   EDIFF  = 0.1E-02   stopping-criterion for ELM
   LREAL  =      T    real-space projection
   NLSPLINE    = F    spline interpolate recip. space projectors
   LCOMPAT=      F    compatible to vasp.4.4
[...]
  0.5217  0.5217  0.5442

[...]

--------------------------------------- Iteration      1(  19)  ---------------------------------------

atom =   1  type =  1  l = 0

[...]

  o =  0.7870  v =  0.0000  1.0000      0.0000  0.0000
  o =  0.7926  v =  1.0000  0.0000      0.0000  0.0000
atom =  20  type =  4  l = 0

 onsite density matrix

[...]

  0.7814

 occupancies and eigenvectors

  o =  0.7814  v =  0.0000  1.0000      0.0000  0.0000
  o =  0.7877  v =  1.0000  0.0000      0.0000  0.0000
 BZINTS: Fermi energy:  7.993855;147.000000 electrons
         Band energy:-256.877982;  BLOECHL correction: -0.078597

 eigenvalue-minimisations  :  4573
 total energy-change (2. order) :-0.2964482E-03  (-0.5512942E-03)
 number of electron     147.0000021 magnetization      13.0003486
 augmentation part       16.4840437 magnetization       9.3257709

 Free energy of the ion-electron system (eV)
  alpha Z        PSCENC =       649.02637745
  Ewald energy   TEWEN  =     -9889.28250053
  -Hartree energ DENC   =     -2095.08424397
  -exchange      EXHF   =         0.00000000
  -V(xc)+E(xc)   XCENC  =       472.21801327
  PAW double counting   =     11880.48641309   -11893.62604418
  entropy T*S    EENTRO =         0.00000000
  eigenvalues    EBANDS =      -256.87798163
  atomic energy  EATOM  =     10980.12334246
  Solvation  Ediel_sol  =         0.00000000
  free energy    TOTEN  =      -153.01662403 eV

  energy without entropy =     -153.01662403  energy(sigma->0) =     -153.01662403

 average (electrostatic) potential at core
  the test charge radii are     1.1480  1.0210  0.9791  0.7215
  (the norm of the test charge is              1.0000)
       1 -95.8325       2 -95.8325       3 -95.8324       4 -95.8324       5 -42.6959
       6 -42.6339       7 -42.6959       8 -83.6178       9 -67.1862      10 -67.0777
      11 -67.1862      12 -67.0777      13 -67.1590      14 -67.1590      15 -67.0429
      16 -67.0429      17 -67.1752      18 -67.2221      19 -67.1752      20 -66.6283

 E-fermi :   7.9939     XC(G=0): -11.6310     alpha+bet :-16.2020

[...]

 k-point     1 :       0.0000    0.0000    0.0000
  band No.  band energies     occupation
      1     -24.3265      1.00000
      2     -24.2667      1.00000
      3     -24.2453      1.00000
      4     -24.2327      1.00000
      5     -11.5004      1.00000
      6     -11.1798      1.00000
      7     -11.1521      1.00000
      8     -11.0081      1.00000
      9     -10.2631      1.00000
     10     -10.2238      1.00000
     11      -9.9228      1.00000
     12      -9.9002      1.00000
     13      -9.8835      1.00000
     14      -9.8521      1.00000
     15      -9.8131      1.00000
     16      -9.6536      1.00000
     17      -7.8358      1.00000
     18      -7.8230      1.00000
     19      -7.8196      1.00000
     20      -7.7336      1.00000
     21      -7.7233      1.00000
     22      -7.6858      1.00000
     23      -7.6639      1.00000
     24      -7.5222      1.00000
     25      -7.5181      1.00000
     26      -7.2529      1.00000
     27      -7.1443      1.00000
     28      -6.9641      1.00000
     29       0.3471      1.00000
     30       0.7084      1.00000
     31       1.0297      1.00000
     32       1.3667      1.00000
     33       1.4908      1.00000
     34       1.5768      1.00000
     35       2.0113      1.00000
     36       2.0484      1.00000
     37       2.1665      1.00000
     38       2.1751      1.00000
     39       2.2125      1.00000
     40       2.2765      1.00000
     41       2.3883      1.00000
     42       2.8369      1.00000
     43       2.8444      1.00000
     44       2.8477      1.00000
     45       2.9445      1.00000
     46       3.0084      1.00000
     47       3.1269      1.00000
     48       3.1270      1.00000
     49       3.1297      1.00000
     50       3.2005      1.00000
     51       3.3679      1.00000
     52       3.7051      1.00000
     53       3.8241      1.00000
     54       4.0545      1.00000
     55       4.0808      1.00000
     56       4.3382      1.00000
     57       4.5505      1.00000
     58       4.6842      1.00000
     59       4.7553      1.00000
     60       4.9386      1.00000
[...]
     82       7.9311      0.11477
     83       9.0184      0.00000
     84       9.8155      0.00000
     85       9.8438      0.00000
     86      10.2660      0.00000
     87      10.4356      0.00000
     88      10.5275      0.00000
     89      10.5706      0.00000
     90      10.6157      0.00000
     91      10.6428      0.00000
     92      10.6755      0.00000
     93      10.7177      0.00000
     94      10.7320      0.00000
     95      10.7691      0.00000
     96      10.8013      0.00000

[...]

 spin component 2

[...]

 k-point    12 :       0.4000    0.3333    0.3333
  band No.  band energies     occupation
      1     -24.2377      1.00000
      2     -24.2221      1.00000
      3     -24.2210      1.00000
      4     -24.1771      1.00000
      5     -11.0099      1.00000
      6     -10.9853      1.00000
      7     -10.9296      1.00000
      8     -10.3991      1.00000
      9     -10.3094      1.00000
     10     -10.2186      1.00000
     11     -10.1309      1.00000
     12     -10.0988      1.00000
     13      -9.8911      1.00000
     14      -9.8172      1.00000
     15      -9.8061      1.00000
     16      -9.7193      1.00000
     17      -8.1781      1.00000
     18      -7.9514      1.00000
     19      -7.8861      1.00000
     20      -7.8806      1.00000
     21      -7.8294      1.00000
     22      -7.6398      1.00000
     23      -7.5212      1.00000
     24      -7.4773      1.00000
     25      -7.3433      1.00000
     26      -7.3115      1.00000
     27      -7.3069      1.00000
     28      -7.1697      1.00000
     29       1.2353      1.00000
     30       1.9085      1.00000
     31       1.9116      1.00000
     32       1.9385      1.00000
     33       2.3016      1.00000
     34       2.4942      1.00000
     35       2.8103      1.00000
     36       2.8748      1.00000
     37       3.1373      1.00000
     38       3.1636      1.00000
     39       3.1731      1.00000
     40       3.1997      1.00000
     41       3.2260      1.00000
     42       3.2511      1.00000
     43       3.2514      1.00000
     44       3.3214      1.00000
     45       3.6264      1.00000
     46       3.6961      1.00000
     47       3.7336      1.00000
     48       3.7674      1.00000
     49       3.9717      1.00000
     50       3.9771      1.00000
     51       4.3604      1.00000
     52       4.5736      1.00000
     53       4.8292      1.00000
     54       5.1794      1.00000
     55       5.2168      1.00000
     56       5.3031      1.00000
     57       5.4178      1.00000
     58       5.4769      1.00000
     59       5.5154      1.00000
     60       5.7657      1.00000
[...]
     82      10.6535      0.00000
     83      10.6662      0.00000
     84      10.6723      0.00000
     85      10.6785      0.00000
     86      10.6854      0.00000
     87      10.6943      0.00000
     88      10.7144      0.00000
     89      10.7356      0.00000
     90      10.7719      0.00000
     91      10.7876      0.00000
     92      10.8061      0.00000
     93      10.8548      0.00000
     94      10.8786      0.00000
     95      10.9734      0.00000
     96      11.4958      0.00000

 soft charge-density along one line, spin component           1
         0         1         2         3         4         5         6         7         8         9
 total charge-density along one line

 soft charge-density along one line, spin component           2
         0         1         2         3         4         5         6         7         8         9
 total charge-density along one line

------------------------ aborting loop because EDIFF is reached ----------------------------------------

 total charge

# of ion       s       p       d       f       tot
    1        1.999   5.696   0.483   0.187   8.365
    2        1.999   5.696   0.483   0.187   8.365
    3        1.999   5.696   0.482   0.187   8.365
    4        1.999   5.696   0.482   0.187   8.365
    5        0.327   0.504   4.883   0.000   5.715
    6        0.325   0.499   4.890   0.000   5.714
    7        0.327   0.504   4.884   0.000   5.715
    8        0.390   0.560   8.333   0.000   9.284
    9        1.564   3.455   0.000   0.000   5.019
   10        1.560   3.462   0.000   0.000   5.022
   11        1.564   3.457   0.000   0.000   5.021
   12        1.560   3.462   0.000   0.000   5.022
   13        1.565   3.455   0.000   0.000   5.020
   14        1.565   3.455   0.000   0.000   5.020
   15        1.560   3.461   0.000   0.000   5.021
   16        1.560   3.461   0.000   0.000   5.021
   17        1.564   3.456   0.000   0.000   5.020
   18        1.562   3.463   0.000   0.000   5.026
   19        1.564   3.456   0.000   0.000   5.020
   20        1.554   3.463   0.000   0.000   5.017
tot         28.109  66.357  24.921   0.747 120.135

 magnetization (x)

[...]

  FORCE on cell =-STRESS in cart. coord.  units (eV):
  Direction    XX          YY          ZZ          XY          YZ          ZX
  Alpha Z   649.02638   649.02638   649.02638
  Ewald   -3261.99996 -3317.02372 -3310.28686    -0.00000     0.00000     0.00000
  Hartree   732.81972   680.36925   681.62896     0.00000    -0.00001    -0.00000
  E(xc)    -677.27963  -677.33451  -677.32030     0.00000    -0.00002    -0.00000
  Local    -442.82962  -333.02381  -338.60687    -0.00000    -0.00021    -0.00000
  n-local   264.41312   264.74990   265.03552     0.07735     0.25439    -0.38347
  augment   182.14783   180.67144   179.92424    -0.00000     0.00081     0.00000
  Kinetic  2555.54042  2553.17511  2550.96736     0.02517    -0.70273     1.15908
  Fock        0.00000     0.00000     0.00000     0.00000     0.00000     0.00000
  Total       1.83825     0.61004     0.36843     0.00000    -0.00000     0.00000
  in kB      12.37165     4.10565     2.47957     0.00000    -0.00000     0.00000

 VOLUME and BASIS-vectors are now :
  energy-cutoff  :      520.00
  volume of cell :      238.06
      direct lattice vectors                 reciprocal lattice vectors
    -3.904042786  0.000000000  0.000000000    -0.256144734  0.000000000  0.000000000
     0.000000000  0.000000000  7.800819619     0.000000000  0.063964284  0.128191658
     0.000000000  7.816862348 -3.900409814     0.000000000  0.127928567 -0.000000000

  length of vectors
     3.904042786  7.800819619  8.735933476     0.256144734  0.143263850  0.127928567

 FORCES acting on ions
    electron-ion (+dipol)            ewald-force                    non-local-force                 convergence-correction
   0.747E-14 -.609E+02 0.636E+02   -.340E-13 0.605E+02 -.630E+02   0.000E+00 0.386E+00 -.553E+00   -.751E-14 0.317E-02 -.300E-02
   -.136E-14 0.609E+02 -.636E+02   0.495E-13 -.605E+02 0.630E+02   0.000E+00 -.386E+00 0.553E+00   -.148E-13 -.317E-02 0.300E-02
   -.226E-14 -.609E+02 -.636E+02   -.187E-13 0.605E+02 0.630E+02   -.542E-19 0.386E+00 0.553E+00   -.105E-13 0.317E-02 0.300E-02
   -.460E-14 0.609E+02 0.636E+02   0.388E-13 -.605E+02 -.630E+02   0.542E-19 -.386E+00 -.553E+00   -.957E-14 -.317E-02 -.300E-02
   -.585E-13 -.218E+02 -.458E-05   -.333E-13 0.218E+02 -.320E-07   0.000E+00 0.965E-01 -.606E-10   0.677E-15 0.824E-02 0.213E-06
   -.466E-13 -.782E-12 0.429E-12   -.141E-13 0.216E-13 0.186E-14   0.000E+00 0.136E-19 0.000E+00   -.525E-14 0.470E-13 0.244E-13
   -.550E-13 0.218E+02 0.458E-05   0.121E-13 -.218E+02 0.320E-07   0.000E+00 -.965E-01 0.606E-10   -.228E-14 -.824E-02 -.213E-06
   -.326E-12 0.897E-12 0.563E-11   0.102E-13 -.355E-13 -.336E-13   0.000E+00 0.000E+00 -.169E-20   -.151E-13 0.833E-15 0.729E-13
   -.119E-12 0.179E-12 -.157E-11   -.220E-14 0.114E-13 0.150E-13   0.000E+00 0.000E+00 0.136E-19   -.693E-14 -.454E-13 0.733E-13
   -.111E-12 0.453E-05 -.585E+02   -.640E-14 0.790E-08 0.532E+02   0.000E+00 0.276E-10 0.525E+01   -.145E-13 -.388E-07 -.283E-01
   -.116E-12 0.258E-11 -.505E-12   -.565E-14 0.820E-14 0.274E-13   0.000E+00 0.000E+00 0.296E-19   -.136E-13 -.231E-13 -.165E-12
   -.114E-12 -.453E-05 0.585E+02   0.378E-14 -.790E-08 -.532E+02   0.000E+00 -.276E-10 -.525E+01   -.186E-13 0.388E-07 0.283E-01
   -.126E-12 -.229E+01 -.220E-04   -.660E-14 -.144E+00 0.344E-07   0.000E+00 0.251E+01 -.158E-08   -.134E-14 0.691E-02 -.135E-06
   -.107E-12 0.229E+01 0.220E-04   -.260E-14 0.144E+00 -.344E-07   0.000E+00 -.251E+01 0.158E-08   -.119E-13 -.691E-02 0.135E-06
   -.113E-12 -.656E+02 -.251E-04   0.286E-13 0.614E+02 -.376E-07   0.000E+00 0.421E+01 -.264E-08   -.674E-15 -.161E-01 -.130E-06
   -.111E-12 0.656E+02 0.251E-04   -.328E-13 -.614E+02 0.376E-07   0.000E+00 -.421E+01 0.264E-08   -.106E-13 0.161E-01 0.130E-06
   0.183E-14 0.233E+02 -.848E-05   -.107E-13 -.242E+02 0.242E-07   0.000E+00 0.931E+00 -.585E-09   0.178E-14 -.315E-02 -.522E-07
   0.158E-14 0.244E-12 0.115E-12   0.169E-15 -.211E-13 0.297E-14   0.000E+00 0.339E-20 -.508E-20   0.269E-14 0.279E-13 -.126E-13
   0.664E-14 -.233E+02 0.848E-05   0.215E-13 0.242E+02 -.242E-07   0.000E+00 -.931E+00 0.585E-09   -.398E-14 0.315E-02 0.522E-07
   0.919E-14 0.285E-12 -.216E-12   0.692E-14 -.178E-13 -.332E-13   0.000E+00 -.678E-20 -.339E-20   -.556E-14 0.364E-16 -.187E-14
   -.139E-11 0.121E-10 0.755E-11   0.470E-14 -.462E-13 0.139E-13   0.000E+00 -.678E-20 0.895E-15   -.147E-12 -.557E-13 0.525E-13

 POSITION                                       TOTAL-FORCE (eV/Angst)
      0.00000      3.86349      0.05821        -0.000000     -0.043420      0.035865
      0.00000      0.04494      3.84220        -0.000000      0.043420     -0.035865
      0.00000      3.86349      3.84220        -0.000000     -0.043420     -0.035865
      0.00000      0.04494      0.05821        -0.000000      0.043420      0.035865
     -1.95202      5.86793      1.95020        -0.000000      0.093059     -0.000000
     -1.95202      1.95422      5.85061        -0.000000      0.000000      0.000000
     -1.95202      5.85737     -1.95020        -0.000000     -0.093059      0.000000
     -1.95202      1.95422      1.95020        -0.000000      0.000000      0.000000
     -1.95202      5.86265      3.90041        -0.000000      0.000000      0.000000
     -1.95202      1.95422      3.95108        -0.000000     -0.000000     -0.063237
     -1.95202      5.86265     -0.00000        -0.000000      0.000000      0.000000
     -1.95202      1.95422     -0.05067        -0.000000      0.000000      0.063237
     -1.95202      3.94311     -1.95020        -0.000000      0.082626     -0.000000
     -1.95202      7.78219      1.95020        -0.000000     -0.082626      0.000000
     -1.95202      3.94324      1.95020        -0.000000      0.014922     -0.000000
     -1.95202      7.78205     -1.95020        -0.000000     -0.014922      0.000000
      0.00000      5.87120     -1.95020        -0.000000      0.104576     -0.000000
      0.00000      1.95422      5.85061        -0.000000      0.000000      0.000000
      0.00000      5.85409      1.95020         0.000000     -0.104576      0.000000
      0.00000      1.95422      1.95020        -0.000000      0.000000      0.000000
    total drift:                               -0.000000      0.000000      0.000000

  FREE ENERGIE OF THE ION-ELECTRON SYSTEM (eV)
  free  energy   TOTEN  =      -153.01662403 eV

  energy  without entropy=     -153.01662403  energy(sigma->0) =     -153.01662403

 total charge

[...]

 magnetization (x)

# of ion       s       p       d       f       tot
    1        0.000   0.001   0.010   0.005   0.016
    2        0.000   0.001   0.010   0.005   0.016
    3        0.000   0.001   0.010   0.005   0.016
    4        0.000   0.001   0.010   0.005   0.016
    5        0.024   0.028   3.636   0.000   3.688
    6        0.024   0.029   3.660   0.000   3.713
    7        0.024   0.028   3.637   0.000   3.688
    8        0.011   0.004   1.717   0.000   1.732
    9        0.005  -0.040   0.000   0.000  -0.035
   10        0.005  -0.006   0.000   0.000  -0.001
   11        0.005  -0.035   0.000   0.000  -0.030
   12        0.005  -0.006   0.000   0.000  -0.001
   13        0.006  -0.032   0.000   0.000  -0.026
   14        0.006  -0.032   0.000   0.000  -0.026
   15        0.005  -0.005   0.000   0.000   0.001
   16        0.005  -0.005   0.000   0.000   0.001
   17        0.006  -0.037   0.000   0.000  -0.031
   18        0.004  -0.028   0.000   0.000  -0.023
   19        0.006  -0.037   0.000   0.000  -0.031
   20        0.006   0.036   0.000   0.000   0.043
tot          0.148  -0.136  12.689   0.021  12.722

 BZINTS: Fermi energy:  7.993855;147.000000 electrons
         Band energy:-256.877982;  BLOECHL correction: -0.078597