 vasp.5.4.4.18Apr17-6-g9f103f2a35 (build Oct 03 2018 13:58:34) complex

 executed on             LinuxIFC date 2019.06.04  00:02:56

 INCAR:
 POTCAR:    PAW_PBE La 06Sep2000
 POTCAR:    PAW_PBE Mn 06Sep2000
 POTCAR:    PAW_PBE Ni 02Aug2007
 POTCAR:    PAW_PBE O 08Apr2002

 POTCAR:    PAW_PBE La 06Sep2000
   VRHFIN =La : [core=Kr4d]

   TITEL  = PAW_PBE La 06Sep2000
   POMASS =  138.900; ZVAL   =   11.000    mass and valenz
   ENMAX  =  219.292; ENMIN  =  164.469 eV

 POTCAR:    PAW_PBE Mn 06Sep2000
   VRHFIN =Mn: d6 s1

   TITEL  = PAW_PBE Mn 06Sep2000
   POMASS =   54.938; ZVAL   =    7.000    mass and valenz
   ENMAX  =  269.864; ENMIN  =  202.398 eV

 POTCAR:    PAW_PBE Ni 02Aug2007
   VRHFIN =Ni:

   TITEL  = PAW_PBE Ni 02Aug2007
   POMASS =   58.690; ZVAL   =   10.000    mass and valenz
   ENMAX  =  269.532; ENMIN  =  202.149 eV

 POTCAR:    PAW_PBE O 08Apr2002
   VRHFIN =O: s2p4

   TITEL  = PAW_PBE O 08Apr2002
   POMASS =   16.000; ZVAL   =    6.000    mass and valenz
   ENMAX  =  400.000; ENMIN  =  300.000 eV

 Optimization of the real space projectors (new method)

 maximal supplied QI-value         = 13.42
 optimisation between [QCUT,QGAM] = [ 11.67, 23.35] = [ 38.16,152.62] Ry
 Optimized for a Real-space Cutoff    1.63 Angstroem

   l    n(q)    QCUT    max X(q) W(low)/X(q) W(high)/X(q)  e(spline)
   0     11    11.673    13.882    0.27E-04    0.79E-05    0.11E-06
   0     11    11.673    12.184    0.39E-04    0.13E-04    0.19E-06
   1     11    11.673     4.523    0.73E-05    0.76E-05    0.12E-06
   1     11    11.673     4.424    0.87E-05    0.13E-04    0.19E-06
   2     10    11.673    52.481    0.65E-04    0.36E-04    0.18E-06
   2     10    11.673    38.501    0.61E-04    0.33E-04    0.17E-06
   3     10    11.673    65.631    0.17E-03    0.14E-03    0.37E-06
   3     10    11.673    56.854    0.17E-03    0.14E-03    0.37E-06
 Optimization of the real space projectors (new method)

[...]

   l    n(q)    QCUT    max X(q) W(low)/X(q) W(high)/X(q)  e(spline)
   2      9    11.539    60.317    0.19E-03    0.47E-04    0.16E-06
   2      9    11.539    55.921    0.19E-03    0.48E-04    0.16E-06
   0     10    11.539    51.690    0.80E-04    0.50E-04    0.24E-06
   0     10    11.539    30.015    0.73E-04    0.45E-04    0.22E-06
   1     10    11.539    18.849    0.87E-04    0.16E-03    0.71E-07
   1     10    11.539    14.624    0.73E-04    0.13E-03    0.64E-07
 Optimization of the real space projectors (new method)

 maximal supplied QI-value         = 24.76
 optimisation between [QCUT,QGAM] = [ 11.64, 23.27] = [ 37.91,151.63] Ry
 Optimized for a Real-space Cutoff    1.14 Angstroem

   l    n(q)    QCUT    max X(q) W(low)/X(q) W(high)/X(q)  e(spline)
   0      8    11.635    20.381    0.10E-03    0.33E-03    0.24E-06
   0      8    11.635    15.268    0.11E-03    0.35E-03    0.26E-06
   1      7    11.635     5.964    0.24E-03    0.31E-03    0.30E-06
   1      7    11.635     5.382    0.22E-03    0.25E-03    0.26E-06
  PAW_PBE La 06Sep2000                  :
  PAW_PBE Mn 06Sep2000                  :
  PAW_PBE Ni 02Aug2007                  :
  PAW_PBE O 08Apr2002                   :

 POSCAR: SCEL3_1_1_3_0_0_0/1
  positions in direct lattice
  velocities in cartesian coordinates
 exchange correlation table for  LEXCH =        8
   RHO(1)=    0.500       N(1)  =     2000
   RHO(2)=  100.500       N(2)  =     4000

 ion  position               nearest neighbor table
   1  0.000  0.000  0.009-   7 2.65  10 2.65   7 2.65  10 2.65  13 2.74  13 2.74  13 2.74  13 2.74
                            12 2.82  12 2.82   9 2.82   9 2.82   5 3.30   5 3.30   5 3.30   5 3.30
   2  0.000  0.000  0.333-  14 2.73  14 2.73  14 2.73  14 2.73  10 2.75  10 2.75   7 2.75   7 2.75
                            11 2.75  11 2.75   8 2.75   8 2.75   5 3.35   5 3.35   5 3.35   5 3.35
   3  0.000  0.000  0.658-   8 2.65  11 2.65   8 2.65  11 2.65  15 2.74  15 2.74  15 2.74  15 2.74
                            12 2.82  12 2.82   9 2.82   9 2.82   6 3.30   6 3.30   6 3.30   6 3.30
   4  0.500  0.500  0.833-  15 1.90  13 1.90   9 1.93  12 1.93  12 1.93   9 1.93   3 3.41   3 3.41
                             3 3.41   3 3.41   1 3.41   1 3.41   1 3.41   1 3.41
   5  0.500  0.500  0.167-   7 1.93  10 1.93  10 1.93   7 1.93  14 1.93  13 1.98   1 3.30   1 3.30
                             1 3.30   1 3.30   2 3.35   2 3.35   2 3.35   2 3.35
   6  0.500  0.500  0.499-   8 1.93  11 1.93  11 1.93   8 1.93  14 1.93  15 1.98   3 3.30   3 3.30
                             3 3.30   3 3.30   2 3.35   2 3.35   2 3.35   2 3.35
   7  0.000  0.500  0.165-   5 1.93   5 1.93   1 2.65   1 2.65   2 2.75   2 2.75
   8  0.000  0.500  0.502-   6 1.93   6 1.93   3 2.65   3 2.65   2 2.75   2 2.75
   9  0.000  0.500  0.833-   4 1.93   4 1.93   3 2.82   3 2.82   1 2.82   1 2.82
  10  0.500  0.000  0.165-   5 1.93   5 1.93   1 2.65   1 2.65   2 2.75   2 2.75
  11  0.500  0.000  0.502-   6 1.93   6 1.93   3 2.65   3 2.65   2 2.75   2 2.75
  12  0.500  0.000  0.833-   4 1.93   4 1.93   3 2.82   3 2.82   1 2.82   1 2.82
  13  0.500  0.500  0.997-   4 1.90   5 1.98   1 2.74   1 2.74   1 2.74   1 2.74
  14  0.500  0.500  0.333-   5 1.93   6 1.93   2 2.73   2 2.73   2 2.73   2 2.73
  15  0.500  0.500  0.670-   4 1.90   6 1.98   3 2.74   3 2.74   3 2.74   3 2.74

  LATTYP: Found a simple tetragonal cell.
 ALAT       =     3.8667194497
 C/A-ratio  =     3.0114288563

  Lattice vectors:

 A1 = (   3.8667194497,   0.0000000000,   0.0000000000)
 A2 = (   0.0000000000,   3.8667194497,   0.0000000000)
 A3 = (   0.0000000000,   0.0000000000,  11.6443505299)

Analysis of symmetry for initial positions (statically):
 Subroutine PRICEL returns:
 Original cell was already a primitive cell.

 Routine SETGRP: Setting up the symmetry group for a
 simple tetragonal supercell.

 Subroutine GETGRP returns: Found 16 space group operations
 (whereof  8 operations were pure point group operations)
 out of a pool of 16 trial point group operations.

The static configuration has the point symmetry C_4v.
 The point group associated with its full space group is D_4h.

Analysis of symmetry for dynamics (positions and initial velocities):
 Subroutine PRICEL returns:
 Original cell was already a primitive cell.

[...]

The dynamic configuration has the point symmetry C_4v.
 The point group associated with its full space group is D_4h.

Analysis of structural, dynamic, and magnetic symmetry:
 Subroutine PRICEL returns:
 Original cell was already a primitive cell.

 Routine SETGRP: Setting up the symmetry group for a
 simple tetragonal supercell.

 Subroutine GETGRP returns: Found 16 space group operations
 (whereof  8 operations were pure point group operations)
 out of a pool of 16 trial point group operations.

The magnetic configuration has the point symmetry C_4v.
 The point group associated with its full space group is D_4h.

 Subroutine INISYM returns: Found 16 space group operations
 (whereof  8 operations are pure point group operations),
 and found     1 'primitive' translations

 KPOINTS: Automatic mesh

Automatic generation of k-mesh.
 generate k-points for:    5    5    2
Space group operators:
 irot       det(A)        alpha          n_x          n_y          n_z        tau_x        tau_y        tau_z
    1     1.000000     0.000000     1.000000     0.000000     0.000000     0.000000     0.000000     0.000000
    2     1.000000    90.000000     0.000000     0.000000    -1.000000     0.000000     0.000000     0.000000
    3     1.000000   179.999999     0.000000     0.000000     1.000000     0.000000     0.000000     0.000000
    4     1.000000    90.000000     0.000000     0.000000     1.000000     0.000000     0.000000     0.000000
    5    -1.000000   180.000000     0.000000     1.000000     0.000000     0.000000     0.000000     0.000000
    6    -1.000000   180.000000     0.707107     0.707107     0.000000     0.000000     0.000000     0.000000
    7    -1.000000   180.000000     1.000000     0.000000     0.000000     0.000000     0.000000     0.000000
    8    -1.000000   180.000000     0.707107    -0.707107     0.000000     0.000000     0.000000     0.000000
    9    -1.000000     0.000000     1.000000     0.000000     0.000000     0.000000     0.000000     0.666667
   10    -1.000000    90.000000     0.000000     0.000000    -1.000000     0.000000     0.000000     0.666667
   11    -1.000000   179.999999     0.000000     0.000000     1.000000     0.000000     0.000000     0.666667
   12    -1.000000    90.000000     0.000000     0.000000     1.000000     0.000000     0.000000     0.666667
   13     1.000000   180.000000     0.000000     1.000000     0.000000     0.000000     0.000000     0.666667
   14     1.000000   180.000000     0.707107     0.707107     0.000000     0.000000     0.000000     0.666667
   15     1.000000   180.000000     1.000000     0.000000     0.000000     0.000000     0.000000     0.666667
   16     1.000000   180.000000     0.707107    -0.707107     0.000000     0.000000     0.000000     0.666667

 Subroutine IBZKPT returns following result:

 Found     12 irreducible k-points:

 Following reciprocal coordinates:
            Coordinates               Weight
  0.000000  0.000000  0.000000      1.000000
  0.200000  0.000000  0.000000      4.000000
  0.400000  0.000000  0.000000      4.000000
  0.200000  0.200000  0.000000      4.000000
  0.400000  0.200000  0.000000      8.000000
  0.400000  0.400000  0.000000      4.000000
  0.000000  0.000000  0.500000      1.000000
  0.200000  0.000000  0.500000      4.000000
  0.400000  0.000000  0.500000      4.000000
  0.200000  0.200000  0.500000      4.000000
  0.400000  0.200000  0.500000      8.000000
  0.400000  0.400000  0.500000      4.000000

 Following cartesian coordinates:
            Coordinates               Weight
  0.000000  0.000000  0.000000      1.000000
  0.051723  0.000000  0.000000      4.000000
  0.103447  0.000000  0.000000      4.000000
  0.051723  0.051723  0.000000      4.000000
  0.103447  0.051723  0.000000      8.000000
  0.103447  0.103447  0.000000      4.000000
  0.000000  0.000000  0.042939      1.000000
  0.051723  0.000000  0.042939      4.000000
  0.103447  0.000000  0.042939      4.000000
  0.051723  0.051723  0.042939      4.000000
  0.103447  0.051723  0.042939      8.000000
  0.103447  0.103447  0.042939      4.000000

 TETIRR: Found     73 inequivalent tetrahedra from      300

 SYSTEM =  final
 POSCAR =  SCEL3_1_1_3_0_0_0/1

 Startparameter for this run:
   NWRITE =      2    write-flag & timer
   PREC   = accura    normal or accurate (medium, high low for compatibility)
   ISTART =      0    job   : 0-new  1-cont  2-samecut
   ICHARG =      1    charge: 1-file 2-atom 10-const
   ISPIN  =      2    spin polarized calculation?
   LNONCOLLINEAR =      F non collinear calculations
   LSORBIT =      F    spin-orbit coupling
   INIWAV =      1    electr: 0-lowe 1-rand  2-diag
   LASPH  =      F    aspherical Exc in radial PAW
   METAGGA=      F    non-selfconsistent MetaGGA calc.

 Electronic Relaxation 1
   ENCUT  =  520.0 eV  38.22 Ry    6.18 a.u.   7.19  7.19 21.65*2*pi/ulx,y,z
   ENINI  =  520.0     initial cutoff
[...]
  entropy T*S    EENTRO =         0.00000000
  eigenvalues    EBANDS =      1525.05960115
  atomic energy  EATOM  =      9061.24150686
  Solvation  Ediel_sol  =         0.00000000
  free energy    TOTEN  =      1597.83015924 eV

  energy without entropy =     1597.83015924  energy(sigma->0) =     1597.83015924

[...]

 BZINTS: Fermi energy: 15.099181;114.000000 electrons
         Band energy: 380.995815;  BLOECHL correction: -0.098316

 eigenvalue-minimisations  :  3992
 total energy-change (2. order) :-0.1144064E+04  (-0.1032536E+04)
 number of electron     114.0000000 magnetization      10.0000000
 augmentation part      114.0000000 magnetization      10.0000000

[...]

 BZINTS: Fermi energy: 12.064627;114.000000 electrons
         Band energy: -40.548275;  BLOECHL correction: -0.028327

[...]

 BZINTS: Fermi energy: 11.442451;114.000000 electrons
         Band energy:-177.466074;  BLOECHL correction: -0.053611

[...]

 Broyden mixing:
  rms(total) = 0.54105E+01    rms(broyden)= 0.54100E+01
  rms(prec ) = 0.60100E+01
  weight for this iteration     100.00

[...]

 eigenvalues of (default mixing * dielectric matrix)
  average eigenvalue GAMMA=   0.1038
  0.1038

[...]

 eigenvalue-minimisations  :  5153
 total energy-change (2. order) : 0.2784822E+01  (-0.2236883E+01)
 number of electron     114.0000067 magnetization       7.5054157
 augmentation part       16.3536056 magnetization       6.0656696

[...]

 Broyden mixing:
  rms(total) = 0.28785E-01    rms(broyden)= 0.28783E-01
  rms(prec ) = 0.29863E-01
  weight for this iteration     100.00

 eigenvalues of (default mixing * dielectric matrix)
  average eigenvalue GAMMA=   1.0541
  2.9876  2.0620  0.9569  0.9569  0.8018  0.8018  0.5576  0.5576  0.5244  0.7402
  0.6477

[...]

--------------------------------------- Iteration      1(  17)  ---------------------------------------

atom =   1  type =  1  l = 0

[...]

  o =  0.7855  v =  0.0000  1.0000      0.0000  0.0000
  o =  0.7918  v =  1.0000  0.0000      0.0000  0.0000
atom =  15  type =  4  l = 0

 onsite density matrix

[...]

  0.7864

 occupancies and eigenvectors

  o =  0.7864  v =  0.0000  1.0000      0.0000  0.0000
  o =  0.7909  v =  1.0000  0.0000      0.0000  0.0000
 BZINTS: Fermi energy:  7.523016;114.000000 electrons
         Band energy:-148.352842;  BLOECHL correction: -0.111112

 eigenvalue-minimisations  :  3568
 total energy-change (2. order) :-0.4880019E-03  (-0.7701523E-03)
 number of electron     114.0000064 magnetization       5.9918639
 augmentation part       15.9600796 magnetization       4.7922079

 Free energy of the ion-electron system (eV)
  alpha Z        PSCENC =       493.36604736
  Ewald energy   TEWEN  =     -7931.42731161
  -Hartree energ DENC   =     -1892.73162991
  -exchange      EXHF   =         0.00000000
  -V(xc)+E(xc)   XCENC  =       403.72207221
  PAW double counting   =      9615.36348150    -9707.95335493
  entropy T*S    EENTRO =         0.00000000
  eigenvalues    EBANDS =      -148.35284222
  atomic energy  EATOM  =      9061.24150686
  Solvation  Ediel_sol  =         0.00000000
  free energy    TOTEN  =      -106.77203075 eV

  energy without entropy =     -106.77203075  energy(sigma->0) =     -106.77203075

 average (electrostatic) potential at core
  the test charge radii are     1.1480  1.0210  0.9791  0.7215
  (the norm of the test charge is              1.0000)
       1 -95.2288       2 -95.2025       3 -95.2288       4 -42.9749       5 -83.8317
       6 -83.8316       7 -66.6813       8 -66.6812       9 -67.0554      10 -66.6813
      11 -66.6812      12 -67.0554      13 -66.8768      14 -66.6595      15 -66.8768

 E-fermi :   7.5230     XC(G=0): -11.7701     alpha+bet :-16.6875

[...]

 k-point     1 :       0.0000    0.0000    0.0000
  band No.  band energies     occupation
      1     -23.7552      1.00000
      2     -23.7251      1.00000
      3     -23.6609      1.00000
      4     -11.1545      1.00000
      5     -10.9806      1.00000
      6     -10.7069      1.00000
      7      -9.6907      1.00000
      8      -9.6734      1.00000
      9      -9.5931      1.00000
     10      -9.3735      1.00000
     11      -9.3447      1.00000
     12      -9.3240      1.00000
     13      -7.2674      1.00000
     14      -7.2674      1.00000
     15      -7.2423      1.00000
     16      -7.2160      1.00000
     17      -7.2160      1.00000
     18      -7.1125      1.00000
     19      -7.1125      1.00000
     20      -6.5917      1.00000
     21      -6.5146      1.00000
     22       0.7297      1.00000
     23       1.2148      1.00000
     24       2.2982      1.00000
     25       2.2982      1.00000
     26       2.3209      1.00000
     27       2.3209      1.00000
     28       2.6027      1.00000
     29       2.6111      1.00000
     30       2.7237      1.00000
     31       2.7237      1.00000
     32       3.0231      1.00000
     33       3.0233      1.00000
     34       3.0526      1.00000
     35       3.1191      1.00000
     36       3.1190      1.00000
     37       3.3091      1.00000
     38       3.3091      1.00000
     39       3.4026      1.00000
     40       3.4540      1.00000
     41       3.4540      1.00000
     42       3.6636      1.00000
     43       4.4305      1.00000
     44       4.6214      1.00000
     45       4.7441      1.00000
     46       4.9705      1.00000
     47       5.4760      1.00000
     48       5.4760      1.00000
     49       5.5209      1.00000
     50       5.7838      1.00000
     51       5.7838      1.00000
     52       5.8226      1.00000
     53       5.8400      1.00000
     54       5.8400      1.00000
     55       6.3438      1.00000
     56       6.3438      1.00000
     57       6.3615      1.00000
     58       6.5653      1.00000
     59       6.5653      1.00000
     60       6.8043      1.00000
     61       6.8043      1.00591
     62       6.8233      1.10084
     63       8.1491      0.00000
     64      10.3545      0.00000
     65      10.4017      0.00000
     66      10.9351      0.00000
     67      10.9588      0.00000
     68      11.1221      0.00000
     69      11.2013      0.00000
     70      11.2220      0.00000
     71      11.3010      0.00000
     72      11.3440      0.00000
     73      11.4032      0.00000
     74      11.4499      0.00000

[...]

 spin component 2

[...]

 k-point    12 :       0.4000    0.4000    0.5000
  band No.  band energies     occupation
      1     -23.6277      1.00000
      2     -23.6237      1.00000
      3     -23.5563      1.00000
      4     -10.4902      1.00000
      5     -10.3767      1.00000
      6     -10.1188      1.00000
      7     -10.0165      1.00000
      8      -9.9098      1.00000
      9      -9.7614      1.00000
     10      -9.6914      1.00000
     11      -9.6363      1.00000
     12      -9.4929      1.00000
     13      -7.6978      1.00000
     14      -7.5916      1.00000
     15      -7.4850      1.00000
     16      -7.3591      1.00000
     17      -7.1970      1.00000
     18      -7.0641      1.00000
     19      -6.9099      1.00000
     20      -6.8823      1.00000
     21      -6.7528      1.00000
     22       1.0539      1.00000
     23       1.6937      1.00000
     24       1.7072      1.00000
     25       1.9706      1.00000
     26       2.1787      1.00000
     27       2.4589      1.00000
     28       2.5521      1.00000
     29       2.6303      1.00000
     30       2.6354      1.00000
     31       3.0058      1.00000
     32       3.1955      1.00000
     33       3.4577      1.00000
     34       3.5976      1.00000
     35       3.7433      1.00000
     36       3.9420      1.00000
     37       3.9590      1.00000
     38       3.9880      1.00000
     39       4.1987      1.00000
     40       5.4676      1.00000
     41       5.6713      1.00000
     42       5.7057      1.00000
     43       5.8243      1.00000
     44       5.9970      1.00000
     45       6.0298      1.00000
     46       6.1237      1.00000
     47       6.1635      1.00000
     48       6.1943      1.00000
     49       6.2296      1.00000
     50       6.5141      1.00000
     51       6.6028      1.00000
     52       6.6185      1.00000
     53       6.6247      1.00000
     54       6.7162      1.00000
     55      10.7187      0.00000
     56      10.9538      0.00000
     57      10.9795      0.00000
     58      10.9903      0.00000
     59      11.0355      0.00000
     60      11.0662      0.00000
     61      11.1110      0.00000
     62      11.1223      0.00000
     63      11.1379      0.00000
     64      11.1984      0.00000
     65      11.2346      0.00000
     66      11.2823      0.00000
     67      11.3054      0.00000
     68      11.3116      0.00000
     69      11.3375      0.00000
     70      11.3575      0.00000
     71      11.4026      0.00000
     72      11.4094      0.00000
     73      11.4504      0.00000
     74      11.4807      0.00000

 soft charge-density along one line, spin component           1
         0         1         2         3         4         5         6         7         8         9
 total charge-density along one line

 soft charge-density along one line, spin component           2
         0         1         2         3         4         5         6         7         8         9
 total charge-density along one line

------------------------ aborting loop because EDIFF is reached ----------------------------------------

 total charge

# of ion       s       p       d       f       tot
    1        2.001   5.700   0.501   0.194   8.396
    2        1.999   5.699   0.483   0.187   8.367
    3        2.001   5.700   0.501   0.194   8.396
    4        0.339   0.523   4.864   0.000   5.726
    5        0.420   0.627   8.315   0.000   9.362
    6        0.420   0.627   8.315   0.000   9.362
    7        1.564   3.376   0.000   0.000   4.941
    8        1.564   3.377   0.000   0.000   4.941
    9        1.572   3.387   0.000   0.000   4.959
   10        1.558   3.512   0.000   0.000   5.070
   11        1.558   3.512   0.000   0.000   5.070
   12        1.559   3.525   0.000   0.000   5.083
   13        1.562   3.456   0.000   0.000   5.018
   14        1.562   3.429   0.000   0.000   4.991
   15        1.562   3.456   0.000   0.000   5.018
tot         21.240  49.906  22.979   0.574  94.699

 magnetization (x)

[...]

  FORCE on cell =-STRESS in cart. coord.  units (eV):
  Direction    XX          YY          ZZ          XY          YZ          ZX
  Alpha Z   493.36605   493.36605   493.36605
  Ewald   -2590.77802 -2590.77802 -2749.88615    -0.00000     0.00000    -0.00000
  Hartree   678.95366   678.95366   535.10244    -0.00000    -0.00000    -0.00000
  E(xc)    -533.33179  -533.33179  -533.43175     0.00000     0.00000    -0.00000
  Local    -509.37052  -509.37052  -206.57380     0.00000    -0.00000     0.00000
  n-local   217.45864   211.89237   214.45164    -1.53528     0.00063     0.00238
  augment   316.96425   316.96425   317.07359    -0.00000     0.00000     0.00000
  Kinetic  1902.00435  1956.90023  1929.51113    -4.39069    -0.00061    -0.00172
  Fock        0.00000     0.00000     0.00000     0.00000     0.00000     0.00000
  Total      -0.06858    -0.06858    -0.38684     0.00000     0.00000     0.00000
  in kB      -0.63111    -0.63111    -3.55997     0.00000     0.00000     0.00000

 VOLUME and BASIS-vectors are now :
  energy-cutoff  :      520.00
  volume of cell :      174.10
      direct lattice vectors                 reciprocal lattice vectors
     3.866719450  0.000000000  0.000000000     0.258617159  0.000000000  0.000000000
     0.000000000  3.866719450  0.000000000     0.000000000  0.258617159  0.000000000
     0.000000000  0.000000000 11.644350530     0.000000000  0.000000000  0.085878555

  length of vectors
     3.866719450  3.866719450 11.644350530     0.258617159  0.258617159  0.085878555

 FORCES acting on ions
    electron-ion (+dipol)            ewald-force                    non-local-force                 convergence-correction
   0.193E-15 0.126E-13 0.175E+03   -.282E-13 -.364E-14 -.174E+03   -.271E-19 0.000E+00 -.115E+01   0.222E-13 0.143E-13 -.139E+00
   -.136E-14 -.147E-13 0.786E-05   0.174E-13 -.928E-15 0.322E-03   0.339E-19 0.000E+00 -.651E-18   0.198E-13 0.104E-13 -.156E-04
   0.121E-13 0.164E-13 -.175E+03   -.365E-14 -.459E-14 0.174E+03   0.000E+00 0.000E+00 0.115E+01   0.193E-13 0.172E-14 0.139E+00
   0.469E-13 0.475E-12 -.845E-04   0.222E-13 0.646E-14 0.395E-03   0.000E+00 0.212E-21 -.508E-20   -.538E-14 -.349E-14 -.249E-05
   0.269E-12 0.316E-11 0.708E+02   -.350E-13 -.309E-13 -.697E+02   0.000E+00 0.106E-21 -.993E+00   0.164E-13 -.176E-15 -.126E+00
   0.298E-12 0.205E-11 -.708E+02   0.271E-14 0.933E-14 0.697E+02   0.000E+00 0.000E+00 0.993E+00   0.113E-13 -.983E-14 0.126E+00
   -.338E-14 0.992E-13 0.376E+02   0.220E-13 0.650E-15 -.365E+02   0.000E+00 0.000E+00 -.977E+00   0.157E-13 -.158E-13 -.773E-01
   -.478E-14 0.113E-12 -.376E+02   -.136E-13 0.511E-15 0.365E+02   0.339E-20 0.339E-20 0.977E+00   0.251E-13 -.150E-13 0.773E-01
   0.129E-15 0.171E-13 -.480E-04   -.105E-13 0.518E-14 0.230E-03   0.000E+00 0.339E-20 -.339E-20   0.160E-13 -.197E-13 -.272E-05
   0.117E-12 0.404E-13 0.376E+02   0.234E-14 0.281E-13 -.365E+02   0.000E+00 -.847E-21 -.977E+00   0.249E-14 0.494E-13 -.773E-01
   0.109E-12 0.140E-12 -.376E+02   0.289E-14 -.601E-14 0.365E+02   0.000E+00 0.000E+00 0.977E+00   -.393E-14 0.530E-13 0.773E-01
   0.110E-12 0.117E-13 -.480E-04   0.523E-14 -.383E-14 0.230E-03   0.000E+00 0.000E+00 -.678E-20   0.334E-14 0.362E-13 -.272E-05
   0.106E-12 0.165E-11 0.106E+03   0.818E-14 0.206E-14 -.101E+03   0.000E+00 0.000E+00 -.441E+01   0.623E-14 -.227E-13 -.599E-01
   0.112E-12 0.143E-11 -.158E-03   -.901E-14 -.262E-15 0.429E-03   -.678E-20 0.000E+00 0.000E+00   0.192E-13 -.184E-13 -.104E-04
   0.111E-12 0.220E-12 -.106E+03   -.108E-13 -.806E-14 0.101E+03   0.000E+00 0.000E+00 0.441E+01   0.132E-13 -.154E-13 0.599E-01
   0.128E-11 0.942E-11 -.542E-02   -.279E-13 -.599E-14 0.142E-13   0.339E-20 0.625E-20 -.888E-15   0.181E-12 0.445E-13 0.184E-05

 POSITION                                       TOTAL-FORCE (eV/Angst)
      0.00000      0.00000      0.10533        -0.000000     -0.000000      0.081050
      0.00000      0.00000      3.88145        -0.000000     -0.000000     -0.000000
      0.00000      0.00000      7.65757         0.000000      0.000000     -0.081050
      1.93336      1.93336      9.70363        -0.000000      0.000000     -0.000000
      1.93336      1.93336      1.94718        -0.000000     -0.000000     -0.007275
      1.93336      1.93336      5.81572        -0.000000      0.000000      0.007275
      0.00000      1.93336      1.92039        -0.000000     -0.000000     -0.013826
      0.00000      1.93336      5.84251        -0.000000     -0.000000      0.013826
      0.00000      1.93336      9.70363        -0.000000     -0.000000     -0.000000
      1.93336      0.00000      1.92039        -0.000000      0.000000     -0.013826
      1.93336      0.00000      5.84251        -0.000000      0.000000      0.013826
      1.93336      0.00000      9.70363         0.000000      0.000000     -0.000000
      1.93336      1.93336     11.60815        -0.000000     -0.000000      0.004166
      1.93336      1.93336      3.88145        -0.000000     -0.000000     -0.000000
      1.93336      1.93336      7.79910        -0.000000      0.000000     -0.004166
    total drift:                                0.000000      0.000000     -0.005414

  FREE ENERGIE OF THE ION-ELECTRON SYSTEM (eV)
  free  energy   TOTEN  =      -106.77203075 eV

  energy  without entropy=     -106.77203075  energy(sigma->0) =     -106.77203075

 total charge

[...]

 magnetization (x)

# of ion       s       p       d       f       tot
    1        0.000   0.001   0.008   0.004   0.013
    2        0.000  -0.001   0.004   0.002   0.005
    3        0.000   0.001   0.008   0.004   0.013
    4        0.023   0.020   3.425   0.000   3.468
    5        0.016   0.011   1.451   0.000   1.478
    6        0.016   0.011   1.451   0.000   1.478
    7        0.002  -0.088   0.000   0.000  -0.086
    8        0.002  -0.088   0.000   0.000  -0.086
    9       -0.001  -0.039   0.000   0.000  -0.040
   10        0.011  -0.041   0.000   0.000  -0.030
   11        0.011  -0.041   0.000   0.000  -0.030
   12        0.008  -0.075   0.000   0.000  -0.066
   13        0.005  -0.030   0.000   0.000  -0.025
   14        0.006  -0.095   0.000   0.000  -0.089
   15        0.005  -0.030   0.000   0.000  -0.025
tot          0.103  -0.485   6.348   0.010   5.977

 BZINTS: Fermi energy:  7.523016;114.000000 electrons
         Band energy:-148.352842;  BLOECHL correction: -0.111112