 vasp.5.4.4.18Apr17-6-g9f103f2a35 (build Oct 03 2018 13:58:34) complex

 executed on             LinuxIFC date 2019.06.04  02:20:58

 INCAR:
 POTCAR:    PAW_PBE La 06Sep2000
 POTCAR:    PAW_PBE Mn 06Sep2000
 POTCAR:    PAW_PBE Ni 02Aug2007
 POTCAR:    PAW_PBE O 08Apr2002

 POTCAR:    PAW_PBE La 06Sep2000
   VRHFIN =La : [core=Kr4d]

   TITEL  = PAW_PBE La 06Sep2000
   POMASS =  138.900; ZVAL   =   11.000    mass and valenz
   ENMAX  =  219.292; ENMIN  =  164.469 eV

 POTCAR:    PAW_PBE Mn 06Sep2000
   VRHFIN =Mn: d6 s1

   TITEL  = PAW_PBE Mn 06Sep2000
   POMASS =   54.938; ZVAL   =    7.000    mass and valenz
   ENMAX  =  269.864; ENMIN  =  202.398 eV

 POTCAR:    PAW_PBE Ni 02Aug2007
   VRHFIN =Ni:

   TITEL  = PAW_PBE Ni 02Aug2007
   POMASS =   58.690; ZVAL   =   10.000    mass and valenz
   ENMAX  =  269.532; ENMIN  =  202.149 eV

 POTCAR:    PAW_PBE O 08Apr2002
   VRHFIN =O: s2p4

   TITEL  = PAW_PBE O 08Apr2002
   POMASS =   16.000; ZVAL   =    6.000    mass and valenz
   ENMAX  =  400.000; ENMIN  =  300.000 eV

 Optimization of the real space projectors (new method)

 maximal supplied QI-value         = 13.42
 optimisation between [QCUT,QGAM] = [ 11.67, 23.35] = [ 38.16,152.62] Ry
 Optimized for a Real-space Cutoff    1.63 Angstroem

   l    n(q)    QCUT    max X(q) W(low)/X(q) W(high)/X(q)  e(spline)
   0     11    11.673    13.882    0.27E-04    0.79E-05    0.11E-06
   0     11    11.673    12.184    0.39E-04    0.13E-04    0.19E-06
   1     11    11.673     4.523    0.73E-05    0.76E-05    0.12E-06
   1     11    11.673     4.424    0.87E-05    0.13E-04    0.19E-06
   2     10    11.673    52.481    0.65E-04    0.36E-04    0.18E-06
   2     10    11.673    38.501    0.61E-04    0.33E-04    0.17E-06
   3     10    11.673    65.631    0.17E-03    0.14E-03    0.37E-06
   3     10    11.673    56.854    0.17E-03    0.14E-03    0.37E-06
 Optimization of the real space projectors (new method)

[...]

   l    n(q)    QCUT    max X(q) W(low)/X(q) W(high)/X(q)  e(spline)
   2      9    11.539    60.317    0.19E-03    0.47E-04    0.16E-06
   2      9    11.539    55.921    0.19E-03    0.48E-04    0.16E-06
   0     10    11.539    51.690    0.80E-04    0.50E-04    0.24E-06
   0     10    11.539    30.015    0.73E-04    0.45E-04    0.22E-06
   1     10    11.539    18.849    0.87E-04    0.16E-03    0.71E-07
   1     10    11.539    14.624    0.73E-04    0.13E-03    0.64E-07
 Optimization of the real space projectors (new method)

 maximal supplied QI-value         = 24.76
 optimisation between [QCUT,QGAM] = [ 11.64, 23.27] = [ 37.91,151.63] Ry
 Optimized for a Real-space Cutoff    1.14 Angstroem

   l    n(q)    QCUT    max X(q) W(low)/X(q) W(high)/X(q)  e(spline)
   0      8    11.635    20.381    0.10E-03    0.33E-03    0.24E-06
   0      8    11.635    15.268    0.11E-03    0.35E-03    0.26E-06
   1      7    11.635     5.964    0.24E-03    0.31E-03    0.30E-06
   1      7    11.635     5.382    0.22E-03    0.25E-03    0.26E-06
  PAW_PBE La 06Sep2000                  :
  PAW_PBE Mn 06Sep2000                  :
  PAW_PBE Ni 02Aug2007                  :
  PAW_PBE O 08Apr2002                   :

 POSCAR: SCEL6_3_1_2_0_2_1/0
  positions in direct lattice
  velocities in cartesian coordinates
 exchange correlation table for  LEXCH =        8
   RHO(1)=    0.500       N(1)  =     2000
   RHO(2)=  100.500       N(2)  =     4000

 ion  position               nearest neighbor table
   1  0.835  0.835  0.494-  30 2.74  20 2.74  28 2.74  24 2.74  17 2.76  17 2.76  15 2.77  13 2.77
                            27 2.80  23 2.80  19 2.81  29 2.81   7 3.36  10 3.36  12 3.36  12 3.36
   2  0.664  0.671  0.002-  18 2.72  28 2.74  24 2.74  29 2.76  19 2.76  16 2.76  16 2.76  26 2.78
                            22 2.78  14 2.80  23 2.80  27 2.80  12 3.35   8 3.36  10 3.38  10 3.38
   3  0.498  0.506  0.498-  17 2.72  28 2.74  24 2.74  27 2.76  23 2.76  15 2.76  15 2.76  26 2.78
                            22 2.78  25 2.80  21 2.80  13 2.80  12 3.35  11 3.36  10 3.38  10 3.38
   4  0.335  0.328  0.002-  18 2.72  30 2.74  20 2.74  25 2.76  21 2.76  14 2.76  14 2.76  22 2.78
                            26 2.78  27 2.80  23 2.80  16 2.80  12 3.35   8 3.36   7 3.38   7 3.38
   5  0.170  0.162  0.498-  17 2.72  20 2.74  30 2.74  29 2.76  19 2.76  13 2.76  13 2.76  26 2.78
                            22 2.78  15 2.80  25 2.80  21 2.80  12 3.35  11 3.36   7 3.38   7 3.38
   6  0.998  0.998  0.006-  28 2.74  24 2.74  30 2.74  20 2.74  18 2.76  18 2.76  14 2.77  16 2.77
                            25 2.80  21 2.80  29 2.81  19 2.81  10 3.36   7 3.36  12 3.36  12 3.36
   7  0.750  0.250  0.250-  30 1.93  20 1.93  26 1.96  22 1.96  14 2.00  13 2.01   1 3.36   6 3.36
                             5 3.38   5 3.38   4 3.38   4 3.38   3 3.42   2 3.42
   8  0.583  0.083  0.751-  13 1.93  18 1.94  25 1.95  21 1.95  19 1.96  29 1.96   4 3.36   2 3.36
                             5 3.40   5 3.40   6 3.41   6 3.41   1 3.43
   9  0.917  0.417  0.750-  14 1.93  15 1.93  23 1.95  25 1.95  27 1.95  21 1.95   4 3.40   3 3.40
                             3 3.40   4 3.40   1 3.42   6 3.42
  10  0.083  0.584  0.250-  28 1.93  24 1.93  22 1.96  26 1.96  15 2.00  16 2.01   6 3.36   1 3.36
                             2 3.38   2 3.38   3 3.38   3 3.38   4 3.42   5 3.42
  11  0.250  0.750  0.749-  16 1.93  17 1.94  27 1.95  23 1.95  29 1.96  19 1.96   3 3.36   5 3.36
                             2 3.40   2 3.40   1 3.41   1 3.41   6 3.43
  12  0.417  0.917  0.250-  20 1.98  30 1.98  28 1.98  24 1.98  18 1.99  17 1.99   4 3.35   3 3.35
                             2 3.35   5 3.35   1 3.36   6 3.36   6 3.36   1 3.36
  13  0.665  0.165  0.506-   8 1.93   7 2.01   5 2.76   5 2.76   1 2.77   3 2.80
  14  0.834  0.335  0.996-   9 1.93   7 2.00   4 2.76   4 2.76   6 2.77   2 2.80
  15  0.999  0.498  0.504-   9 1.93  10 2.00   3 2.76   3 2.76   1 2.77   5 2.80
  16  0.169  0.668  0.994-  11 1.93  10 2.01   2 2.76   2 2.76   6 2.77   4 2.80
  17  0.333  0.832  0.503-  11 1.94  12 1.99   3 2.72   5 2.72   1 2.76   1 2.76
  18  0.501  0.001  0.997-   8 1.94  12 1.99   4 2.72   2 2.72   6 2.76   6 2.76
  19  0.417  0.917  0.750-   8 1.96  11 1.96   2 2.76   5 2.76   6 2.81   1 2.81
  20  0.584  0.085  0.250-   7 1.93  12 1.98   5 2.74   4 2.74   1 2.74   6 2.74
  21  0.750  0.250  0.750-   9 1.95   8 1.95   4 2.76   3 2.80   6 2.80   5 2.80
  22  0.917  0.417  0.250-  10 1.96   7 1.96   3 2.78   4 2.78   2 2.78   5 2.78
  23  0.084  0.583  0.750-   9 1.95  11 1.95   3 2.76   4 2.80   1 2.80   2 2.80
  24  0.249  0.748  0.250-  10 1.93  12 1.98   2 2.74   3 2.74   6 2.74   1 2.74
  25  0.250  0.250  0.750-   9 1.95   8 1.95   4 2.76   3 2.80   6 2.80   5 2.80
  26  0.417  0.417  0.250-  10 1.96   7 1.96   3 2.78   4 2.78   2 2.78   5 2.78
  27  0.584  0.583  0.750-   9 1.95  11 1.95   3 2.76   4 2.80   1 2.80   2 2.80
  28  0.753  0.748  0.250-  10 1.93  12 1.98   2 2.74   3 2.74   6 2.74   1 2.74
  29  0.917  0.917  0.750-   8 1.96  11 1.96   2 2.76   5 2.76   6 2.81   1 2.81
  30  0.080  0.085  0.250-   7 1.93  12 1.98   5 2.74   4 2.74   1 2.74   6 2.74

  LATTYP: Found a base centered monoclinic cell.
 ALAT       =    16.5814946992
 B/A-ratio  =     0.3332251128
 C/A-ratio  =     0.8179094836
 COS(beta)  =    -0.7731794043

  Lattice vectors:

 A1 = (  -7.8159571043,   3.9089301865,  -0.0007893863)
 A2 = (  -3.9089301964,   7.8159570945,  -0.0007893863)
 A3 = (   7.8160665118,  -7.8160665020,  -7.8581448521)

Analysis of symmetry for initial positions (statically):
 Subroutine PRICEL returns:
 Original cell was already a primitive cell.

 Routine SETGRP: Setting up the symmetry group for a
 base centered monoclinic supercell.

 Subroutine GETGRP returns: Found  4 space group operations
 (whereof  2 operations were pure point group operations)
 out of a pool of  4 trial point group operations.

The static configuration has the point symmetry C_1h.
 The point group associated with its full space group is C_2h.

Analysis of symmetry for dynamics (positions and initial velocities):
 Subroutine PRICEL returns:
 Original cell was already a primitive cell.

[...]

The dynamic configuration has the point symmetry C_1h.
 The point group associated with its full space group is C_2h.

Analysis of structural, dynamic, and magnetic symmetry:
 Subroutine PRICEL returns:
 Original cell was already a primitive cell.

 Routine SETGRP: Setting up the symmetry group for a
 base centered monoclinic supercell.

 Subroutine GETGRP returns: Found  4 space group operations
 (whereof  2 operations were pure point group operations)
 out of a pool of  4 trial point group operations.

The magnetic configuration has the point symmetry C_1h.
 The point group associated with its full space group is C_2h.

 Subroutine INISYM returns: Found  4 space group operations
 (whereof  2 operations are pure point group operations),
 and found     1 'primitive' translations

 KPOINTS: Automatic mesh

Automatic generation of k-mesh.
 generate k-points for:    4    3    3
Space group operators:
 irot       det(A)        alpha          n_x          n_y          n_z        tau_x        tau_y        tau_z
    1     1.000000     0.000001     1.000000     0.000000     0.000000     0.000000     0.000000     0.000000
    2    -1.000000   180.000000     0.707107     0.707107    -0.000000     0.000000     0.000000     0.000000
    3    -1.000000     0.000001     1.000000     0.000000     0.000000    -0.166667     0.833333    -0.500000
    4     1.000000   180.000000     0.707107     0.707107    -0.000000    -0.166667     0.833333    -0.500000

 Subroutine IBZKPT returns following result:

 Found     19 irreducible k-points:

 Following reciprocal coordinates:
            Coordinates               Weight
  0.000000  0.000000  0.000000      1.000000
  0.250000  0.000000  0.000000      2.000000
  0.500000  0.000000  0.000000      1.000000
 -0.000000  0.333333  0.000000      2.000000
  0.250000  0.333333 -0.000000      2.000000
  0.500000  0.333333 -0.000000      2.000000
 -0.250000  0.333333 -0.000000      2.000000
  0.000000  0.000000  0.333333      2.000000
  0.250000 -0.000000  0.333333      2.000000
  0.500000 -0.000000  0.333333      2.000000
 -0.250000 -0.000000  0.333333      2.000000
  0.000000  0.333333  0.333333      2.000000
  0.250000  0.333333  0.333333      2.000000
  0.500000  0.333333  0.333333      2.000000
 -0.250000  0.333333  0.333333      2.000000
  0.000000 -0.333333  0.333333      2.000000
  0.250000 -0.333333  0.333333      2.000000
  0.500000 -0.333333  0.333333      2.000000
 -0.250000 -0.333333  0.333333      2.000000

 Following cartesian coordinates:
            Coordinates               Weight
  0.000000  0.000000  0.000000      1.000000
  0.042655  0.021332 -0.010605      2.000000
  0.085311  0.042664 -0.021209      1.000000
 -0.028429  0.028429 -0.014134      2.000000
  0.014227  0.049760 -0.024739      2.000000
  0.056882  0.071092 -0.035343      2.000000
 -0.071084  0.007097 -0.003529      2.000000
 -0.000003  0.000003  0.042413      2.000000
  0.042653  0.021335  0.031808      2.000000
  0.085308  0.042667  0.021204      2.000000
[...]
     30      -8.0207      1.00000
     31      -7.9872      1.00000
     32      -7.9846      1.00000
     33      -7.9780      1.00000
     34      -7.8943      1.00000
     35      -7.8929      1.00000
     36      -7.7856      1.00000
     37      -7.7388      1.00000
     38      -7.6812      1.00000
     39      -7.6159      1.00000
     40      -7.4682      1.00000
     41      -7.4595      1.00000
     42      -7.1634      1.00000
     43       0.3648      1.00000
     44       0.4684      1.00000
     45       1.1237      1.00000
     46       1.1361      1.00000
     47       1.2091      1.00000
     48       1.2253      1.00000
     49       1.3205      1.00000
     50       1.4832      1.00000
     51       1.4964      1.00000
     52       1.5071      1.00000
     53       1.5966      1.00000
     54       1.6111      1.00000
     55       1.7398      1.00000
     56       1.7483      1.00000
     57       1.7593      1.00000
     58       1.8654      1.00000
     59       1.8712      1.00000
     60       1.8746      1.00000
[...]
    130      10.3347      0.00000
    131      10.3473      0.00000
    132      10.3682      0.00000
    133      10.3912      0.00000
    134      10.4202      0.00000
    135      10.4222      0.00000
    136      10.4431      0.00000
    137      10.4627      0.00000
    138      10.4744      0.00000
    139      10.4950      0.00000
    140      10.5092      0.00000
    141      10.5359      0.00000
    142      10.5577      0.00000
    143      10.5796      0.00000
    144      10.6148      0.00000

[...]

 spin component 2

[...]

 k-point    19 :      -0.2500   -0.3333    0.3333
  band No.  band energies     occupation
      1     -24.4442      1.00000
      2     -24.4366      1.00000
      3     -24.4189      1.00000
      4     -24.3957      1.00000
      5     -24.3766      1.00000
      6     -24.3506      1.00000
      7     -11.3147      1.00000
      8     -11.2319      1.00000
      9     -11.1695      1.00000
     10     -11.0817      1.00000
     11     -10.8197      1.00000
     12     -10.4497      1.00000
     13     -10.4262      1.00000
     14     -10.3763      1.00000
     15     -10.3071      1.00000
     16     -10.1728      1.00000
     17     -10.1397      1.00000
     18     -10.1279      1.00000
     19     -10.0463      1.00000
     20     -10.0199      1.00000
     21      -9.8747      1.00000
     22      -9.8517      1.00000
     23      -9.7230      1.00000
     24      -9.7030      1.00000
     25      -8.2139      1.00000
     26      -7.9850      1.00000
     27      -7.9612      1.00000
     28      -7.9411      1.00000
     29      -7.9261      1.00000
     30      -7.9019      1.00000
     31      -7.8950      1.00000
     32      -7.8759      1.00000
     33      -7.7452      1.00000
     34      -7.7298      1.00000
     35      -7.7096      1.00000
     36      -7.6470      1.00000
     37      -7.6163      1.00000
     38      -7.5363      1.00000
     39      -7.5108      1.00000
     40      -7.4612      1.00000
     41      -7.4032      1.00000
     42      -7.2908      1.00000
     43       1.3122      1.00000
     44       1.7215      1.00000
     45       1.9373      1.00000
     46       2.1771      1.00000
     47       2.2266      1.00000
     48       2.3085      1.00000
     49       2.3230      1.00000
     50       2.3986      1.00000
     51       2.5922      1.00000
     52       2.9516      1.00000
     53       3.0079      1.00000
     54       3.0244      1.00000
     55       3.0622      1.00000
     56       3.0779      1.00000
     57       3.1455      1.00000
     58       3.1704      1.00000
     59       3.1962      1.00000
     60       3.2066      1.00000
[...]
    130      10.5531      0.00000
    131      10.5655      0.00000
    132      10.5728      0.00000
    133      10.5783      0.00000
    134      10.5966      0.00000
    135      10.6091      0.00000
    136      10.6238      0.00000
    137      10.6623      0.00000
    138      10.6682      0.00000
    139      10.6959      0.00000
    140      10.7158      0.00000
    141      10.7875      0.00000
    142      10.8806      0.00000
    143      10.9064      0.00000
    144      11.0937      0.00000

 soft charge-density along one line, spin component           1
         0         1         2         3         4         5         6         7         8         9
 total charge-density along one line

 soft charge-density along one line, spin component           2
         0         1         2         3         4         5         6         7         8         9
 total charge-density along one line

------------------------ aborting loop because EDIFF is reached ----------------------------------------

 total charge

# of ion       s       p       d       f       tot
    1        1.998   5.695   0.478   0.185   8.355
    2        1.998   5.696   0.476   0.184   8.354
    3        1.998   5.696   0.477   0.185   8.356
    4        1.998   5.696   0.477   0.185   8.356
    5        1.998   5.696   0.476   0.184   8.354
    6        1.999   5.695   0.478   0.185   8.356
    7        0.314   0.473   4.901   0.000   5.687
    8        0.325   0.493   4.892   0.000   5.710
    9        0.326   0.495   4.895   0.000   5.716
   10        0.314   0.473   4.901   0.000   5.687
   11        0.325   0.493   4.892   0.000   5.710
   12        0.389   0.558   8.321   0.000   9.268
   13        1.564   3.455   0.000   0.000   5.020
   14        1.564   3.457   0.000   0.000   5.021
   15        1.564   3.457   0.000   0.000   5.021
   16        1.565   3.455   0.000   0.000   5.020
   17        1.559   3.455   0.000   0.000   5.014
   18        1.559   3.455   0.000   0.000   5.014
   19        1.565   3.455   0.000   0.000   5.020
   20        1.560   3.458   0.000   0.000   5.018
   21        1.565   3.455   0.000   0.000   5.020
   22        1.562   3.461   0.000   0.000   5.023
   23        1.565   3.456   0.000   0.000   5.020
   24        1.560   3.458   0.000   0.000   5.018
   25        1.565   3.456   0.000   0.000   5.021
   26        1.562   3.461   0.000   0.000   5.023
   27        1.565   3.456   0.000   0.000   5.021
   28        1.560   3.458   0.000   0.000   5.018
   29        1.565   3.455   0.000   0.000   5.020
   30        1.560   3.458   0.000   0.000   5.018
tot         42.110  99.379  35.662   1.107 178.259

 magnetization (x)

[...]

  FORCE on cell =-STRESS in cart. coord.  units (eV):
  Direction    XX          YY          ZZ          XY          YZ          ZX
  Alpha Z   967.51084   967.51084   967.51084
  Ewald   -4861.00608 -4861.00606 -4901.42090     9.09637     0.45351    -0.45350
  Hartree  1009.41384  1009.41392   990.52224     8.78358     0.35868    -0.35866
  E(xc)   -1005.67403 -1005.67404 -1005.76359    -0.00524     0.00091    -0.00089
  Local    -519.05997  -519.05961  -465.39504   -17.96931    -0.72478     0.72502
  n-local   390.81328   390.78158   389.74824     0.00142     0.01533    -0.00578
  augment   198.02729   198.02735   199.67682     0.03562    -0.01368     0.01378
  Kinetic  3821.36165  3821.28682  3826.55996     0.08767    -0.06665     0.10157
  Fock        0.00000     0.00000     0.00000     0.00000     0.00000     0.00000
  Total       1.33381     1.33381     1.43856     0.03119     0.00064    -0.00064
  in kB       5.93569     5.93569     6.40186     0.13879     0.00284    -0.00284

 VOLUME and BASIS-vectors are now :
  energy-cutoff  :      520.00
  volume of cell :      360.03
      direct lattice vectors                 reciprocal lattice vectors
     3.907026908  3.907026908 -0.000000000     0.170621736  0.085327358 -0.042418850
    -3.908930196  7.815957094 -0.000789386    -0.085285812  0.085285812 -0.042401757
    -0.000109408  3.907136315  7.858934238    -0.000008566  0.000008566  0.127239457

  length of vectors
     5.525370442  8.738931354  8.776591683     0.195427464  0.127848537  0.127239458

 FORCES acting on ions
    electron-ion (+dipol)            ewald-force                    non-local-force                 convergence-correction
   -.690E+00 0.690E+00 -.545E+02   0.712E+00 -.712E+00 0.540E+02   -.932E-02 0.932E-02 0.368E+00   0.205E-03 -.202E-03 0.510E-02
   -.315E+02 0.315E+02 0.242E+02   0.312E+02 -.312E+02 -.240E+02   0.257E+00 -.257E+00 -.146E+00   0.115E-02 -.116E-02 -.451E-02
   -.310E+02 0.310E+02 -.247E+02   0.307E+02 -.307E+02 0.246E+02   0.270E+00 -.270E+00 0.949E-01   0.725E-03 -.728E-03 0.235E-02
   0.310E+02 -.310E+02 0.247E+02   -.307E+02 0.307E+02 -.246E+02   -.270E+00 0.270E+00 -.949E-01   -.719E-03 0.723E-03 -.235E-02
   0.315E+02 -.315E+02 -.242E+02   -.312E+02 0.312E+02 0.240E+02   -.257E+00 0.257E+00 0.146E+00   -.115E-02 0.116E-02 0.451E-02
   0.689E+00 -.689E+00 0.545E+02   -.712E+00 0.712E+00 -.540E+02   0.932E-02 -.932E-02 -.368E+00   -.201E-03 0.198E-03 -.511E-02
   0.213E+02 -.213E+02 -.136E+01   -.208E+02 0.208E+02 0.121E+01   -.598E+00 0.598E+00 0.158E+00   -.351E-02 0.351E-02 -.393E-02
   0.292E+01 -.292E+01 0.109E+02   -.299E+01 0.299E+01 -.108E+02   0.531E-01 -.531E-01 -.752E-01   0.188E-02 -.188E-02 -.301E-02
   0.544E-04 0.259E-04 0.276E-04   -.454E-04 -.953E-04 0.444E-04   0.157E-19 -.271E-19 -.271E-19   0.239E-05 -.194E-05 -.196E-05
   -.213E+02 0.213E+02 0.136E+01   0.208E+02 -.208E+02 -.121E+01   0.598E+00 -.598E+00 -.158E+00   0.351E-02 -.351E-02 0.394E-02
   -.292E+01 0.292E+01 -.109E+02   0.299E+01 -.299E+01 0.108E+02   -.531E-01 0.531E-01 0.752E-01   -.188E-02 0.188E-02 0.301E-02
   0.141E-03 -.128E-04 0.749E-04   -.634E-04 -.145E-03 0.650E-04   0.122E-20 0.136E-19 0.000E+00   0.278E-05 -.200E-05 -.353E-05
   0.110E+02 -.110E+02 0.593E+01   -.111E+02 0.111E+02 -.852E+01   0.170E+00 -.170E+00 0.260E+01   0.235E-03 -.235E-03 0.738E-02
   0.108E+02 -.108E+02 -.173E+01   -.110E+02 0.110E+02 0.394E+01   0.192E+00 -.192E+00 -.227E+01   -.896E-04 0.900E-04 -.113E-02
   -.108E+02 0.108E+02 0.173E+01   0.110E+02 -.110E+02 -.394E+01   -.192E+00 0.192E+00 0.227E+01   0.923E-04 -.923E-04 0.113E-02
   -.110E+02 0.110E+02 -.593E+01   0.111E+02 -.111E+02 0.852E+01   -.170E+00 0.170E+00 -.260E+01   -.239E-03 0.239E-03 -.738E-02
   -.184E+00 0.185E+00 -.593E+02   0.172E+00 -.172E+00 0.557E+02   0.100E-01 -.100E-01 0.359E+01   -.195E-03 0.196E-03 0.893E-02
   0.184E+00 -.184E+00 0.593E+02   -.172E+00 0.172E+00 -.557E+02   -.100E-01 0.100E-01 -.359E+01   0.197E-03 -.197E-03 -.894E-02
   -.171E-03 -.134E-03 -.717E-04   0.475E-04 -.252E-03 -.489E-04   0.413E-19 0.542E-19 -.136E-19   -.200E-05 0.235E-05 0.177E-05
   0.104E+02 -.566E+02 -.111E+00   -.104E+02 0.529E+02 0.664E-01   0.518E-01 0.364E+01 0.617E-01   0.246E-03 -.671E-03 -.100E-02
   -.871E+00 -.362E+01 0.987E+01   0.106E+01 0.357E+01 -.102E+02   -.205E+00 0.424E-01 0.413E+00   0.481E-03 -.290E-02 -.140E-03
   -.178E-03 -.129E-03 -.774E-04   0.497E-04 -.251E-03 -.465E-04   -.393E-19 0.813E-19 -.271E-19   -.153E-05 0.185E-05 0.196E-05
   0.871E+00 0.362E+01 -.987E+01   -.106E+01 -.357E+01 0.102E+02   0.205E+00 -.424E-01 -.413E+00   -.479E-03 0.290E-02 0.138E-03
   -.104E+02 0.566E+02 0.111E+00   0.104E+02 -.529E+02 -.664E-01   -.518E-01 -.364E+01 -.617E-01   -.244E-03 0.669E-03 0.100E-02
   0.362E+01 0.872E+00 0.987E+01   -.357E+01 -.106E+01 -.102E+02   -.424E-01 0.205E+00 0.413E+00   0.290E-02 -.481E-03 -.140E-03
   -.153E-03 -.266E-03 -.929E-04   0.497E-04 -.431E-05 -.806E-04   0.203E-18 -.271E-19 0.000E+00   -.162E-05 0.151E-05 0.231E-05
   -.362E+01 -.871E+00 -.987E+01   0.357E+01 0.106E+01 0.102E+02   0.424E-01 -.205E+00 -.413E+00   -.290E-02 0.479E-03 0.138E-03
   -.566E+02 0.104E+02 0.111E+00   0.529E+02 -.104E+02 -.664E-01   0.364E+01 0.518E-01 -.617E-01   -.669E-03 0.244E-03 0.100E-02
   -.146E-03 -.270E-03 -.940E-04   0.476E-04 0.551E-06 -.789E-04   0.252E-19 -.474E-19 0.136E-19   -.210E-05 0.198E-05 0.214E-05
   0.566E+02 -.104E+02 -.111E+00   -.529E+02 0.104E+02 0.665E-01   -.364E+01 -.518E-01 0.617E-01   0.671E-03 -.246E-03 -.100E-02
   -.317E-02 0.479E-02 -.169E-02   0.426E-13 0.195E-13 -.673E-13   0.444E-15 -.128E-14 -.513E-15   0.679E-05 -.607E-05 0.346E-05

 POSITION                                       TOTAL-FORCE (eV/Angst)
     -0.00053     11.72161      3.88180         0.013063     -0.013063     -0.086695
     -0.02993      7.84398      0.01333        -0.051290      0.051290      0.005278
     -0.03084      7.84490      3.91382        -0.064159      0.064159     -0.005148
      0.02920      3.87783      0.01499         0.064159     -0.064159      0.005148
      0.02829      3.87874      3.91548         0.051290     -0.051290     -0.005278
     -0.00301     11.72410      0.04622        -0.013063      0.013063      0.086695
      1.95517      5.85888      1.96747        -0.113330      0.113330      0.004493
      1.95112      5.86293      5.90131        -0.011622      0.011622      0.012098
      1.95264      9.76844      5.89387         0.000000      0.000000     -0.000000
     -1.95681      5.86384      1.96134         0.113330     -0.113330     -0.004493
     -1.95288      9.76693      5.88643         0.011622     -0.011622     -0.012098
     -1.95529      9.76934      1.96401         0.000000      0.000000     -0.000000
      1.95100      5.86305      3.97433         0.009311     -0.009311      0.024114
      1.95021      9.77087      7.82628         0.007268     -0.007268     -0.047778
      1.95507      9.76601      3.96147        -0.007268      0.007268      0.047778
     -1.95276      9.76681      7.81341        -0.009311      0.009311     -0.024114
     -1.95458      9.76864      3.94911        -0.002510      0.002510     -0.027208
      1.95283      5.86122      7.83863         0.002510     -0.002510      0.027208
     -1.95534     11.72291      5.89348         0.000000      0.000000     -0.000000
      1.94894      3.92872      1.96619         0.012552     -0.058340      0.015966
      1.94969      7.81720      5.89605        -0.012997     -0.012673      0.047352
      1.95269      7.81487      1.96440         0.000000      0.000000     -0.000000
     -1.95144      7.81266      5.89169         0.012997      0.012673     -0.047352
     -1.95058      7.79400      1.96262        -0.012552      0.058340     -0.015966
     -0.00314      5.86436      5.89605         0.012673      0.012997      0.047352
     -0.00082      5.86136      1.96440         0.000000      0.000000     -0.000000
      0.00139      9.76550      5.89169        -0.012673     -0.012997     -0.047352
      0.02006      9.76463      1.96262        -0.058340      0.012552     -0.015966
     -0.00183     13.67642      5.89348         0.000000      0.000000     -0.000000
     -0.02170      1.95809      1.96619         0.058340     -0.012552      0.015966
    total drift:                               -0.003159      0.004785     -0.001686

  FREE ENERGIE OF THE ION-ELECTRON SYSTEM (eV)
  free  energy   TOTEN  =      -232.30877709 eV

  energy  without entropy=     -232.30877709  energy(sigma->0) =     -232.30877709

 total charge

[...]

 magnetization (x)

# of ion       s       p       d       f       tot
    1        0.000   0.001   0.010   0.006   0.017
    2        0.001   0.001   0.011   0.007   0.019
    3        0.001   0.001   0.011   0.007   0.019
    4        0.001   0.001   0.011   0.007   0.019
    5        0.001   0.001   0.011   0.007   0.019
    6        0.001   0.001   0.010   0.006   0.017
    7        0.025   0.030   3.798   0.000   3.852
    8        0.027   0.029   3.712   0.000   3.768
    9        0.027   0.028   3.719   0.000   3.774
   10        0.025   0.030   3.798   0.000   3.852
   11        0.027   0.029   3.712   0.000   3.768
   12        0.009  -0.001   1.696   0.000   1.705
   13        0.007  -0.032   0.000   0.000  -0.025
   14        0.007  -0.024   0.000   0.000  -0.017
   15        0.007  -0.024   0.000   0.000  -0.017
   16        0.007  -0.032   0.000   0.000  -0.025
   17        0.005  -0.002   0.000   0.000   0.003
   18        0.005  -0.002   0.000   0.000   0.003
   19        0.006  -0.040   0.000   0.000  -0.034
   20        0.005  -0.006   0.000   0.000  -0.000
   21        0.006  -0.038   0.000   0.000  -0.032
   22        0.004  -0.036   0.000   0.000  -0.032
   23        0.006  -0.038   0.000   0.000  -0.032
   24        0.005  -0.006   0.000   0.000  -0.000
   25        0.006  -0.038   0.000   0.000  -0.032
   26        0.004  -0.036   0.000   0.000  -0.032
   27        0.006  -0.038   0.000   0.000  -0.032
   28        0.006  -0.006   0.000   0.000  -0.000
   29        0.006  -0.041   0.000   0.000  -0.034
   30        0.006  -0.006   0.000   0.000  -0.000
tot          0.248  -0.294  20.500   0.039  20.492

 BZINTS: Fermi energy:  8.124907;219.000000 electrons
         Band energy:-409.113658;  BLOECHL correction: -0.004461