 vasp.5.4.4.18Apr17-6-g9f103f2a35 (build Oct 03 2018 13:58:34) complex

 executed on             LinuxIFC date 2019.06.04  01:38:56

 INCAR:
 POTCAR:    PAW_PBE La 06Sep2000
 POTCAR:    PAW_PBE Mn 06Sep2000
 POTCAR:    PAW_PBE Ni 02Aug2007
 POTCAR:    PAW_PBE O 08Apr2002

 POTCAR:    PAW_PBE La 06Sep2000
   VRHFIN =La : [core=Kr4d]

   TITEL  = PAW_PBE La 06Sep2000
   POMASS =  138.900; ZVAL   =   11.000    mass and valenz
   ENMAX  =  219.292; ENMIN  =  164.469 eV

 POTCAR:    PAW_PBE Mn 06Sep2000
   VRHFIN =Mn: d6 s1

   TITEL  = PAW_PBE Mn 06Sep2000
   POMASS =   54.938; ZVAL   =    7.000    mass and valenz
   ENMAX  =  269.864; ENMIN  =  202.398 eV

 POTCAR:    PAW_PBE Ni 02Aug2007
   VRHFIN =Ni:

   TITEL  = PAW_PBE Ni 02Aug2007
   POMASS =   58.690; ZVAL   =   10.000    mass and valenz
   ENMAX  =  269.532; ENMIN  =  202.149 eV

 POTCAR:    PAW_PBE O 08Apr2002
   VRHFIN =O: s2p4

   TITEL  = PAW_PBE O 08Apr2002
   POMASS =   16.000; ZVAL   =    6.000    mass and valenz
   ENMAX  =  400.000; ENMIN  =  300.000 eV

 Optimization of the real space projectors (new method)

 maximal supplied QI-value         = 13.42
 optimisation between [QCUT,QGAM] = [ 11.67, 23.35] = [ 38.16,152.62] Ry
 Optimized for a Real-space Cutoff    1.63 Angstroem

   l    n(q)    QCUT    max X(q) W(low)/X(q) W(high)/X(q)  e(spline)
   0     11    11.673    13.882    0.27E-04    0.79E-05    0.11E-06
   0     11    11.673    12.184    0.39E-04    0.13E-04    0.19E-06
   1     11    11.673     4.523    0.73E-05    0.76E-05    0.12E-06
   1     11    11.673     4.424    0.87E-05    0.13E-04    0.19E-06
   2     10    11.673    52.481    0.65E-04    0.36E-04    0.18E-06
   2     10    11.673    38.501    0.61E-04    0.33E-04    0.17E-06
   3     10    11.673    65.631    0.17E-03    0.14E-03    0.37E-06
   3     10    11.673    56.854    0.17E-03    0.14E-03    0.37E-06
 Optimization of the real space projectors (new method)

[...]

   l    n(q)    QCUT    max X(q) W(low)/X(q) W(high)/X(q)  e(spline)
   2      9    11.539    60.317    0.19E-03    0.47E-04    0.16E-06
   2      9    11.539    55.921    0.19E-03    0.48E-04    0.16E-06
   0     10    11.539    51.690    0.80E-04    0.50E-04    0.24E-06
   0     10    11.539    30.015    0.73E-04    0.45E-04    0.22E-06
   1     10    11.539    18.849    0.87E-04    0.16E-03    0.71E-07
   1     10    11.539    14.624    0.73E-04    0.13E-03    0.64E-07
 Optimization of the real space projectors (new method)

 maximal supplied QI-value         = 24.76
 optimisation between [QCUT,QGAM] = [ 11.64, 23.27] = [ 37.91,151.63] Ry
 Optimized for a Real-space Cutoff    1.14 Angstroem

   l    n(q)    QCUT    max X(q) W(low)/X(q) W(high)/X(q)  e(spline)
   0      8    11.635    20.381    0.10E-03    0.33E-03    0.24E-06
   0      8    11.635    15.268    0.11E-03    0.35E-03    0.26E-06
   1      7    11.635     5.964    0.24E-03    0.31E-03    0.30E-06
   1      7    11.635     5.382    0.22E-03    0.25E-03    0.26E-06
  PAW_PBE La 06Sep2000                  :
  PAW_PBE Mn 06Sep2000                  :
  PAW_PBE Ni 02Aug2007                  :
  PAW_PBE O 08Apr2002                   :

 POSCAR: SCEL6_1_6_1_1_0_0/4
  positions in direct lattice
  velocities in cartesian coordinates
 exchange correlation table for  LEXCH =        8
   RHO(1)=    0.500       N(1)  =     2000
   RHO(2)=  100.500       N(2)  =     4000

 ion  position               nearest neighbor table
   1  0.000  0.500  0.160-  30 2.67  24 2.70  17 2.70  17 2.70  24 2.70  29 2.75  29 2.75  16 2.82
                            16 2.82  23 2.82  23 2.82  12 3.28  12 3.28  11 3.37  11 3.37  11 3.37
   2  0.000  0.000  0.331-  29 2.70  23 2.71  16 2.71  16 2.71  23 2.71  28 2.75  28 2.75  15 2.78
                            15 2.78  22 2.78  22 2.78  11 3.31  11 3.31   9 3.36   9 3.36   9 3.36
   3  0.000  0.500  0.496-  28 2.66  22 2.70  15 2.70  15 2.70  22 2.70  27 2.75  27 2.75  14 2.79
                            14 2.79  21 2.79  21 2.79  26 2.83   9 3.32   9 3.32  10 3.36  10 3.36
   4  0.000  0.000  0.660-  27 2.59  21 2.68  14 2.68  14 2.68  21 2.68  26 2.75  26 2.75  13 2.80
                            13 2.80  20 2.80  20 2.80  10 3.28  10 3.28   7 3.37   7 3.37   7 3.37
   5  0.000  0.500  0.842-  30 2.57  18 2.66  18 2.66  19 2.66  19 2.66  25 2.75  25 2.75  13 2.82
                            20 2.82  13 2.82  20 2.82  12 3.24  12 3.24   8 3.37   8 3.37   8 3.37
   6  0.000  0.000  0.011-  29 2.57  24 2.65  17 2.65  17 2.65  24 2.65  30 2.76  30 2.76  11 3.24
                            11 3.24  12 3.37  12 3.37  12 3.37  12 3.37
   7  0.500  0.500  0.667-  14 1.89  21 1.89  20 1.93  13 1.93  26 1.94  26 1.94   4 3.37   4 3.37
                             4 3.37   4 3.37   3 3.43   3 3.43
   8  0.500  0.000  0.833-  18 1.89  19 1.89  25 1.94  25 1.94  13 1.94  20 1.94   5 3.37   5 3.37
                             5 3.37   5 3.37
   9  0.500  0.500  0.332-  16 1.89  23 1.89  22 1.91  15 1.91  28 1.94  28 1.94   3 3.32   3 3.32
                             2 3.36   2 3.36   2 3.36   2 3.36
  10  0.500  0.000  0.499-  27 1.94  27 1.94  15 1.98  22 1.98  21 2.01  14 2.01   4 3.28   4 3.28
                             3 3.36   3 3.36   3 3.36   3 3.36   2 3.38   2 3.38
  11  0.500  0.000  0.168-  29 1.94  29 1.94  17 1.96  24 1.96  23 1.97  16 1.97   6 3.24   6 3.24
                             2 3.31   2 3.31   1 3.37   1 3.37   1 3.37   1 3.37
  12  0.500  0.500  0.999-  30 1.94  30 1.94  17 1.95  24 1.95  19 1.99  18 1.99   5 3.24   5 3.24
                             1 3.28   1 3.28   6 3.37   6 3.37   6 3.37   6 3.37
  13  0.500  0.751  0.750-   7 1.93   8 1.94   4 2.80   4 2.80   5 2.82   5 2.82
  14  0.500  0.256  0.587-   7 1.89  10 2.01   4 2.68   4 2.68   3 2.79   3 2.79
  15  0.500  0.742  0.415-   9 1.91  10 1.98   3 2.70   3 2.70   2 2.78   2 2.78
  16  0.500  0.253  0.253-   9 1.89  11 1.97   2 2.71   2 2.71   1 2.82   1 2.82
  17  0.500  0.751  0.083-  12 1.95  11 1.96   6 2.65   6 2.65   1 2.70   1 2.70
  18  0.500  0.248  0.913-   8 1.89  12 1.99   5 2.66   5 2.66
  19  0.500  0.752  0.913-   8 1.89  12 1.99   5 2.66   5 2.66
  20  0.500  0.249  0.750-   7 1.93   8 1.94   4 2.80   4 2.80   5 2.82   5 2.82
  21  0.500  0.744  0.587-   7 1.89  10 2.01   4 2.68   4 2.68   3 2.79   3 2.79
  22  0.500  0.258  0.415-   9 1.91  10 1.98   3 2.70   3 2.70   2 2.78   2 2.78
  23  0.500  0.747  0.253-   9 1.89  11 1.97   2 2.71   2 2.71   1 2.82   1 2.82
  24  0.500  0.249  0.083-  12 1.95  11 1.96   6 2.65   6 2.65   1 2.70   1 2.70
  25  0.000  0.000  0.831-   8 1.94   8 1.94   5 2.75   5 2.75
  26  0.000  0.500  0.667-   7 1.94   7 1.94   4 2.75   4 2.75   3 2.83
  27  0.000  0.000  0.503-  10 1.94  10 1.94   4 2.59   3 2.75   3 2.75
  28  0.000  0.500  0.335-   9 1.94   9 1.94   3 2.66   2 2.75   2 2.75
  29  0.000  0.000  0.167-  11 1.94  11 1.94   6 2.57   2 2.70   1 2.75   1 2.75
  30  0.000  0.500  0.998-  12 1.94  12 1.94   5 2.57   1 2.67   6 2.76   6 2.76

  LATTYP: Found a simple orthorhombic cell.
 ALAT       =     3.8795683580
 B/A-ratio  =     1.4159617733
 C/A-ratio  =     4.2513163660

  Lattice vectors:

 A1 = (   3.8795683580,   0.0000000000,   0.0000000000)
 A2 = (   0.0000000000,   3.8843641711,   3.8843641711)
 A3 = (   0.0000000000, -11.6625047959,  11.6625047959)

Analysis of symmetry for initial positions (statically):
 Subroutine PRICEL returns:
 Original cell was already a primitive cell.

 Routine SETGRP: Setting up the symmetry group for a
 simple orthorhombic supercell.

 Subroutine GETGRP returns: Found  4 space group operations
 (whereof  4 operations were pure point group operations)
 out of a pool of  8 trial point group operations.

The static configuration has the point symmetry C_2v.

Analysis of symmetry for dynamics (positions and initial velocities):
 Subroutine PRICEL returns:
 Original cell was already a primitive cell.

[...]

The dynamic configuration has the point symmetry C_2v.

Analysis of structural, dynamic, and magnetic symmetry:
 Subroutine PRICEL returns:
 Original cell was already a primitive cell.

 Routine SETGRP: Setting up the symmetry group for a
 simple orthorhombic supercell.

 Subroutine GETGRP returns: Found  4 space group operations
 (whereof  4 operations were pure point group operations)
 out of a pool of  8 trial point group operations.

The magnetic configuration has the point symmetry C_2v.

 Subroutine INISYM returns: Found  4 space group operations
 (whereof  4 operations are pure point group operations),
 and found     1 'primitive' translations

 KPOINTS: Automatic mesh

Automatic generation of k-mesh.
 generate k-points for:    5    4    1
Space group operators:
 irot       det(A)        alpha          n_x          n_y          n_z        tau_x        tau_y        tau_z
    1     1.000000     0.000000     1.000000     0.000000     0.000000     0.000000     0.000000     0.000000
    2     1.000000   180.000000     0.000000    -0.707107     0.707107     0.000000     0.000000     0.000000
    3    -1.000000   180.000000     0.000000     0.707107     0.707107     0.000000     0.000000     0.000000
    4    -1.000000   180.000000     1.000000     0.000000     0.000000     0.000000     0.000000     0.000000

 Subroutine IBZKPT returns following result:

 Found      9 irreducible k-points:

 Following reciprocal coordinates:
            Coordinates               Weight
  0.000000  0.000000  0.000000      1.000000
  0.200000  0.000000  0.000000      2.000000
  0.400000  0.000000  0.000000      2.000000
  0.000000  0.250000  0.000000      2.000000
  0.200000  0.250000  0.000000      4.000000
  0.400000  0.250000  0.000000      4.000000
  0.000000  0.500000  0.000000      1.000000
  0.200000  0.500000  0.000000      2.000000
  0.400000  0.500000  0.000000      2.000000

 Following cartesian coordinates:
            Coordinates               Weight
  0.000000  0.000000  0.000000      1.000000
  0.051552  0.000000  0.000000      2.000000
  0.103104  0.000000  0.000000      2.000000
  0.000000  0.032180  0.032180      2.000000
  0.051552  0.032180  0.032180      4.000000
  0.103104  0.032180  0.032180      4.000000
  0.000000  0.064361  0.064361      1.000000
  0.051552  0.064361  0.064361      2.000000
  0.103104  0.064361  0.064361      2.000000

 TETIRR: Found     54 inequivalent tetrahedra from      120

 SYSTEM =  final
 POSCAR =  SCEL6_1_6_1_1_0_0/4

 Startparameter for this run:
   NWRITE =      2    write-flag & timer
   PREC   = accura    normal or accurate (medium, high low for compatibility)
   ISTART =      0    job   : 0-new  1-cont  2-samecut
   ICHARG =      1    charge: 1-file 2-atom 10-const
   ISPIN  =      2    spin polarized calculation?
   LNONCOLLINEAR =      F non collinear calculations
   LSORBIT =      F    spin-orbit coupling
   INIWAV =      1    electr: 0-lowe 1-rand  2-diag
   LASPH  =      F    aspherical Exc in radial PAW
   METAGGA=      F    non-selfconsistent MetaGGA calc.

 Electronic Relaxation 1
   ENCUT  =  520.0 eV  38.22 Ry    6.18 a.u.   7.21 10.21 30.67*2*pi/ulx,y,z
   ENINI  =  520.0     initial cutoff
   ENAUG  =  605.4 eV  augmentation charge cutoff
[...]
     30      -7.3307      1.00000
     31      -7.3113      1.00000
     32      -7.2963      1.00000
     33      -7.2675      1.00000
     34      -7.1720      1.00000
     35      -7.1598      1.00000
     36      -7.0890      1.00000
     37      -7.0614      1.00000
     38      -7.0544      1.00000
     39      -7.0080      1.00000
     40      -6.9400      1.00000
     41      -6.9168      1.00000
     42      -6.8192      1.00000
     43       0.3479      1.00000
     44       0.5830      1.00000
     45       0.6610      1.00000
     46       0.8952      1.00000
     47       0.9340      1.00000
     48       1.1724      1.00000
     49       1.1752      1.00000
     50       1.3840      1.00000
     51       1.5513      1.00000
     52       1.8562      1.00000
     53       1.8657      1.00000
     54       2.0021      1.00000
     55       2.0186      1.00000
     56       2.0549      1.00000
     57       2.0634      1.00000
     58       2.1352      1.00000
     59       2.1527      1.00000
     60       2.1921      1.00000
[...]
    132      10.8067      0.00000
    133      10.8337      0.00000
    134      10.8901      0.00000
    135      10.9362      0.00000
    136      10.9873      0.00000
    137      11.0023      0.00000
    138      11.0379      0.00000
    139      11.0637      0.00000
    140      11.0698      0.00000
    141      11.0980      0.00000
    142      11.1116      0.00000
    143      11.1238      0.00000
    144      11.1630      0.00000
    145      11.1821      0.00000
    146      11.2004      0.00000

[...]

 spin component 2

[...]

 k-point     9 :       0.4000    0.5000    0.0000
  band No.  band energies     occupation
      1     -23.9082      1.00000
      2     -23.8906      1.00000
      3     -23.8353      1.00000
      4     -23.8308      1.00000
      5     -23.8192      1.00000
      6     -23.7397      1.00000
      7     -10.8073      1.00000
      8     -10.7547      1.00000
      9     -10.7036      1.00000
     10     -10.5972      1.00000
     11     -10.5535      1.00000
     12     -10.5059      1.00000
     13     -10.3701      1.00000
     14     -10.2732      1.00000
     15     -10.2518      1.00000
     16     -10.1272      1.00000
     17     -10.0692      1.00000
     18      -9.9460      1.00000
     19      -9.9113      1.00000
     20      -9.7726      1.00000
     21      -9.7300      1.00000
     22      -9.6233      1.00000
     23      -9.5971      1.00000
     24      -9.5296      1.00000
     25      -7.6488      1.00000
     26      -7.6162      1.00000
     27      -7.4347      1.00000
     28      -7.3466      1.00000
     29      -7.3007      1.00000
     30      -7.2523      1.00000
     31      -7.2313      1.00000
     32      -7.1875      1.00000
     33      -7.1647      1.00000
     34      -7.0801      1.00000
     35      -7.0516      1.00000
     36      -7.0395      1.00000
     37      -7.0298      1.00000
     38      -6.9715      1.00000
     39      -6.9645      1.00000
     40      -6.8658      1.00000
     41      -6.8234      1.00000
     42      -6.8040      1.00000
     43       1.6937      1.00000
     44       1.7086      1.00000
     45       1.7303      1.00000
     46       1.7946      1.00000
     47       1.8520      1.00000
     48       1.8555      1.00000
     49       1.9873      1.00000
     50       2.0036      1.00000
     51       2.1662      1.00000
     52       2.1838      1.00000
     53       2.5478      1.00000
     54       2.6541      1.00000
     55       2.8304      1.00000
     56       2.8435      1.00000
     57       2.8789      1.00000
     58       2.9918      1.00000
     59       3.0054      1.00000
     60       3.0430      1.00000
[...]
    132      11.0611      0.00000
    133      11.0684      0.00000
    134      11.0793      0.00000
    135      11.0857      0.00000
    136      11.0913      0.00000
    137      11.1039      0.00000
    138      11.1161      0.00000
    139      11.1233      0.00000
    140      11.1322      0.00000
    141      11.1550      0.00000
    142      11.1663      0.00000
    143      11.1825      0.00000
    144      11.1944      0.00000
    145      11.2532      0.00000
    146      11.3067      0.00000

 soft charge-density along one line, spin component           1
         0         1         2         3         4         5         6         7         8         9
 total charge-density along one line

 soft charge-density along one line, spin component           2
         0         1         2         3         4         5         6         7         8         9
 total charge-density along one line

------------------------ aborting loop because EDIFF is reached ----------------------------------------

 total charge

# of ion       s       p       d       f       tot
    1        2.000   5.697   0.488   0.188   8.373
    2        1.999   5.699   0.486   0.190   8.375
    3        2.000   5.699   0.491   0.191   8.380
    4        2.001   5.700   0.501   0.196   8.398
    5        2.001   5.700   0.504   0.197   8.403
    6        2.002   5.696   0.503   0.192   8.394
    7        0.343   0.532   4.866   0.000   5.741
    8        0.341   0.527   4.862   0.000   5.730
    9        0.352   0.558   4.874   0.000   5.783
   10        0.393   0.559   8.318   0.000   9.269
   11        0.408   0.603   8.325   0.000   9.336
   12        0.408   0.596   8.326   0.000   9.329
   13        1.561   3.461   0.000   0.000   5.023
   14        1.563   3.450   0.000   0.000   5.013
   15        1.561   3.457   0.000   0.000   5.018
   16        1.561   3.457   0.000   0.000   5.018
   17        1.559   3.450   0.000   0.000   5.009
   18        1.563   3.451   0.000   0.000   5.014
   19        1.563   3.451   0.000   0.000   5.014
   20        1.561   3.461   0.000   0.000   5.023
   21        1.563   3.450   0.000   0.000   5.013
   22        1.561   3.457   0.000   0.000   5.018
   23        1.561   3.457   0.000   0.000   5.018
   24        1.559   3.450   0.000   0.000   5.009
   25        1.566   3.447   0.000   0.000   5.012
   26        1.566   3.450   0.000   0.000   5.016
   27        1.555   3.457   0.000   0.000   5.011
   28        1.565   3.459   0.000   0.000   5.024
   29        1.559   3.450   0.000   0.000   5.009
   30        1.558   3.456   0.000   0.000   5.014
tot         42.355  99.735  42.543   1.155 185.787

 magnetization (x)

[...]

  FORCE on cell =-STRESS in cart. coord.  units (eV):
  Direction    XX          YY          ZZ          XY          YZ          ZX
  Alpha Z   982.45015   982.45015   982.45015
  Ewald   -5038.01964 -5201.10141 -5201.10141    -0.00000    54.40229     0.00000
  Hartree  1275.91012  1131.65936  1131.65936     0.00000    59.23562    -0.00000
  E(xc)   -1046.17022 -1046.45752 -1046.45752     0.00000    -0.05208    -0.00000
  Local    -927.45622  -619.97834  -619.97834     0.00000  -113.15227     0.00000
  n-local   416.71752   416.28460   416.28670    -0.46403     0.76678    -0.46341
  augment   489.61995   489.18606   489.18606    -0.00000    -0.03219    -0.00000
  Kinetic  3847.09351  3847.64054  3847.63742     0.73525    -1.42766     0.73484
  Fock        0.00000     0.00000     0.00000     0.00000     0.00000     0.00000
  Total       0.14516    -0.31707    -0.31707     0.00000    -0.25946     0.00000
  in kB       0.66167    -1.44526    -1.44526     0.00000    -1.18264     0.00000

 VOLUME and BASIS-vectors are now :
  energy-cutoff  :      520.00
  volume of cell :      351.50
      direct lattice vectors                 reciprocal lattice vectors
     3.879568358  0.000000000  0.000000000     0.257760634  0.000000000  0.000000000
     0.000000000  3.884364171  3.884364171     0.000000000  0.128721196  0.128721196
     0.000000000-11.662504796 11.662504796     0.000000000 -0.042872437  0.042872437

  length of vectors
     3.879568358  5.493320492 16.493272454     0.257760634  0.182039260  0.060630782

 FORCES acting on ions
    electron-ion (+dipol)            ewald-force                    non-local-force                 convergence-correction
   -.116E-13 0.657E+02 -.657E+02   -.734E-14 -.649E+02 0.649E+02   0.000E+00 -.744E+00 0.744E+00   0.226E-13 -.987E-02 0.987E-02
   0.307E-14 0.564E+02 -.564E+02   -.281E-13 -.561E+02 0.561E+02   0.000E+00 -.335E+00 0.335E+00   0.170E-13 0.286E-01 -.286E-01
   0.264E-14 0.599E+02 -.599E+02   -.244E-13 -.595E+02 0.595E+02   0.000E+00 -.510E+00 0.510E+00   0.119E-13 0.129E-01 -.129E-01
   -.672E-14 0.771E+02 -.771E+02   -.366E-13 -.763E+02 0.763E+02   0.000E+00 -.836E+00 0.836E+00   0.153E-13 -.270E-01 0.270E-01
   -.406E-14 -.125E+03 0.125E+03   0.447E-14 0.124E+03 -.124E+03   0.000E+00 0.101E+01 -.101E+01   0.201E-13 -.218E-01 0.218E-01
   0.475E-14 -.130E+03 0.130E+03   -.199E-13 0.129E+03 -.129E+03   0.000E+00 0.126E+01 -.126E+01   0.144E-13 0.190E-01 -.190E-01
   0.409E-13 0.325E+02 -.325E+02   -.555E-14 -.321E+02 0.321E+02   0.000E+00 -.358E+00 0.358E+00   0.153E-13 -.155E-01 0.155E-01
   0.470E-13 -.513E+02 0.513E+02   -.194E-13 0.509E+02 -.509E+02   0.000E+00 0.492E+00 -.492E+00   0.107E-13 -.180E-01 0.180E-01
   0.360E-13 0.192E+02 -.192E+02   0.462E-14 -.191E+02 0.191E+02   0.000E+00 -.162E+00 0.162E+00   0.148E-16 0.205E-01 -.205E-01
   0.293E-12 0.328E+02 -.328E+02   0.185E-13 -.322E+02 0.322E+02   0.000E+00 -.649E+00 0.649E+00   0.338E-13 0.205E-01 -.205E-01
   0.281E-12 0.409E+02 -.409E+02   0.227E-13 -.401E+02 0.401E+02   0.000E+00 -.738E+00 0.738E+00   0.440E-13 -.393E-01 0.393E-01
   0.287E-12 -.763E+02 0.763E+02   0.258E-13 0.749E+02 -.749E+02   0.000E+00 0.147E+01 -.147E+01   0.221E-13 0.349E-01 -.349E-01
   0.115E-12 -.908E+01 0.917E+01   0.354E-13 0.917E+01 -.883E+01   0.000E+00 -.664E-01 -.353E+00   0.618E-14 -.163E-01 0.162E-01
   0.120E-12 0.170E+02 -.602E+02   -.330E-13 -.161E+02 0.542E+02   0.000E+00 -.880E+00 0.600E+01   0.264E-13 0.298E-02 -.233E-01
   0.127E-12 0.190E+02 0.801E+01   0.100E-13 -.187E+02 -.296E+01   -.434E-18 -.249E+00 -.511E+01   0.495E-14 0.212E-01 0.445E-01
   0.113E-12 0.142E+02 -.684E+02   0.122E-13 -.134E+02 0.635E+02   0.217E-18 -.855E+00 0.498E+01   0.173E-13 0.476E-02 -.699E-01
   0.118E-12 -.106E+02 0.151E+02   -.502E-14 0.104E+02 -.151E+02   -.108E-18 0.743E-01 -.456E-01   0.123E-13 -.753E-03 -.110E-01
   0.118E-12 -.320E+02 0.954E+02   -.355E-14 0.302E+02 -.900E+02   0.000E+00 0.177E+01 -.543E+01   0.135E-13 -.134E-01 0.421E-01
   0.114E-12 -.954E+02 0.320E+02   0.432E-14 0.900E+02 -.302E+02   0.678E-20 0.543E+01 -.177E+01   0.124E-13 -.421E-01 0.134E-01
   0.114E-12 -.917E+01 0.908E+01   -.141E-13 0.883E+01 -.917E+01   0.000E+00 0.353E+00 0.664E-01   0.254E-13 -.162E-01 0.163E-01
   0.116E-12 0.602E+02 -.170E+02   0.223E-13 -.542E+02 0.161E+02   0.000E+00 -.600E+01 0.880E+00   0.328E-13 0.233E-01 -.298E-02
   0.122E-12 -.801E+01 -.190E+02   -.463E-14 0.296E+01 0.187E+02   0.434E-18 0.511E+01 0.249E+00   0.686E-14 -.445E-01 -.212E-01
   0.118E-12 0.684E+02 -.142E+02   0.105E-13 -.635E+02 0.134E+02   -.217E-18 -.498E+01 0.855E+00   0.232E-13 0.699E-01 -.476E-02
   0.115E-12 -.151E+02 0.106E+02   -.193E-13 0.151E+02 -.104E+02   0.108E-18 0.456E-01 -.743E-01   0.280E-13 0.110E-01 0.753E-03
   0.421E-14 -.385E+02 0.385E+02   0.103E-13 0.387E+02 -.387E+02   0.000E+00 -.159E+00 0.159E+00   0.101E-13 -.162E-01 0.162E-01
   -.486E-14 0.242E+02 -.242E+02   0.784E-14 -.246E+02 0.246E+02   0.000E+00 0.412E+00 -.412E+00   -.639E-15 -.120E-01 0.120E-01
   -.108E-13 0.172E+02 -.172E+02   0.976E-14 -.167E+02 0.167E+02   0.000E+00 -.556E+00 0.556E+00   0.127E-13 0.152E-01 -.152E-01
   0.247E-15 0.133E+02 -.133E+02   -.212E-14 -.128E+02 0.128E+02   0.000E+00 -.560E+00 0.560E+00   0.198E-13 0.201E-01 -.201E-01
   -.114E-13 0.258E+02 -.258E+02   0.326E-15 -.263E+02 0.263E+02   0.000E+00 0.533E+00 -.533E+00   0.890E-14 -.738E-02 0.738E-02
   -.574E-14 -.427E+02 0.427E+02   -.118E-13 0.423E+02 -.423E+02   0.000E+00 0.301E+00 -.301E+00   0.119E-13 0.179E-02 -.179E-02
   0.235E-11 0.363E+00 -.363E+00   -.358E-13 -.178E-12 0.711E-13   0.678E-20 -.375E+00 0.375E+00   0.499E-12 0.606E-02 -.606E-02

 POSITION                                       TOTAL-FORCE (eV/Angst)
      0.00000      0.07761      3.80675         0.000000      0.048481     -0.048481
      0.00000     -3.85972      3.85972         0.000000      0.007741     -0.007741
      0.00000     -3.84331      7.72768         0.000000     -0.109953      0.109953
      0.00000     -7.69259      7.69259         0.000000      0.000779     -0.000779
      0.00000     -7.87614     11.76050         0.000000      0.031882     -0.031882
      0.00000     -0.12822      0.12822         0.000000      0.076767     -0.076767
      1.93978     -5.84199      9.72635         0.000000     -0.021454      0.021454
      1.93978     -9.72042      9.72042         0.000000      0.066301     -0.066301
      1.93978     -1.93511      5.81947         0.000000     -0.036020      0.036020
      1.93978     -5.82065      5.82065         0.000000     -0.062727      0.062727
      1.93978     -1.96089      1.96089         0.000000      0.001148     -0.001148
      1.93978     -9.71186     13.59622         0.000000      0.050955     -0.050955
      1.93978     -5.82724     11.66014         0.000000      0.010253      0.000042
      1.93978     -5.84904      7.83422         0.000000      0.013096     -0.034765
      1.93978     -1.96087      7.72541         0.000000      0.017700     -0.024023
      1.93978     -1.96466      3.92897         0.000000     -0.025070      0.020127
      1.93978      1.95141      3.88501         0.000000     -0.058919      0.023731
      1.93978     -9.68368     11.60652         0.000000      0.027186      0.018648
      1.93978     -7.72215     13.56804         0.000000     -0.018648     -0.027186
      1.93978     -7.77578      9.71161         0.000000     -0.000042     -0.010253
      1.93978     -3.94985      9.73340         0.000000      0.034765     -0.013096
      1.93978     -3.84104      5.84523         0.000000      0.024023     -0.017700
      1.93978     -0.04461      5.84903         0.000000     -0.020127      0.025070
      1.93978     -0.00065      1.93296         0.000000     -0.023731      0.058919
      0.00000     -9.69508      9.69508         0.000000      0.012902     -0.012902
      0.00000     -5.84099      9.72535         0.000000      0.028197     -0.028197
      0.00000     -5.86172      5.86172         0.000000     -0.003951      0.003951
      0.00000     -1.95967      5.84403         0.000000     -0.015320      0.015320
      0.00000     -1.94806      1.94806         0.000000      0.010905     -0.010905
      0.00000     -9.69602     13.58039         0.000000     -0.067120      0.067120
    total drift:                                0.000000     -0.005431      0.005431

  FREE ENERGIE OF THE ION-ELECTRON SYSTEM (eV)
  free  energy   TOTEN  =      -220.40430519 eV

  energy  without entropy=     -220.40430519  energy(sigma->0) =     -220.40430519

 total charge

[...]

 magnetization (x)

# of ion       s       p       d       f       tot
    1        0.000  -0.000   0.005   0.002   0.007
    2        0.001   0.000   0.010   0.004   0.014
    3        0.000   0.001   0.009   0.004   0.014
    4        0.000   0.001   0.011   0.005   0.018
    5        0.001   0.001   0.012   0.006   0.019
    6        0.000  -0.000   0.004   0.003   0.007
    7        0.024   0.022   3.391   0.000   3.436
    8        0.023   0.021   3.392   0.000   3.436
    9        0.025   0.031   3.325   0.000   3.381
   10        0.013   0.002   1.677   0.000   1.692
   11        0.014   0.011   1.571   0.000   1.596
   12        0.015   0.009   1.590   0.000   1.615
   13        0.002  -0.020   0.000   0.000  -0.018
   14        0.005  -0.040   0.000   0.000  -0.035
   15        0.005  -0.014   0.000   0.000  -0.009
   16        0.005  -0.013   0.000   0.000  -0.009
   17        0.007  -0.017   0.000   0.000  -0.011
   18        0.005  -0.041   0.000   0.000  -0.037
   19        0.005  -0.041   0.000   0.000  -0.037
   20        0.002  -0.020   0.000   0.000  -0.018
   21        0.005  -0.040   0.000   0.000  -0.035
   22        0.005  -0.014   0.000   0.000  -0.009
   23        0.005  -0.013   0.000   0.000  -0.009
   24        0.007  -0.017   0.000   0.000  -0.011
   25        0.005  -0.060   0.000   0.000  -0.055
   26        0.005  -0.059   0.000   0.000  -0.055
   27        0.006   0.010   0.000   0.000   0.016
   28        0.004  -0.062   0.000   0.000  -0.059
   29        0.006  -0.040   0.000   0.000  -0.034
   30        0.006  -0.024   0.000   0.000  -0.017
tot          0.204  -0.430  14.998   0.023  14.795

 BZINTS: Fermi energy:  7.668798;225.000000 electrons
         Band energy:-331.990497;  BLOECHL correction: -0.156396