 vasp.5.4.4.18Apr17-6-g9f103f2a35 (build Oct 03 2018 13:58:34) complex

 executed on             LinuxIFC date 2019.06.04  00:59:42

 INCAR:
 POTCAR:    PAW_PBE La 06Sep2000
 POTCAR:    PAW_PBE Mn 06Sep2000
 POTCAR:    PAW_PBE Ni 02Aug2007
 POTCAR:    PAW_PBE O 08Apr2002

 POTCAR:    PAW_PBE La 06Sep2000
   VRHFIN =La : [core=Kr4d]

   TITEL  = PAW_PBE La 06Sep2000
   POMASS =  138.900; ZVAL   =   11.000    mass and valenz
   ENMAX  =  219.292; ENMIN  =  164.469 eV

 POTCAR:    PAW_PBE Mn 06Sep2000
   VRHFIN =Mn: d6 s1

   TITEL  = PAW_PBE Mn 06Sep2000
   POMASS =   54.938; ZVAL   =    7.000    mass and valenz
   ENMAX  =  269.864; ENMIN  =  202.398 eV

 POTCAR:    PAW_PBE Ni 02Aug2007
   VRHFIN =Ni:

   TITEL  = PAW_PBE Ni 02Aug2007
   POMASS =   58.690; ZVAL   =   10.000    mass and valenz
   ENMAX  =  269.532; ENMIN  =  202.149 eV

 POTCAR:    PAW_PBE O 08Apr2002
   VRHFIN =O: s2p4

   TITEL  = PAW_PBE O 08Apr2002
   POMASS =   16.000; ZVAL   =    6.000    mass and valenz
   ENMAX  =  400.000; ENMIN  =  300.000 eV

 Optimization of the real space projectors (new method)

 maximal supplied QI-value         = 13.42
 optimisation between [QCUT,QGAM] = [ 11.67, 23.35] = [ 38.16,152.62] Ry
 Optimized for a Real-space Cutoff    1.63 Angstroem

   l    n(q)    QCUT    max X(q) W(low)/X(q) W(high)/X(q)  e(spline)
   0     11    11.673    13.882    0.27E-04    0.79E-05    0.11E-06
   0     11    11.673    12.184    0.39E-04    0.13E-04    0.19E-06
   1     11    11.673     4.523    0.73E-05    0.76E-05    0.12E-06
   1     11    11.673     4.424    0.87E-05    0.13E-04    0.19E-06
   2     10    11.673    52.481    0.65E-04    0.36E-04    0.18E-06
   2     10    11.673    38.501    0.61E-04    0.33E-04    0.17E-06
   3     10    11.673    65.631    0.17E-03    0.14E-03    0.37E-06
   3     10    11.673    56.854    0.17E-03    0.14E-03    0.37E-06
 Optimization of the real space projectors (new method)

[...]

   l    n(q)    QCUT    max X(q) W(low)/X(q) W(high)/X(q)  e(spline)
   2      9    11.539    60.317    0.19E-03    0.47E-04    0.16E-06
   2      9    11.539    55.921    0.19E-03    0.48E-04    0.16E-06
   0     10    11.539    51.690    0.80E-04    0.50E-04    0.24E-06
   0     10    11.539    30.015    0.73E-04    0.45E-04    0.22E-06
   1     10    11.539    18.849    0.87E-04    0.16E-03    0.71E-07
   1     10    11.539    14.624    0.73E-04    0.13E-03    0.64E-07
 Optimization of the real space projectors (new method)

 maximal supplied QI-value         = 24.76
 optimisation between [QCUT,QGAM] = [ 11.64, 23.27] = [ 37.91,151.63] Ry
 Optimized for a Real-space Cutoff    1.14 Angstroem

   l    n(q)    QCUT    max X(q) W(low)/X(q) W(high)/X(q)  e(spline)
   0      8    11.635    20.381    0.10E-03    0.33E-03    0.24E-06
   0      8    11.635    15.268    0.11E-03    0.35E-03    0.26E-06
   1      7    11.635     5.964    0.24E-03    0.31E-03    0.30E-06
   1      7    11.635     5.382    0.22E-03    0.25E-03    0.26E-06
  PAW_PBE La 06Sep2000                  :
  PAW_PBE Mn 06Sep2000                  :
  PAW_PBE Ni 02Aug2007                  :
  PAW_PBE O 08Apr2002                   :

 POSCAR: SCEL6_1_6_1_1_0_0/3
  positions in direct lattice
  velocities in cartesian coordinates
 exchange correlation table for  LEXCH =        8
   RHO(1)=    0.500       N(1)  =     2000
   RHO(2)=  100.500       N(2)  =     4000

 ion  position               nearest neighbor table
   1  0.000  0.500  0.167-  29 2.75  29 2.75  16 2.76  23 2.76  16 2.76  23 2.76  17 2.76  17 2.76
                            24 2.76  24 2.76  28 2.78  30 2.78  10 3.36  10 3.36  12 3.36  12 3.36
   2  0.000  0.000  0.321-  29 2.55  23 2.64  16 2.64  16 2.64  23 2.64  28 2.76  28 2.76  11 3.20
                            11 3.20  10 3.37  10 3.37  10 3.37  10 3.37
   3  0.000  0.500  0.488-  28 2.54  22 2.63  15 2.63  15 2.63  22 2.63  27 2.76  27 2.76  10 3.22
                            10 3.22   9 3.37   9 3.37   9 3.37   9 3.37
   4  0.000  0.000  0.667-  25 2.71  27 2.71  13 2.73  20 2.73  13 2.73  20 2.73  14 2.73  14 2.73
                            21 2.73  21 2.73  26 2.75  26 2.75   7 3.36   7 3.36   7 3.36   7 3.36
   5  0.000  0.500  0.845-  30 2.54  19 2.63  18 2.63  18 2.63  19 2.63  25 2.76  25 2.76  12 3.22
                            12 3.22   8 3.37   8 3.37   8 3.37   8 3.37
   6  0.000  0.000  0.013-  29 2.55  24 2.64  17 2.64  17 2.64  24 2.64  30 2.76  30 2.76  11 3.20
                            11 3.20  12 3.37  12 3.37  12 3.37  12 3.37
   7  0.500  0.500  0.667-  26 1.94  26 1.94  13 1.96  20 1.96  14 1.96  21 1.96   4 3.36   4 3.36
                             4 3.36   4 3.36
   8  0.500  0.000  0.834-  18 1.90  19 1.90  25 1.94  25 1.94  13 1.95  20 1.95   5 3.37   5 3.37
                             5 3.37   5 3.37   4 3.38   4 3.38
   9  0.500  0.000  0.500-  15 1.90  22 1.90  27 1.94  27 1.94  21 1.95  14 1.95   3 3.37   3 3.37
                             3 3.37   3 3.37   4 3.38   4 3.38
  10  0.500  0.500  0.333-  28 1.94  28 1.94  16 1.95  23 1.95  22 2.00  15 2.00   3 3.22   3 3.22
                             1 3.36   1 3.36   2 3.37   2 3.37   2 3.37   2 3.37
  11  0.500  0.000  0.167-  16 1.93  23 1.93  17 1.93  24 1.93  29 1.94  29 1.94   2 3.20   2 3.20
                             6 3.20   6 3.20   1 3.36   1 3.36   1 3.36   1 3.36
  12  0.500  0.500  0.001-  30 1.94  30 1.94  17 1.95  24 1.95  19 2.00  18 2.00   5 3.22   5 3.22
                             1 3.36   1 3.36   6 3.37   6 3.37   6 3.37   6 3.37
  13  0.500  0.755  0.749-   8 1.95   7 1.96   4 2.73   4 2.73
  14  0.500  0.245  0.584-   9 1.95   7 1.96   4 2.73   4 2.73
  15  0.500  0.750  0.420-   9 1.90  10 2.00   3 2.63   3 2.63
  16  0.500  0.247  0.250-  11 1.93  10 1.95   2 2.64   2 2.64   1 2.76   1 2.76
  17  0.500  0.753  0.084-  11 1.93  12 1.95   6 2.64   6 2.64   1 2.76   1 2.76
  18  0.500  0.250  0.913-   8 1.90  12 2.00   5 2.63   5 2.63
  19  0.500  0.750  0.913-   8 1.90  12 2.00   5 2.63   5 2.63
  20  0.500  0.245  0.749-   8 1.95   7 1.96   4 2.73   4 2.73
  21  0.500  0.755  0.584-   9 1.95   7 1.96   4 2.73   4 2.73
  22  0.500  0.250  0.420-   9 1.90  10 2.00   3 2.63   3 2.63
  23  0.500  0.753  0.250-  11 1.93  10 1.95   2 2.64   2 2.64   1 2.76   1 2.76
  24  0.500  0.247  0.084-  11 1.93  12 1.95   6 2.64   6 2.64   1 2.76   1 2.76
  25  0.000  0.000  0.830-   8 1.94   8 1.94   4 2.71   5 2.76   5 2.76
  26  0.000  0.500  0.667-   7 1.94   7 1.94   4 2.75   4 2.75
  27  0.000  0.000  0.503-   9 1.94   9 1.94   4 2.71   3 2.76   3 2.76
  28  0.000  0.500  0.335-  10 1.94  10 1.94   3 2.54   2 2.76   2 2.76   1 2.78
  29  0.000  0.000  0.167-  11 1.94  11 1.94   2 2.55   6 2.55   1 2.75   1 2.75
  30  0.000  0.500  0.999-  12 1.94  12 1.94   5 2.54   6 2.76   6 2.76   1 2.78

  LATTYP: Found a simple orthorhombic cell.
 ALAT       =     3.8787660362
 B/A-ratio  =     1.4178999835
 C/A-ratio  =     4.2703768490

  Lattice vectors:

 A1 = (   3.8787660362,   0.0000000000,   0.0000000000)
 A2 = (   0.0000000000,   3.8888767899,   3.8888767899)
 A3 = (   0.0000000000, -11.7123701289,  11.7123701289)

Analysis of symmetry for initial positions (statically):
 Subroutine PRICEL returns:
 Original cell was already a primitive cell.

 Routine SETGRP: Setting up the symmetry group for a
 simple orthorhombic supercell.

 Subroutine GETGRP returns: Found  8 space group operations
 (whereof  4 operations were pure point group operations)
 out of a pool of  8 trial point group operations.

The static configuration has the point symmetry C_2v.
 The point group associated with its full space group is D_2h.

Analysis of symmetry for dynamics (positions and initial velocities):
 Subroutine PRICEL returns:
 Original cell was already a primitive cell.

[...]

The dynamic configuration has the point symmetry C_2v.
 The point group associated with its full space group is D_2h.

Analysis of structural, dynamic, and magnetic symmetry:
 Subroutine PRICEL returns:
 Original cell was already a primitive cell.

 Routine SETGRP: Setting up the symmetry group for a
 simple orthorhombic supercell.

 Subroutine GETGRP returns: Found  8 space group operations
 (whereof  4 operations were pure point group operations)
 out of a pool of  8 trial point group operations.

The magnetic configuration has the point symmetry C_2v.
 The point group associated with its full space group is D_2h.

 Subroutine INISYM returns: Found  8 space group operations
 (whereof  4 operations are pure point group operations),
 and found     1 'primitive' translations

 KPOINTS: Automatic mesh

Automatic generation of k-mesh.
 generate k-points for:    5    4    1
Space group operators:
 irot       det(A)        alpha          n_x          n_y          n_z        tau_x        tau_y        tau_z
    1     1.000000     0.000000     1.000000     0.000000     0.000000     0.000000     0.000000     0.000000
    2     1.000000   180.000000     0.000000    -0.707107     0.707107     0.000000     0.000000     0.000000
    3    -1.000000   180.000000     0.000000     0.707107     0.707107     0.000000     0.000000     0.000000
    4    -1.000000   180.000000     1.000000     0.000000     0.000000     0.000000     0.000000     0.000000
    5    -1.000000     0.000000     1.000000     0.000000     0.000000     0.000000     0.000000     0.333333
    6    -1.000000   180.000000     0.000000    -0.707107     0.707107     0.000000     0.000000     0.333333
    7     1.000000   180.000000     0.000000     0.707107     0.707107     0.000000     0.000000     0.333333
    8     1.000000   180.000000     1.000000     0.000000     0.000000     0.000000     0.000000     0.333333

 Subroutine IBZKPT returns following result:

 Found      9 irreducible k-points:

 Following reciprocal coordinates:
            Coordinates               Weight
  0.000000  0.000000  0.000000      1.000000
  0.200000  0.000000  0.000000      2.000000
  0.400000  0.000000  0.000000      2.000000
  0.000000  0.250000  0.000000      2.000000
  0.200000  0.250000  0.000000      4.000000
  0.400000  0.250000  0.000000      4.000000
  0.000000  0.500000  0.000000      1.000000
  0.200000  0.500000  0.000000      2.000000
  0.400000  0.500000  0.000000      2.000000

 Following cartesian coordinates:
            Coordinates               Weight
  0.000000  0.000000  0.000000      1.000000
  0.051563  0.000000  0.000000      2.000000
  0.103126  0.000000  0.000000      2.000000
  0.000000  0.032143  0.032143      2.000000
  0.051563  0.032143  0.032143      4.000000
  0.103126  0.032143  0.032143      4.000000
  0.000000  0.064286  0.064286      1.000000
  0.051563  0.064286  0.064286      2.000000
  0.103126  0.064286  0.064286      2.000000

 TETIRR: Found     54 inequivalent tetrahedra from      120

 SYSTEM =  final
 POSCAR =  SCEL6_1_6_1_1_0_0/3

 Startparameter for this run:
   NWRITE =      2    write-flag & timer
   PREC   = accura    normal or accurate (medium, high low for compatibility)
   ISTART =      0    job   : 0-new  1-cont  2-samecut
   ICHARG =      1    charge: 1-file 2-atom 10-const
   ISPIN  =      2    spin polarized calculation?
[...]
     30      -7.3926      1.00000
     31      -7.3573      1.00000
     32      -7.3068      1.00000
     33      -7.2748      1.00000
     34      -7.2247      1.00000
     35      -7.1927      1.00000
     36      -7.1475      1.00000
     37      -7.1234      1.00000
     38      -7.0435      1.00000
     39      -7.0407      1.00000
     40      -6.9329      1.00000
     41      -6.9146      1.00000
     42      -6.8678      1.00000
     43       0.2974      1.00000
     44       0.5032      1.00000
     45       0.7480      1.00000
     46       0.9126      1.00000
     47       0.9956      1.00000
     48       1.1558      1.00000
     49       1.3627      1.00000
     50       1.3919      1.00000
     51       1.4713      1.00000
     52       1.8330      1.00000
     53       1.8401      1.00000
     54       1.9237      1.00000
     55       2.0328      1.00000
     56       2.0335      1.00000
     57       2.0368      1.00000
     58       2.0574      1.00000
     59       2.0830      1.00000
     60       2.1579      1.00000
[...]
    132      10.7333      0.00000
    133      10.8275      0.00000
    134      10.8410      0.00000
    135      10.8848      0.00000
    136      10.9213      0.00000
    137      10.9518      0.00000
    138      10.9567      0.00000
    139      10.9897      0.00000
    140      11.0182      0.00000
    141      11.0472      0.00000
    142      11.0687      0.00000
    143      11.0908      0.00000
    144      11.1160      0.00000
    145      11.1199      0.00000
    146      11.1644      0.00000

[...]

 spin component 2

[...]

 k-point     9 :       0.4000    0.5000    0.0000
  band No.  band energies     occupation
      1     -24.0047      1.00000
      2     -23.9183      1.00000
      3     -23.9180      1.00000
      4     -23.8218      1.00000
      5     -23.8106      1.00000
      6     -23.8074      1.00000
      7     -10.8962      1.00000
      8     -10.7892      1.00000
      9     -10.7582      1.00000
     10     -10.6870      1.00000
     11     -10.6781      1.00000
     12     -10.5741      1.00000
     13     -10.4278      1.00000
     14     -10.2961      1.00000
     15     -10.2248      1.00000
     16     -10.2188      1.00000
     17     -10.2123      1.00000
     18     -10.0275      1.00000
     19     -10.0071      1.00000
     20      -9.8922      1.00000
     21      -9.8178      1.00000
     22      -9.7815      1.00000
     23      -9.6785      1.00000
     24      -9.4730      1.00000
     25      -7.7020      1.00000
     26      -7.6703      1.00000
     27      -7.5174      1.00000
     28      -7.4607      1.00000
     29      -7.3364      1.00000
     30      -7.3036      1.00000
     31      -7.2676      1.00000
     32      -7.2134      1.00000
     33      -7.1840      1.00000
     34      -7.1821      1.00000
     35      -7.1358      1.00000
     36      -7.0684      1.00000
     37      -7.0435      1.00000
     38      -6.9927      1.00000
     39      -6.8845      1.00000
     40      -6.8841      1.00000
     41      -6.8565      1.00000
     42      -6.8311      1.00000
     43       1.6328      1.00000
     44       1.6653      1.00000
     45       1.6806      1.00000
     46       1.7004      1.00000
     47       1.7943      1.00000
     48       1.8253      1.00000
     49       1.8441      1.00000
     50       1.8770      1.00000
     51       2.1548      1.00000
     52       2.2412      1.00000
     53       2.5197      1.00000
     54       2.6085      1.00000
     55       2.6087      1.00000
     56       2.6701      1.00000
     57       2.7682      1.00000
     58       2.8026      1.00000
     59       2.9068      1.00000
     60       2.9502      1.00000
[...]
    132      11.0230      0.00000
    133      11.0354      0.00000
    134      11.0525      0.00000
    135      11.0596      0.00000
    136      11.0791      0.00000
    137      11.0821      0.00000
    138      11.0973      0.00000
    139      11.1076      0.00000
    140      11.1189      0.00000
    141      11.1238      0.00000
    142      11.1407      0.00000
    143      11.1529      0.00000
    144      11.1666      0.00000
    145      11.2001      0.00000
    146      11.2155      0.00000

 soft charge-density along one line, spin component           1
         0         1         2         3         4         5         6         7         8         9
 total charge-density along one line

 soft charge-density along one line, spin component           2
         0         1         2         3         4         5         6         7         8         9
 total charge-density along one line

------------------------ aborting loop because EDIFF is reached ----------------------------------------

 total charge

# of ion       s       p       d       f       tot
    1        1.999   5.697   0.479   0.185   8.360
    2        2.002   5.696   0.504   0.193   8.395
    3        2.002   5.698   0.511   0.198   8.410
    4        2.000   5.702   0.497   0.195   8.394
    5        2.002   5.698   0.511   0.198   8.410
    6        2.002   5.696   0.504   0.193   8.395
    7        0.317   0.479   4.866   0.000   5.661
    8        0.338   0.519   4.866   0.000   5.722
    9        0.338   0.519   4.866   0.000   5.722
   10        0.405   0.586   8.315   0.000   9.307
   11        0.430   0.654   8.329   0.000   9.413
   12        0.405   0.586   8.315   0.000   9.307
   13        1.563   3.455   0.000   0.000   5.018
   14        1.563   3.455   0.000   0.000   5.018
   15        1.563   3.449   0.000   0.000   5.012
   16        1.560   3.444   0.000   0.000   5.004
   17        1.560   3.444   0.000   0.000   5.004
   18        1.563   3.449   0.000   0.000   5.012
   19        1.563   3.449   0.000   0.000   5.012
   20        1.563   3.455   0.000   0.000   5.018
   21        1.563   3.455   0.000   0.000   5.018
   22        1.563   3.449   0.000   0.000   5.012
   23        1.560   3.444   0.000   0.000   5.004
   24        1.560   3.444   0.000   0.000   5.004
   25        1.565   3.453   0.000   0.000   5.018
   26        1.564   3.447   0.000   0.000   5.011
   27        1.565   3.453   0.000   0.000   5.018
   28        1.558   3.453   0.000   0.000   5.010
   29        1.562   3.459   0.000   0.000   5.021
   30        1.558   3.453   0.000   0.000   5.010
tot         42.357  99.636  42.564   1.161 185.718

 magnetization (x)

[...]

  FORCE on cell =-STRESS in cart. coord.  units (eV):
  Direction    XX          YY          ZZ          XY          YZ          ZX
  Alpha Z   977.33432   977.33432   977.33432
  Ewald   -4833.71955 -5205.28707 -5205.28707     0.00000   195.73462     0.00000
  Hartree  1453.00929  1131.95599  1131.95599     0.00000   206.29409    -0.00000
  E(xc)   -1046.16426 -1046.37725 -1046.37725     0.00000    -0.06886    -0.00000
  Local   -1303.25787  -610.70166  -610.70166    -0.00000  -402.12418     0.00000
  n-local   416.24260   416.09412   416.09861    -0.46667     1.08602    -0.46482
  augment   488.72932   488.53928   488.53928     0.00000    -0.05953    -0.00000
  Kinetic  3847.56704  3847.14344  3847.13699     0.80955    -1.00280     0.80759
  Fock        0.00000     0.00000     0.00000     0.00000     0.00000     0.00000
  Total      -0.25910    -1.29980    -1.29980     0.00000    -0.14072    -0.00000
  in kB      -1.17485    -5.89380    -5.89380     0.00000    -0.63806    -0.00000

 VOLUME and BASIS-vectors are now :
  energy-cutoff  :      520.00
  volume of cell :      353.34
      direct lattice vectors                 reciprocal lattice vectors
     3.878766036  0.000000000  0.000000000     0.257813952  0.000000000  0.000000000
     0.000000000  3.888876790  3.888876790     0.000000000  0.128571829  0.128571829
     0.000000000-11.712370129 11.712370129     0.000000000 -0.042689908  0.042689908

  length of vectors
     3.878766036  5.499702299 16.563792684     0.257813952  0.181828024  0.060372646

 FORCES acting on ions
    electron-ion (+dipol)            ewald-force                    non-local-force                 convergence-correction
   -.967E-14 -.685E-04 0.685E-04   -.764E-14 0.313E-03 -.313E-03   0.000E+00 0.108E-18 -.108E-18   0.218E-13 -.228E-05 0.228E-05
   -.139E-13 0.190E+03 -.190E+03   -.275E-13 -.189E+03 0.189E+03   0.000E+00 -.139E+01 0.139E+01   0.229E-13 0.146E+00 -.146E+00
   -.124E-13 0.188E+03 -.188E+03   0.643E-14 -.186E+03 0.186E+03   0.000E+00 -.139E+01 0.139E+01   0.234E-13 0.161E+00 -.161E+00
   -.242E-14 -.597E-04 0.597E-04   0.174E-13 0.333E-03 -.333E-03   0.000E+00 -.325E-18 -.325E-18   0.167E-13 -.962E-05 0.962E-05
   -.469E-14 -.188E+03 0.188E+03   -.370E-14 0.186E+03 -.186E+03   0.000E+00 0.139E+01 -.139E+01   0.147E-13 -.161E+00 0.161E+00
   0.413E-14 -.190E+03 0.190E+03   0.412E-14 0.189E+03 -.189E+03   0.000E+00 0.139E+01 -.139E+01   0.147E-13 -.146E+00 0.146E+00
   0.449E-13 -.265E-04 0.265E-04   -.126E-13 0.265E-03 -.265E-03   0.000E+00 -.508E-20 0.508E-20   -.592E-14 -.646E-05 0.646E-05
   0.622E-13 -.715E+02 0.715E+02   0.444E-14 0.710E+02 -.710E+02   0.000E+00 0.571E+00 -.571E+00   0.398E-14 -.993E-01 0.993E-01
   0.578E-13 0.715E+02 -.715E+02   -.103E-13 -.710E+02 0.710E+02   0.000E+00 -.571E+00 0.571E+00   -.427E-15 0.993E-01 -.993E-01
   0.277E-12 0.114E+03 -.114E+03   0.171E-13 -.113E+03 0.113E+03   0.000E+00 -.136E+01 0.136E+01   0.375E-13 0.140E+00 -.140E+00
   0.320E-12 -.275E-04 0.275E-04   0.823E-15 0.388E-03 -.388E-03   0.000E+00 0.169E-20 0.169E-20   0.494E-13 -.223E-05 0.223E-05
   0.288E-12 -.114E+03 0.114E+03   0.162E-13 0.113E+03 -.113E+03   0.000E+00 0.136E+01 -.136E+01   0.382E-13 -.140E+00 0.140E+00
   0.109E-12 -.225E+02 0.473E+02   -.136E-13 0.217E+02 -.479E+02   0.000E+00 0.793E+00 0.421E+00   0.206E-13 -.516E-01 0.101E+00
   0.118E-12 0.225E+02 -.473E+02   0.250E-13 -.217E+02 0.479E+02   0.000E+00 -.793E+00 -.421E+00   0.141E-13 0.515E-01 -.101E+00
   0.108E-12 0.563E+02 -.126E+03   0.518E-14 -.545E+02 0.121E+03   -.867E-18 -.192E+01 0.507E+01   0.111E-13 0.110E+00 -.114E+00
   0.115E-12 0.333E+02 -.575E+02   0.108E-13 -.323E+02 0.588E+02   0.108E-18 -.109E+01 -.127E+01   0.224E-13 0.508E-01 -.570E-01
   0.126E-12 -.333E+02 0.575E+02   -.276E-13 0.323E+02 -.588E+02   -.542E-19 0.109E+01 0.127E+01   0.305E-13 -.508E-01 0.570E-01
   0.104E-12 -.563E+02 0.126E+03   -.226E-13 0.545E+02 -.121E+03   -.867E-18 0.192E+01 -.507E+01   0.337E-13 -.110E+00 0.114E+00
   0.115E-12 -.126E+03 0.563E+02   0.168E-13 0.121E+03 -.545E+02   0.867E-18 0.507E+01 -.192E+01   0.771E-14 -.114E+00 0.110E+00
   0.112E-12 -.473E+02 0.225E+02   -.592E-15 0.479E+02 -.217E+02   0.000E+00 -.421E+00 -.793E+00   0.104E-13 -.101E+00 0.516E-01
   0.125E-12 0.473E+02 -.225E+02   -.249E-13 -.479E+02 0.217E+02   0.000E+00 0.421E+00 0.793E+00   0.501E-14 0.101E+00 -.515E-01
   0.121E-12 0.126E+03 -.563E+02   -.985E-14 -.121E+03 0.545E+02   0.867E-18 -.507E+01 0.192E+01   0.354E-14 0.114E+00 -.110E+00
   0.131E-12 0.575E+02 -.333E+02   0.159E-13 -.588E+02 0.323E+02   -.108E-18 0.127E+01 0.109E+01   0.296E-14 0.570E-01 -.508E-01
   0.128E-12 -.575E+02 0.333E+02   -.106E-13 0.588E+02 -.323E+02   0.542E-19 -.127E+01 -.109E+01   0.892E-14 -.570E-01 0.508E-01
   0.496E-14 -.562E+02 0.562E+02   0.127E-13 0.559E+02 -.559E+02   0.000E+00 0.361E+00 -.361E+00   0.173E-13 -.892E-01 0.892E-01
   0.306E-14 -.657E-05 0.657E-05   0.282E-13 0.171E-03 -.171E-03   0.000E+00 0.678E-20 -.136E-19   0.231E-13 -.577E-05 0.577E-05
   0.167E-14 0.562E+02 -.562E+02   0.285E-14 -.559E+02 0.559E+02   0.000E+00 -.361E+00 0.361E+00   0.161E-13 0.892E-01 -.892E-01
   -.448E-14 0.630E+02 -.630E+02   -.212E-13 -.620E+02 0.620E+02   0.000E+00 -.106E+01 0.106E+01   0.626E-14 0.941E-01 -.941E-01
   -.565E-14 0.849E-05 -.849E-05   0.183E-13 0.203E-03 -.203E-03   0.000E+00 0.000E+00 -.271E-19   -.188E-14 -.130E-05 0.130E-05
   -.237E-14 -.630E+02 0.630E+02   0.392E-14 0.620E+02 -.620E+02   0.000E+00 0.106E+01 -.106E+01   0.675E-14 -.941E-01 0.941E-01
   0.242E-11 -.106E-01 0.106E-01   0.135E-13 -.178E-12 0.995E-13   0.000E+00 0.466E-14 -.222E-14   0.476E-12 -.125E-04 0.125E-04

 POSITION                                       TOTAL-FORCE (eV/Angst)
      0.00000     -0.00762      3.89650         0.000000     -0.000000     -0.000000
      0.00000     -3.75549      3.75549         0.000000     -0.017527      0.017527
      0.00000     -3.77176      7.66063         0.000000     -0.006604      0.006604
      0.00000     -7.80825      7.80825         0.000000     -0.000000     -0.000000
      0.00000     -7.95586     11.84474         0.000000      0.006604     -0.006604
      0.00000     -0.14863      0.14863         0.000000      0.017527     -0.017527
      1.93938     -5.86381      9.75269         0.000000     -0.000000     -0.000000
      1.93938     -9.76567      9.76567         0.000000     -0.030265      0.030265
      1.93938     -5.85082      5.85082         0.000000      0.030265     -0.030265
      1.93938     -1.95033      5.83921         0.000000     -0.028800      0.028800
      1.93938     -1.95206      1.95206         0.000000     -0.000000     -0.000000
      1.93938      1.93508      1.95379         0.000000      0.028800     -0.028800
      1.93938     -5.83877     11.70885         0.000000      0.007693     -0.065535
      1.93938     -5.88884      7.79652         0.000000     -0.007693      0.065535
      1.93938     -2.00511      7.83841         0.000000     -0.027350      0.038015
      1.93938     -1.96630      3.88594         0.000000     -0.022286     -0.079422
      1.93938      1.95105      3.90706         0.000000      0.022286      0.079422
      1.93938     -9.72251     11.66696         0.000000      0.027350     -0.038015
      1.93938     -7.77808     13.61139         0.000000      0.038015     -0.027350
      1.93938     -7.81997      9.72765         0.000000      0.065535     -0.007693
      1.93938     -3.90765      9.77772         0.000000     -0.065535      0.007693
      1.93938     -3.94954      5.89398         0.000000     -0.038015      0.027350
      1.93938      0.00294      5.85518         0.000000      0.079422      0.022286
      1.93938     -0.01819      1.93782         0.000000     -0.079422     -0.022286
      0.00000     -9.72578      9.72578         0.000000      0.006771     -0.006771
      0.00000     -5.86381      9.75269         0.000000     -0.000000     -0.000000
      0.00000     -5.89072      5.89072         0.000000     -0.006771      0.006771
      0.00000     -1.97686      5.86574         0.000000      0.007948     -0.007948
      0.00000     -1.95206      1.95206         0.000000     -0.000000     -0.000000
      0.00000     -9.75076     13.63963         0.000000     -0.007948      0.007948
    total drift:                                0.000000     -0.010640      0.010640

  FREE ENERGIE OF THE ION-ELECTRON SYSTEM (eV)
  free  energy   TOTEN  =      -220.04700911 eV

  energy  without entropy=     -220.04700911  energy(sigma->0) =     -220.04700911

 total charge

[...]

 magnetization (x)

# of ion       s       p       d       f       tot
    1        0.000  -0.001   0.003   0.001   0.004
    2        0.000  -0.000   0.005   0.003   0.008
    3        0.001   0.001   0.011   0.005   0.018
    4        0.001   0.001   0.014   0.007   0.023
    5        0.001   0.001   0.011   0.005   0.018
    6        0.000  -0.000   0.005   0.003   0.008
    7        0.020   0.017   3.629   0.000   3.667
    8        0.024   0.022   3.459   0.000   3.505
    9        0.024   0.022   3.459   0.000   3.505
   10        0.017   0.008   1.595   0.000   1.620
   11        0.019   0.023   1.427   0.000   1.469
   12        0.017   0.008   1.595   0.000   1.620
   13        0.003  -0.044   0.000   0.000  -0.040
   14        0.003  -0.044   0.000   0.000  -0.040
   15        0.005  -0.038   0.000   0.000  -0.033
   16        0.007  -0.042   0.000   0.000  -0.035
   17        0.007  -0.042   0.000   0.000  -0.035
   18        0.005  -0.038   0.000   0.000  -0.033
   19        0.005  -0.038   0.000   0.000  -0.033
   20        0.003  -0.044   0.000   0.000  -0.040
   21        0.003  -0.044   0.000   0.000  -0.040
   22        0.005  -0.038   0.000   0.000  -0.033
   23        0.007  -0.042   0.000   0.000  -0.035
   24        0.007  -0.042   0.000   0.000  -0.035
   25        0.004  -0.060   0.000   0.000  -0.056
   26        0.004  -0.058   0.000   0.000  -0.053
   27        0.004  -0.060   0.000   0.000  -0.056
   28        0.006  -0.026   0.000   0.000  -0.020
   29        0.007  -0.037   0.000   0.000  -0.030
   30        0.006  -0.026   0.000   0.000  -0.020
tot          0.216  -0.658  15.213   0.025  14.797

 BZINTS: Fermi energy:  7.606729;225.000000 electrons
         Band energy:-344.060371;  BLOECHL correction: -0.127592