 vasp.5.4.4.18Apr17-6-g9f103f2a35 (build Oct 03 2018 13:58:34) complex

 executed on             LinuxIFC date 2019.06.04  01:23:53

 INCAR:
 POTCAR:    PAW_PBE La 06Sep2000
 POTCAR:    PAW_PBE Mn 06Sep2000
 POTCAR:    PAW_PBE Ni 02Aug2007
 POTCAR:    PAW_PBE O 08Apr2002

 POTCAR:    PAW_PBE La 06Sep2000
   VRHFIN =La : [core=Kr4d]

   TITEL  = PAW_PBE La 06Sep2000
   POMASS =  138.900; ZVAL   =   11.000    mass and valenz
   ENMAX  =  219.292; ENMIN  =  164.469 eV

 POTCAR:    PAW_PBE Mn 06Sep2000
   VRHFIN =Mn: d6 s1

   TITEL  = PAW_PBE Mn 06Sep2000
   POMASS =   54.938; ZVAL   =    7.000    mass and valenz
   ENMAX  =  269.864; ENMIN  =  202.398 eV

 POTCAR:    PAW_PBE Ni 02Aug2007
   VRHFIN =Ni:

   TITEL  = PAW_PBE Ni 02Aug2007
   POMASS =   58.690; ZVAL   =   10.000    mass and valenz
   ENMAX  =  269.532; ENMIN  =  202.149 eV

 POTCAR:    PAW_PBE O 08Apr2002
   VRHFIN =O: s2p4

   TITEL  = PAW_PBE O 08Apr2002
   POMASS =   16.000; ZVAL   =    6.000    mass and valenz
   ENMAX  =  400.000; ENMIN  =  300.000 eV

 Optimization of the real space projectors (new method)

 maximal supplied QI-value         = 13.42
 optimisation between [QCUT,QGAM] = [ 11.67, 23.35] = [ 38.16,152.62] Ry
 Optimized for a Real-space Cutoff    1.63 Angstroem

   l    n(q)    QCUT    max X(q) W(low)/X(q) W(high)/X(q)  e(spline)
   0     11    11.673    13.882    0.27E-04    0.79E-05    0.11E-06
   0     11    11.673    12.184    0.39E-04    0.13E-04    0.19E-06
   1     11    11.673     4.523    0.73E-05    0.76E-05    0.12E-06
   1     11    11.673     4.424    0.87E-05    0.13E-04    0.19E-06
   2     10    11.673    52.481    0.65E-04    0.36E-04    0.18E-06
   2     10    11.673    38.501    0.61E-04    0.33E-04    0.17E-06
   3     10    11.673    65.631    0.17E-03    0.14E-03    0.37E-06
   3     10    11.673    56.854    0.17E-03    0.14E-03    0.37E-06
 Optimization of the real space projectors (new method)

[...]

   l    n(q)    QCUT    max X(q) W(low)/X(q) W(high)/X(q)  e(spline)
   2      9    11.539    60.317    0.19E-03    0.47E-04    0.16E-06
   2      9    11.539    55.921    0.19E-03    0.48E-04    0.16E-06
   0     10    11.539    51.690    0.80E-04    0.50E-04    0.24E-06
   0     10    11.539    30.015    0.73E-04    0.45E-04    0.22E-06
   1     10    11.539    18.849    0.87E-04    0.16E-03    0.71E-07
   1     10    11.539    14.624    0.73E-04    0.13E-03    0.64E-07
 Optimization of the real space projectors (new method)

 maximal supplied QI-value         = 24.76
 optimisation between [QCUT,QGAM] = [ 11.64, 23.27] = [ 37.91,151.63] Ry
 Optimized for a Real-space Cutoff    1.14 Angstroem

   l    n(q)    QCUT    max X(q) W(low)/X(q) W(high)/X(q)  e(spline)
   0      8    11.635    20.381    0.10E-03    0.33E-03    0.24E-06
   0      8    11.635    15.268    0.11E-03    0.35E-03    0.26E-06
   1      7    11.635     5.964    0.24E-03    0.31E-03    0.30E-06
   1      7    11.635     5.382    0.22E-03    0.25E-03    0.26E-06
  PAW_PBE La 06Sep2000                  :
  PAW_PBE Mn 06Sep2000                  :
  PAW_PBE Ni 02Aug2007                  :
  PAW_PBE O 08Apr2002                   :

 POSCAR: SCEL4_1_2_2_0_0_0/0
  positions in direct lattice
  velocities in cartesian coordinates
 exchange correlation table for  LEXCH =        8
   RHO(1)=    0.500       N(1)  =     2000
   RHO(2)=  100.500       N(2)  =     4000

 ion  position               nearest neighbor table
   1  0.000  0.494  0.006-  20 2.70  15 2.74  12 2.74  12 2.74  15 2.74  19 2.76  18 2.76  11 2.80
                            11 2.80  13 2.80  13 2.80  17 2.83   8 3.34   8 3.34   5 3.39   5 3.39
   2  0.000  0.006  0.494-  20 2.70  16 2.74  10 2.74  10 2.74  16 2.74  19 2.76  18 2.76   9 2.80
                             9 2.80  14 2.80  14 2.80  17 2.83   8 3.34   8 3.34   5 3.39   5 3.39
   3  0.000  0.494  0.494-  20 2.70  15 2.74  10 2.74  10 2.74  15 2.74  19 2.76  18 2.76   9 2.80
                             9 2.80  13 2.80  13 2.80  17 2.83   8 3.34   8 3.34   5 3.39   5 3.39
   4  0.000  0.006  0.006-  20 2.70  16 2.74  12 2.74  12 2.74  16 2.74  19 2.76  18 2.76  11 2.80
                            11 2.80  14 2.80  14 2.80  17 2.83   8 3.34   8 3.34   5 3.39   5 3.39
   5  0.500  0.750  0.250-  15 1.91  16 1.91   9 1.95  11 1.95  19 1.96  19 1.96   3 3.39   4 3.39
                             1 3.39   1 3.39   2 3.39   3 3.39   4 3.39   2 3.39
   6  0.500  0.250  0.750-  10 1.91  12 1.91  13 1.95  14 1.95  18 1.96  18 1.96   3 3.39   4 3.39
                             1 3.39   1 3.39   2 3.39   3 3.39   4 3.39   2 3.39
   7  0.500  0.750  0.750-  17 1.96  17 1.96  13 1.96  14 1.96   9 1.96  11 1.96
   8  0.500  0.250  0.250-  20 1.96  20 1.96  15 2.00  16 2.00  10 2.00  12 2.00   3 3.34   4 3.34
                             1 3.34   1 3.34   2 3.34   3 3.34   4 3.34   2 3.34
   9  0.500  0.750  0.499-   5 1.95   7 1.96   2 2.80   3 2.80   2 2.80   3 2.80
  10  0.500  0.250  0.506-   6 1.91   8 2.00   2 2.74   3 2.74   2 2.74   3 2.74
  11  0.500  0.750  0.001-   5 1.95   7 1.96   1 2.80   4 2.80   1 2.80   4 2.80
  12  0.500  0.250  0.994-   6 1.91   8 2.00   1 2.74   4 2.74   1 2.74   4 2.74
  13  0.500  0.499  0.750-   6 1.95   7 1.96   1 2.80   3 2.80   1 2.80   3 2.80
  14  0.500  0.001  0.750-   6 1.95   7 1.96   2 2.80   4 2.80   2 2.80   4 2.80
  15  0.500  0.506  0.250-   5 1.91   8 2.00   1 2.74   3 2.74   1 2.74   3 2.74
  16  0.500  0.994  0.250-   5 1.91   8 2.00   2 2.74   4 2.74   2 2.74   4 2.74
  17  0.000  0.750  0.750-   7 1.96   7 1.96   3 2.83   4 2.83   1 2.83   2 2.83
  18  0.000  0.250  0.750-   6 1.96   6 1.96   3 2.76   4 2.76   1 2.76   2 2.76
  19  0.000  0.750  0.250-   5 1.96   5 1.96   3 2.76   4 2.76   1 2.76   2 2.76
  20  0.000  0.250  0.250-   8 1.96   8 1.96   3 2.70   4 2.70   1 2.70   2 2.70

  LATTYP: Found a simple tetragonal cell.
 ALAT       =     7.8169648342
 C/A-ratio  =     0.5003844530

  Lattice vectors:

 A1 = (   0.0000000000,   7.8169648342,   0.0000000000)
 A2 = (   0.0000000000,   0.0000000000,  -7.8169648342)
 A3 = (  -3.9114876724,   0.0000000000,   0.0000000000)

Analysis of symmetry for initial positions (statically):
 Subroutine PRICEL returns:
 Original cell was already a primitive cell.

 Routine SETGRP: Setting up the symmetry group for a
 simple tetragonal supercell.

 Subroutine GETGRP returns: Found 16 space group operations
 (whereof  4 operations were pure point group operations)
 out of a pool of 16 trial point group operations.

The static configuration has the point symmetry C_2v.
 The point group associated with its full space group is D_4h.

Analysis of symmetry for dynamics (positions and initial velocities):
 Subroutine PRICEL returns:
 Original cell was already a primitive cell.

[...]

The dynamic configuration has the point symmetry C_2v.
 The point group associated with its full space group is D_4h.

Analysis of structural, dynamic, and magnetic symmetry:
 Subroutine PRICEL returns:
 Original cell was already a primitive cell.

 Routine SETGRP: Setting up the symmetry group for a
 simple tetragonal supercell.

 Subroutine GETGRP returns: Found 16 space group operations
 (whereof  4 operations were pure point group operations)
 out of a pool of 16 trial point group operations.

The magnetic configuration has the point symmetry C_2v.
 The point group associated with its full space group is D_4h.

 Subroutine INISYM returns: Found 16 space group operations
 (whereof  4 operations are pure point group operations),
 and found     1 'primitive' translations

 KPOINTS: Automatic mesh

Automatic generation of k-mesh.
 generate k-points for:    5    3    3
Space group operators:
 irot       det(A)        alpha          n_x          n_y          n_z        tau_x        tau_y        tau_z
    1     1.000000     0.000001     1.000000     0.000000     0.000000     0.000000     0.000000     0.000000
    2    -1.000000   180.000000     1.000000     0.000000     0.000000     0.000000     0.000000     0.000000
    3    -1.000000   179.999999     0.000000    -0.707107     0.707107     0.000000     0.000000     0.000000
    4     1.000000   179.999999     0.000000     0.707107     0.707107     0.000000     0.000000     0.000000
    5    -1.000000     0.000001     1.000000     0.000000     0.000000     0.000000     0.500000    -0.500000
    6     1.000000    90.000000     1.000000     0.000000     0.000000     0.000000     0.000000    -0.500000
    7    -1.000000    90.000000     1.000000     0.000000     0.000000     0.000000     0.500000     0.000000
    8     1.000000   180.000000     1.000000     0.000000     0.000000     0.000000     0.500000    -0.500000
    9     1.000000    90.000000    -1.000000     0.000000     0.000000     0.000000     0.500000     0.000000
   10    -1.000000    90.000000    -1.000000     0.000000     0.000000     0.000000     0.000000    -0.500000
   11     1.000000   179.999999     0.000000     0.000000     1.000000     0.000000     0.500000     0.000000
   12    -1.000000   179.999999     0.000000     0.000000     1.000000     0.000000     0.000000    -0.500000
   13     1.000000   179.999999     0.000000    -0.707107     0.707107     0.000000     0.500000    -0.500000
   14     1.000000   179.999999     0.000000     1.000000     0.000000     0.000000     0.000000    -0.500000
   15    -1.000000   179.999999     0.000000     1.000000     0.000000     0.000000     0.500000     0.000000
   16    -1.000000   179.999999     0.000000     0.707107     0.707107     0.000000     0.500000    -0.500000

 Subroutine IBZKPT returns following result:

 Found      9 irreducible k-points:

 Following reciprocal coordinates:
            Coordinates               Weight
  0.000000  0.000000  0.000000      1.000000
  0.200000  0.000000  0.000000      2.000000
  0.400000  0.000000  0.000000      2.000000
  0.000000  0.333333  0.000000      4.000000
  0.200000  0.333333  0.000000      8.000000
  0.400000  0.333333  0.000000      8.000000
  0.000000  0.333333  0.333333      4.000000
  0.200000  0.333333  0.333333      8.000000
  0.400000  0.333333  0.333333      8.000000

 Following cartesian coordinates:
            Coordinates               Weight
  0.000000  0.000000  0.000000      1.000000
  0.051131  0.000000  0.000000      2.000000
  0.102263  0.000000  0.000000      2.000000
  0.000000  0.042642  0.000000      4.000000
  0.051131  0.042642  0.000000      8.000000
  0.102263  0.042642  0.000000      8.000000
  0.000000  0.042642  0.042642      4.000000
  0.051131  0.042642  0.042642      8.000000
  0.102263  0.042642  0.042642      8.000000

 TETIRR: Found     59 inequivalent tetrahedra from      270

 SYSTEM =  final
 POSCAR =  SCEL4_1_2_2_0_0_0/0

 Startparameter for this run:
   NWRITE =      2    write-flag & timer
   PREC   = accura    normal or accurate (medium, high low for compatibility)
   ISTART =      0    job   : 0-new  1-cont  2-samecut
   ICHARG =      1    charge: 1-file 2-atom 10-const
   ISPIN  =      2    spin polarized calculation?
   LNONCOLLINEAR =      F non collinear calculations
   LSORBIT =      F    spin-orbit coupling
   INIWAV =      1    electr: 0-lowe 1-rand  2-diag
[...]
  0.5522  0.5601  0.5601

[...]

--------------------------------------- Iteration      1(  19)  ---------------------------------------

atom =   1  type =  1  l = 0

[...]

  o =  0.7870  v =  0.0000  1.0000      0.0000  0.0000
  o =  0.7928  v =  1.0000  0.0000      0.0000  0.0000
atom =  20  type =  4  l = 0

 onsite density matrix

[...]

  0.7815

 occupancies and eigenvectors

  o =  0.7815  v =  0.0000  1.0000      0.0000  0.0000
  o =  0.7875  v =  1.0000  0.0000      0.0000  0.0000
 BZINTS: Fermi energy:  7.988652;147.000000 electrons
         Band energy:-262.751773;  BLOECHL correction: -0.098669

 eigenvalue-minimisations  :  3330
 total energy-change (2. order) :-0.3004426E-03  (-0.5445382E-03)
 number of electron     147.0000026 magnetization      13.0001265
 augmentation part       16.4794901 magnetization       9.3303716

 Free energy of the ion-electron system (eV)
  alpha Z        PSCENC =       646.44463249
  Ewald energy   TEWEN  =     -9878.02846910
  -Hartree energ DENC   =     -2097.76327975
  -exchange      EXHF   =         0.00000000
  -V(xc)+E(xc)   XCENC  =       472.00185123
  PAW double counting   =     11837.81037620   -11850.89022321
  entropy T*S    EENTRO =         0.00000000
  eigenvalues    EBANDS =      -262.75177301
  atomic energy  EATOM  =     10980.12334246
  Solvation  Ediel_sol  =         0.00000000
  free energy    TOTEN  =      -153.05354270 eV

  energy without entropy =     -153.05354270  energy(sigma->0) =     -153.05354270

 average (electrostatic) potential at core
  the test charge radii are     1.1480  1.0210  0.9791  0.7215
  (the norm of the test charge is              1.0000)
       1 -95.9075       2 -95.9075       3 -95.9075       4 -95.9075       5 -42.8269
       6 -42.8269       7 -42.4193       8 -83.7053       9 -67.1873      10 -67.1200
      11 -67.1873      12 -67.1200      13 -67.1873      14 -67.1873      15 -67.1200
      16 -67.1200      17 -67.0892      18 -67.3175      19 -67.3175      20 -66.6628

 E-fermi :   7.9887     XC(G=0): -11.6102     alpha+bet :-16.1375

[...]

 k-point     1 :       0.0000    0.0000    0.0000
  band No.  band energies     occupation
      1     -24.3910      1.00000
      2     -24.3318      1.00000
      3     -24.3318      1.00000
      4     -24.2814      1.00000
      5     -11.6243      1.00000
      6     -11.3667      1.00000
      7     -11.0857      1.00000
      8     -10.5496      1.00000
      9     -10.5496      1.00000
     10     -10.3334      1.00000
     11      -9.9293      1.00000
     12      -9.9293      1.00000
     13      -9.9031      1.00000
     14      -9.8558      1.00000
     15      -9.8203      1.00000
     16      -9.6658      1.00000
     17      -7.8984      1.00000
     18      -7.8867      1.00000
     19      -7.8867      1.00000
     20      -7.8150      1.00000
     21      -7.7968      1.00000
     22      -7.7968      1.00000
     23      -7.7594      1.00000
     24      -7.6860      1.00000
     25      -7.4148      1.00000
     26      -7.4148      1.00000
     27      -7.0953      1.00000
     28      -7.0046      1.00000
     29       0.2549      1.00000
     30       0.5030      1.00000
     31       0.8532      1.00000
     32       1.0235      1.00000
     33       1.1509      1.00000
     34       1.8779      1.00000
     35       1.8779      1.00000
     36       2.1262      1.00000
     37       2.3003      1.00000
     38       2.3003      1.00000
     39       2.3118      1.00000
     40       2.6777      1.00000
     41       2.7758      1.00000
     42       2.7758      1.00000
     43       2.8206      1.00000
     44       2.8206      1.00000
     45       2.9533      1.00000
     46       2.9720      1.00000
     47       3.0864      1.00000
     48       3.0963      1.00000
     49       3.0963      1.00000
     50       3.1911      1.00000
     51       3.2416      1.00000
     52       3.2416      1.00000
     53       4.0273      1.00000
     54       4.0273      1.00000
     55       4.0611      1.00000
     56       4.0665      1.00000
     57       4.0669      1.00000
     58       4.1896      1.00000
     59       4.9588      1.00000
     60       4.9588      1.00000
[...]
     82       7.6719      0.71014
     83       8.3852      0.00000
     84       9.7783      0.00000
     85       9.7940      0.00000
     86      10.3296      0.00000
     87      10.3412      0.00000
     88      10.4289      0.00000
     89      10.5509      0.00000
     90      10.5579      0.00000
     91      10.5949      0.00000
     92      10.6091      0.00000
     93      10.6469      0.00000
     94      10.6709      0.00000
     95      10.7215      0.00000
     96      10.7770      0.00000

[...]

 spin component 2

[...]

 k-point     9 :       0.4000    0.3333    0.3333
  band No.  band energies     occupation
      1     -24.3085      1.00000
      2     -24.2815      1.00000
      3     -24.2814      1.00000
      4     -24.2560      1.00000
      5     -11.1630      1.00000
      6     -10.9133      1.00000
      7     -10.7917      1.00000
      8     -10.5801      1.00000
      9     -10.4415      1.00000
     10     -10.2797      1.00000
     11     -10.1645      1.00000
     12      -9.9463      1.00000
     13      -9.9411      1.00000
     14      -9.8873      1.00000
     15      -9.8293      1.00000
     16      -9.7421      1.00000
     17      -8.1391      1.00000
     18      -7.9823      1.00000
     19      -7.9470      1.00000
     20      -7.8943      1.00000
     21      -7.8927      1.00000
     22      -7.6618      1.00000
     23      -7.6329      1.00000
     24      -7.5949      1.00000
     25      -7.4865      1.00000
     26      -7.4332      1.00000
     27      -7.3536      1.00000
     28      -7.2378      1.00000
     29       1.3988      1.00000
     30       1.7374      1.00000
     31       1.7657      1.00000
     32       2.0398      1.00000
     33       2.3663      1.00000
     34       2.4126      1.00000
     35       2.7523      1.00000
     36       2.8910      1.00000
     37       3.0761      1.00000
     38       3.0833      1.00000
     39       3.1429      1.00000
     40       3.1739      1.00000
     41       3.2463      1.00000
     42       3.2516      1.00000
     43       3.2700      1.00000
     44       3.3602      1.00000
     45       3.5777      1.00000
     46       3.6475      1.00000
     47       3.6584      1.00000
     48       3.7175      1.00000
     49       3.7859      1.00000
     50       4.0208      1.00000
     51       4.0725      1.00000
     52       4.4746      1.00000
     53       5.0995      1.00000
     54       5.2125      1.00000
     55       5.2604      1.00000
     56       5.3179      1.00000
     57       5.4000      1.00000
     58       5.4448      1.00000
     59       5.4461      1.00000
     60       5.6740      1.00000
[...]
     82      10.5563      0.00000
     83      10.5770      0.00000
     84      10.5785      0.00000
     85      10.6064      0.00000
     86      10.6162      0.00000
     87      10.6220      0.00000
     88      10.6281      0.00000
     89      10.6423      0.00000
     90      10.6682      0.00000
     91      10.6703      0.00000
     92      10.7468      0.00000
     93      10.7721      0.00000
     94      10.7920      0.00000
     95      10.8644      0.00000
     96      11.0785      0.00000

 soft charge-density along one line, spin component           1
         0         1         2         3         4         5         6         7         8         9
 total charge-density along one line

 soft charge-density along one line, spin component           2
         0         1         2         3         4         5         6         7         8         9
 total charge-density along one line

------------------------ aborting loop because EDIFF is reached ----------------------------------------

 total charge

# of ion       s       p       d       f       tot
    1        1.999   5.696   0.479   0.186   8.360
    2        1.999   5.696   0.479   0.186   8.360
    3        1.999   5.696   0.480   0.186   8.360
    4        1.999   5.696   0.479   0.186   8.360
    5        0.333   0.516   4.889   0.000   5.738
    6        0.333   0.512   4.874   0.000   5.720
    7        0.312   0.468   4.888   0.000   5.668
    8        0.387   0.551   8.323   0.000   9.261
    9        1.565   3.464   0.000   0.000   5.029
   10        1.561   3.459   0.000   0.000   5.019
   11        1.565   3.464   0.000   0.000   5.029
   12        1.561   3.459   0.000   0.000   5.019
   13        1.563   3.444   0.000   0.000   5.007
   14        1.563   3.444   0.000   0.000   5.007
   15        1.560   3.457   0.000   0.000   5.017
   16        1.560   3.457   0.000   0.000   5.017
   17        1.563   3.449   0.000   0.000   5.012
   18        1.565   3.460   0.000   0.000   5.024
   19        1.564   3.457   0.000   0.000   5.021
   20        1.554   3.457   0.000   0.000   5.011
tot         28.103  66.302  24.891   0.743 120.039

 magnetization (x)

[...]

  FORCE on cell =-STRESS in cart. coord.  units (eV):
  Direction    XX          YY          ZZ          XY          YZ          ZX
  Alpha Z   646.44463   646.44463   646.44463
  Ewald   -3261.99597 -3308.03008 -3308.03008     0.00000    -0.00000     0.00000
  Hartree   731.07705   683.04103   683.04103    -0.00000    -0.00000    -0.00000
  E(xc)    -677.05882  -677.11746  -677.11746    -0.00000    -0.00000     0.00000
  Local    -438.26906  -341.06213  -341.06213     0.00000     0.00000     0.00000
  n-local   264.25891   264.61984   264.55486     0.60374     0.06583     0.28195
  augment   182.07160   180.36891   180.36891     0.00000    -0.00000    -0.00000
  Kinetic  2553.88478  2549.20391  2552.58791    -1.59850    -0.81647    -0.81558
  Fock        0.00000     0.00000     0.00000     0.00000     0.00000     0.00000
  Total       0.41312    -0.87183    -0.87183     0.00000     0.00000     0.00000
  in kB       2.76928    -5.84420    -5.84420     0.00000     0.00000     0.00000

 VOLUME and BASIS-vectors are now :
  energy-cutoff  :      520.00
  volume of cell :      239.01
      direct lattice vectors                 reciprocal lattice vectors
     3.911487672  0.000000000  0.000000000     0.255657204  0.000000000  0.000000000
     0.000000000  7.816964834  0.000000000     0.000000000  0.127926890  0.000000000
     0.000000000  0.000000000  7.816964834     0.000000000  0.000000000  0.127926890

  length of vectors
     3.911487672  7.816964834  7.816964834     0.255657204  0.127926890  0.127926890

 FORCES acting on ions
    electron-ion (+dipol)            ewald-force                    non-local-force                 convergence-correction
   -.785E-14 -.629E+02 0.629E+02   0.222E-13 0.624E+02 -.624E+02   0.325E-18 0.384E+00 -.384E+00   0.114E-13 0.691E-01 -.691E-01
   -.815E-15 0.629E+02 -.629E+02   -.279E-13 -.624E+02 0.624E+02   0.108E-18 -.384E+00 0.384E+00   0.217E-14 -.691E-01 0.691E-01
   -.395E-14 -.629E+02 -.629E+02   0.137E-13 0.624E+02 0.624E+02   0.217E-18 0.384E+00 0.384E+00   0.832E-14 0.691E-01 0.691E-01
   -.323E-14 0.629E+02 0.629E+02   -.131E-13 -.624E+02 -.624E+02   0.163E-18 -.384E+00 -.384E+00   0.775E-14 -.691E-01 -.691E-01
   0.622E-13 -.328E-12 -.558E-12   -.306E-14 0.293E-14 0.271E-13   0.000E+00 -.339E-20 -.265E-20   0.139E-13 -.837E-13 0.296E-12
   0.642E-13 -.635E-13 0.704E-12   0.189E-14 -.240E-14 0.357E-13   0.000E+00 0.339E-20 0.000E+00   0.109E-13 0.126E-12 -.193E-12
   0.623E-13 0.160E-11 0.157E-11   -.298E-15 0.846E-13 -.356E-13   0.000E+00 0.339E-20 0.508E-20   0.155E-13 -.104E-12 -.267E-12
   0.292E-12 0.452E-11 0.129E-12   0.532E-14 -.322E-13 -.909E-14   0.000E+00 0.593E-20 -.678E-20   0.544E-13 0.179E-12 0.350E-12
   0.122E-12 0.191E-11 -.253E+02   -.769E-14 0.374E-13 0.259E+02   0.000E+00 0.173E-17 -.621E+00   0.202E-13 -.609E-13 0.440E-01
   0.117E-12 0.184E-11 -.554E+02   -.302E-14 -.378E-13 0.503E+02   0.000E+00 0.163E-18 0.513E+01   0.192E-13 0.134E-12 0.328E-01
   0.115E-12 0.202E-11 0.253E+02   0.171E-14 -.192E-13 -.259E+02   0.000E+00 0.000E+00 0.621E+00   0.165E-13 -.702E-13 -.440E-01
   0.115E-12 0.172E-11 0.554E+02   0.101E-13 -.910E-14 -.503E+02   0.000E+00 -.108E-18 -.513E+01   0.174E-13 0.113E-12 -.328E-01
   0.117E-12 -.253E+02 0.376E-07   -.399E-13 0.259E+02 0.343E-13   -.217E-18 -.621E+00 -.867E-18   0.212E-13 0.440E-01 -.227E-12
   0.112E-12 0.253E+02 -.376E-07   0.268E-13 -.259E+02 0.128E-13   0.217E-18 0.621E+00 -.434E-18   0.284E-13 -.440E-01 -.197E-12
   0.114E-12 -.554E+02 -.516E-06   0.322E-13 0.503E+02 -.198E-13   -.434E-18 0.513E+01 0.108E-18   0.194E-13 0.328E-01 0.276E-12
   0.119E-12 0.554E+02 0.516E-06   -.313E-13 -.503E+02 0.297E-13   0.000E+00 -.513E+01 -.108E-18   0.199E-13 -.328E-01 0.255E-12
   -.385E-14 0.689E-12 0.687E-12   0.798E-14 -.239E-13 -.537E-14   0.000E+00 0.000E+00 0.271E-19   0.811E-14 -.604E-13 -.246E-12
   -.556E-14 0.414E-12 0.634E-12   0.149E-14 -.260E-13 0.412E-14   0.000E+00 0.136E-19 0.136E-19   0.158E-13 0.128E-12 -.200E-12
   -.297E-14 0.639E-12 0.403E-12   0.522E-14 0.296E-13 -.184E-13   0.339E-20 0.339E-20 -.551E-20   0.855E-14 -.597E-13 0.264E-12
   -.487E-14 0.369E-12 0.356E-12   -.475E-14 -.436E-13 -.196E-13   0.000E+00 -.678E-20 0.271E-19   0.612E-14 0.129E-12 0.213E-12
   0.138E-11 0.208E-10 0.858E-11   -.249E-14 -.356E-13 0.355E-14   0.383E-18 -.178E-14 -.124E-17   0.325E-12 0.229E-12 0.257E-12

 POSITION                                       TOTAL-FORCE (eV/Angst)
      0.00000      3.86457      0.04391         0.000000     -0.037239      0.037239
      0.00000      0.04391      3.86457        -0.000000      0.037239     -0.037239
      0.00000      3.86457      3.86457        -0.000000     -0.037239     -0.037239
      0.00000      0.04391      0.04391         0.000000      0.037239      0.037239
      1.95574      5.86272      1.95424        -0.000000     -0.000000     -0.000000
      1.95574      1.95424      5.86272        -0.000000     -0.000000     -0.000000
      1.95574      5.86272      5.86272        -0.000000     -0.000000     -0.000000
      1.95574      1.95424      1.95424        -0.000000      0.000000     -0.000000
      1.95574      5.86272      3.90240         0.000000     -0.000000      0.028330
      1.95574      1.95424      3.95444        -0.000000      0.000000      0.003108
      1.95574      5.86272      0.00608         0.000000     -0.000000     -0.028330
      1.95574      1.95424      7.77101        -0.000000     -0.000000     -0.003108
      1.95574      3.90240      5.86272        -0.000000      0.028330     -0.000000
      1.95574      0.00608      5.86272        -0.000000     -0.028330     -0.000000
      1.95574      3.95444      1.95424        -0.000000      0.003108     -0.000000
      1.95574      7.77101      1.95424        -0.000000     -0.003108     -0.000000
      0.00000      5.86272      5.86272        -0.000000     -0.000000     -0.000000
      0.00000      1.95424      5.86272        -0.000000      0.000000     -0.000000
      0.00000      5.86272      1.95424        -0.000000      0.000000     -0.000000
      0.00000      1.95424      1.95424        -0.000000     -0.000000     -0.000000
    total drift:                                0.000000      0.000000      0.000000

  FREE ENERGIE OF THE ION-ELECTRON SYSTEM (eV)
  free  energy   TOTEN  =      -153.05354270 eV

  energy  without entropy=     -153.05354270  energy(sigma->0) =     -153.05354270

 total charge

[...]

 magnetization (x)

# of ion       s       p       d       f       tot
    1        0.000   0.001   0.010   0.005   0.016
    2        0.000   0.001   0.010   0.005   0.016
    3        0.000   0.001   0.010   0.005   0.016
    4        0.000   0.001   0.010   0.005   0.016
    5        0.026   0.032   3.598   0.000   3.656
    6        0.025   0.029   3.577   0.000   3.630
    7        0.023   0.024   3.783   0.000   3.830
    8        0.011   0.002   1.717   0.000   1.730
    9        0.008  -0.033   0.000   0.000  -0.025
   10        0.006  -0.013   0.000   0.000  -0.007
   11        0.008  -0.033   0.000   0.000  -0.025
   12        0.006  -0.013   0.000   0.000  -0.007
   13        0.004  -0.038   0.000   0.000  -0.035
   14        0.004  -0.038   0.000   0.000  -0.035
   15        0.004  -0.002   0.000   0.000   0.002
   16        0.004  -0.002   0.000   0.000   0.002
   17        0.005  -0.041   0.000   0.000  -0.037
   18        0.006  -0.036   0.000   0.000  -0.029
   19        0.005  -0.037   0.000   0.000  -0.031
   20        0.006   0.031   0.000   0.000   0.037
tot          0.151  -0.165  12.713   0.021  12.720

 BZINTS: Fermi energy:  7.988652;147.000000 electrons
         Band energy:-262.751773;  BLOECHL correction: -0.098669