 vasp.5.4.4.18Apr17-6-g9f103f2a35 (build Oct 03 2018 13:58:34) complex

 executed on             LinuxIFC date 2019.06.04  02:08:13

 INCAR:
 POTCAR:    PAW_PBE La 06Sep2000
 POTCAR:    PAW_PBE Mn 06Sep2000
 POTCAR:    PAW_PBE Ni 02Aug2007
 POTCAR:    PAW_PBE O 08Apr2002

 POTCAR:    PAW_PBE La 06Sep2000
   VRHFIN =La : [core=Kr4d]

   TITEL  = PAW_PBE La 06Sep2000
   POMASS =  138.900; ZVAL   =   11.000    mass and valenz
   ENMAX  =  219.292; ENMIN  =  164.469 eV

 POTCAR:    PAW_PBE Mn 06Sep2000
   VRHFIN =Mn: d6 s1

   TITEL  = PAW_PBE Mn 06Sep2000
   POMASS =   54.938; ZVAL   =    7.000    mass and valenz
   ENMAX  =  269.864; ENMIN  =  202.398 eV

 POTCAR:    PAW_PBE Ni 02Aug2007
   VRHFIN =Ni:

   TITEL  = PAW_PBE Ni 02Aug2007
   POMASS =   58.690; ZVAL   =   10.000    mass and valenz
   ENMAX  =  269.532; ENMIN  =  202.149 eV

 POTCAR:    PAW_PBE O 08Apr2002
   VRHFIN =O: s2p4

   TITEL  = PAW_PBE O 08Apr2002
   POMASS =   16.000; ZVAL   =    6.000    mass and valenz
   ENMAX  =  400.000; ENMIN  =  300.000 eV

 Optimization of the real space projectors (new method)

 maximal supplied QI-value         = 13.42
 optimisation between [QCUT,QGAM] = [ 11.67, 23.35] = [ 38.16,152.62] Ry
 Optimized for a Real-space Cutoff    1.63 Angstroem

   l    n(q)    QCUT    max X(q) W(low)/X(q) W(high)/X(q)  e(spline)
   0     11    11.673    13.882    0.27E-04    0.79E-05    0.11E-06
   0     11    11.673    12.184    0.39E-04    0.13E-04    0.19E-06
   1     11    11.673     4.523    0.73E-05    0.76E-05    0.12E-06
   1     11    11.673     4.424    0.87E-05    0.13E-04    0.19E-06
   2     10    11.673    52.481    0.65E-04    0.36E-04    0.18E-06
   2     10    11.673    38.501    0.61E-04    0.33E-04    0.17E-06
   3     10    11.673    65.631    0.17E-03    0.14E-03    0.37E-06
   3     10    11.673    56.854    0.17E-03    0.14E-03    0.37E-06
 Optimization of the real space projectors (new method)

[...]

   l    n(q)    QCUT    max X(q) W(low)/X(q) W(high)/X(q)  e(spline)
   2      9    11.539    60.317    0.19E-03    0.47E-04    0.16E-06
   2      9    11.539    55.921    0.19E-03    0.48E-04    0.16E-06
   0     10    11.539    51.690    0.80E-04    0.50E-04    0.24E-06
   0     10    11.539    30.015    0.73E-04    0.45E-04    0.22E-06
   1     10    11.539    18.849    0.87E-04    0.16E-03    0.71E-07
   1     10    11.539    14.624    0.73E-04    0.13E-03    0.64E-07
 Optimization of the real space projectors (new method)

 maximal supplied QI-value         = 24.76
 optimisation between [QCUT,QGAM] = [ 11.64, 23.27] = [ 37.91,151.63] Ry
 Optimized for a Real-space Cutoff    1.14 Angstroem

   l    n(q)    QCUT    max X(q) W(low)/X(q) W(high)/X(q)  e(spline)
   0      8    11.635    20.381    0.10E-03    0.33E-03    0.24E-06
   0      8    11.635    15.268    0.11E-03    0.35E-03    0.26E-06
   1      7    11.635     5.964    0.24E-03    0.31E-03    0.30E-06
   1      7    11.635     5.382    0.22E-03    0.25E-03    0.26E-06
  PAW_PBE La 06Sep2000                  :
  PAW_PBE Mn 06Sep2000                  :
  PAW_PBE Ni 02Aug2007                  :
  PAW_PBE O 08Apr2002                   :

 POSCAR: SCEL6_3_2_1_1_1_0/2
  positions in direct lattice
  velocities in cartesian coordinates
 exchange correlation table for  LEXCH =        8
   RHO(1)=    0.500       N(1)  =     2000
   RHO(2)=  100.500       N(2)  =     4000

 ion  position               nearest neighbor table
   1  0.167  0.167  0.333-  26 2.75  30 2.75  17 2.75  16 2.75  14 2.75  13 2.75  29 2.76  27 2.76
                            24 2.76  19 2.76  23 2.76  20 2.76  12 3.36  11 3.36   7 3.38  10 3.38
   2  0.328  0.338  0.673-  28 2.69  24 2.71  18 2.71  22 2.75  25 2.75  29 2.76  16 2.76  15 2.77
                            19 2.77  13 2.81  23 2.81  12 3.33  11 3.35   9 3.36   8 3.36   8 3.39
   3  0.495  0.506  0.994-  28 2.69  22 2.71  15 2.71  24 2.75  25 2.75  27 2.76  17 2.76  18 2.77
                            21 2.77  14 2.81  23 2.81  11 3.33  12 3.35   8 3.36   9 3.36   9 3.39
   4  0.667  0.667  0.333-  26 2.75  30 2.75  17 2.75  16 2.75  14 2.75  13 2.75  29 2.76  27 2.76
                            21 2.76  22 2.76  20 2.76  23 2.76  12 3.36  11 3.36   7 3.38  10 3.38
   5  0.838  0.828  0.673-  28 2.69  21 2.71  18 2.71  19 2.75  25 2.75  29 2.76  16 2.76  15 2.77
                            22 2.77  13 2.81  20 2.81  12 3.33  11 3.35   9 3.36   8 3.36   8 3.39
   6  0.006  0.995  0.994-  28 2.69  19 2.71  15 2.71  21 2.75  25 2.75  27 2.76  17 2.76  18 2.77
                            24 2.77  14 2.81  20 2.81  11 3.33  12 3.35   8 3.36   9 3.36   9 3.39
   7  0.667  0.167  0.333-  30 1.90  26 1.90  20 1.97  23 1.97  13 1.98  14 1.98   1 3.38   4 3.38
                             4 3.38   1 3.38
   8  0.834  0.334  0.667-  19 1.90  22 1.90  18 1.92  13 1.92  25 1.95  29 1.96   3 3.36   6 3.36
                             5 3.36   2 3.36   1 3.38   4 3.38   5 3.39   2 3.39
   9  0.500  1.000  1.000-  21 1.90  24 1.90  15 1.92  14 1.92  25 1.95  27 1.96   2 3.36   5 3.36
                             3 3.36   6 3.36   1 3.38   4 3.38   6 3.39   3 3.39
  10  0.167  0.667  0.333-  16 1.90  17 1.90  20 1.93  23 1.93  27 1.94  29 1.94   1 3.38   4 3.38
                             1 3.38   4 3.38   3 3.40   6 3.40   5 3.40   2 3.40
  11  0.335  0.835  0.664-  28 1.97  26 1.98  15 1.98  16 1.99  19 1.99  22 1.99   3 3.33   6 3.33
                             5 3.35   2 3.35   1 3.36   4 3.36
  12  0.999  0.499  0.002-  28 1.97  30 1.98  18 1.98  17 1.99  21 1.99  24 1.99   2 3.33   5 3.33
                             3 3.35   6 3.35   1 3.36   4 3.36
  13  0.752  0.252  0.502-   8 1.92   7 1.98   1 2.75   4 2.75   2 2.81   5 2.81
  14  0.581  0.081  0.164-   9 1.92   7 1.98   1 2.75   4 2.75   3 2.81   6 2.81
  15  0.418  0.918  0.836-   9 1.92  11 1.98   3 2.71   6 2.71   5 2.77   2 2.77
  16  0.249  0.749  0.495-  10 1.90  11 1.99   1 2.75   4 2.75   2 2.76   5 2.76
  17  0.084  0.584  0.171-  10 1.90  12 1.99   1 2.75   4 2.75   3 2.76   6 2.76
  18  0.916  0.416  0.831-   8 1.92  12 1.98   2 2.71   5 2.71   3 2.77   6 2.77
  19  0.078  0.089  0.667-   8 1.90  11 1.99   6 2.71   5 2.75   1 2.76   2 2.77
  20  0.920  0.914  0.333-  10 1.93   7 1.97   1 2.76   4 2.76   6 2.81   5 2.81
  21  0.744  0.755  1.000-   9 1.90  12 1.99   5 2.71   6 2.75   4 2.76   3 2.77
  22  0.589  0.578  0.667-   8 1.90  11 1.99   3 2.71   2 2.75   4 2.76   5 2.77
  23  0.414  0.420  0.333-  10 1.93   7 1.97   1 2.76   4 2.76   3 2.81   2 2.81
  24  0.255  0.244  1.000-   9 1.90  12 1.99   2 2.71   3 2.75   1 2.76   6 2.77
  25  0.667  0.167  0.833-   8 1.95   9 1.95   3 2.75   6 2.75   5 2.75   2 2.75
  26  0.504  0.004  0.495-   7 1.90  11 1.98   1 2.75   4 2.75
  27  0.333  0.833  0.167-  10 1.94   9 1.96   3 2.76   6 2.76   4 2.76   1 2.76
  28  0.167  0.667  0.833-  11 1.97  12 1.97   3 2.69   6 2.69   5 2.69   2 2.69
  29  0.001  0.501  0.500-  10 1.94   8 1.96   2 2.76   5 2.76   4 2.76   1 2.76
  30  0.830  0.330  0.172-   7 1.90  12 1.98   1 2.75   4 2.75

  LATTYP: Found a base centered monoclinic cell.
 ALAT       =    11.0356202596
 B/A-ratio  =     0.7057972991
 C/A-ratio  =     2.3708754923
 COS(beta)  =    -0.7750701363

  Lattice vectors:

 A1 = (   3.9037700475,   3.8944554868,   3.8995907536)
 A2 = (   3.9037700475,  -3.8944554868,   3.8995907536)
 A3 = ( -11.7130403205,   0.0000000000, -23.3958084545)

Analysis of symmetry for initial positions (statically):
 Subroutine PRICEL returns:
 Original cell was already a primitive cell.

 Routine SETGRP: Setting up the symmetry group for a
 base centered monoclinic supercell.

 Subroutine GETGRP returns: Found  4 space group operations
 (whereof  1 operations were pure point group operations)
 out of a pool of  4 trial point group operations.

The static configuration has the point symmetry C_1 .
 The point group associated with its full space group is C_2h.

Analysis of symmetry for dynamics (positions and initial velocities):
 Subroutine PRICEL returns:
 Original cell was already a primitive cell.

[...]

The dynamic configuration has the point symmetry C_1 .
 The point group associated with its full space group is C_2h.

Analysis of structural, dynamic, and magnetic symmetry:
 Subroutine PRICEL returns:
 Original cell was already a primitive cell.

 Routine SETGRP: Setting up the symmetry group for a
 base centered monoclinic supercell.

 Subroutine GETGRP returns: Found  4 space group operations
 (whereof  1 operations were pure point group operations)
 out of a pool of  4 trial point group operations.

The magnetic configuration has the point symmetry C_1 .
 The point group associated with its full space group is C_2h.

 Subroutine INISYM returns: Found  4 space group operations
 (whereof  1 operations are pure point group operations),
 and found     1 'primitive' translations

 KPOINTS: Automatic mesh

Automatic generation of k-mesh.
 generate k-points for:    3    3    2
Space group operators:
 irot       det(A)        alpha          n_x          n_y          n_z        tau_x        tau_y        tau_z
    1     1.000000     0.000000     1.000000     0.000000     0.000000     0.000000     0.000000     0.000000
    2    -1.000000     0.000000     1.000000     0.000000     0.000000    -0.666667    -0.666667    -0.333333
    3     1.000000   180.000000     0.000000     1.000000     0.000000    -0.166667    -0.166667    -0.333333
    4    -1.000000   180.000000     0.000000     1.000000     0.000000     0.500000     0.500000     0.000000

 Subroutine IBZKPT returns following result:

 Found      8 irreducible k-points:

 Following reciprocal coordinates:
            Coordinates               Weight
  0.000000  0.000000  0.000000      1.000000
  0.333333  0.000000  0.000000      4.000000
  0.333333  0.333333  0.000000      2.000000
 -0.333333  0.333333  0.000000      2.000000
  0.000000  0.000000  0.500000      1.000000
  0.333333 -0.000000  0.500000      4.000000
  0.333333  0.333333  0.500000      2.000000
 -0.333333  0.333333  0.500000      2.000000

 Following cartesian coordinates:
            Coordinates               Weight
  0.000000  0.000000  0.000000      1.000000
  0.028465 -0.042796  0.014244      4.000000
  0.056929  0.000000  0.028489      2.000000
  0.000000  0.085592  0.000000      2.000000
 -0.042706  0.000000  0.042752      1.000000
 -0.014242 -0.042796  0.056997      4.000000
  0.014223  0.000000  0.071241      2.000000
 -0.042706  0.085592  0.042752      2.000000

 TETIRR: Found     25 inequivalent tetrahedra from      108

 SYSTEM =  final
 POSCAR =  SCEL6_3_2_1_1_1_0/2

 Startparameter for this run:
   NWRITE =      2    write-flag & timer
   PREC   = accura    normal or accurate (medium, high low for compatibility)
   ISTART =      0    job   : 0-new  1-cont  2-samecut
   ICHARG =      1    charge: 1-file 2-atom 10-const
   ISPIN  =      2    spin polarized calculation?
   LNONCOLLINEAR =      F non collinear calculations
   LSORBIT =      F    spin-orbit coupling
   INIWAV =      1    electr: 0-lowe 1-rand  2-diag
   LASPH  =      F    aspherical Exc in radial PAW
   METAGGA=      F    non-selfconsistent MetaGGA calc.

[...]
     30      -7.5937      1.00000
     31      -7.5474      1.00000
     32      -7.5174      1.00000
     33      -7.4022      1.00000
     34      -7.3999      1.00000
     35      -7.3879      1.00000
     36      -7.3502      1.00000
     37      -7.3378      1.00000
     38      -7.2839      1.00000
     39      -7.2621      1.00000
     40      -7.2483      1.00000
     41      -7.1757      1.00000
     42      -7.1683      1.00000
     43       0.2937      1.00000
     44       0.3705      1.00000
     45       0.4529      1.00000
     46       0.4716      1.00000
     47       0.8826      1.00000
     48       1.0044      1.00000
     49       1.2138      1.00000
     50       1.2180      1.00000
     51       1.2565      1.00000
     52       1.3121      1.00000
     53       1.3845      1.00000
     54       1.3877      1.00000
     55       1.4290      1.00000
     56       1.4975      1.00000
     57       1.5166      1.00000
     58       1.7918      1.00000
     59       1.8115      1.00000
     60       1.8594      1.00000
[...]
    130      10.5523      0.00000
    131      10.5626      0.00000
    132      10.6081      0.00000
    133      10.6333      0.00000
    134      10.6747      0.00000
    135      10.7011      0.00000
    136      10.7145      0.00000
    137      10.7314      0.00000
    138      10.7511      0.00000
    139      10.7724      0.00000
    140      10.7763      0.00000
    141      10.7989      0.00000
    142      10.8064      0.00000
    143      10.8339      0.00000
    144      10.8690      0.00000

[...]

 spin component 2

[...]

 k-point     8 :      -0.3333    0.3333    0.5000
  band No.  band energies     occupation
      1     -24.1690      1.00000
      2     -24.1584      1.00000
      3     -24.1521      1.00000
      4     -24.1420      1.00000
      5     -24.1411      1.00000
      6     -24.0744      1.00000
      7     -11.2447      1.00000
      8     -11.2026      1.00000
      9     -11.2000      1.00000
     10     -10.9637      1.00000
     11     -10.8241      1.00000
     12     -10.2546      1.00000
     13     -10.1034      1.00000
     14     -10.0974      1.00000
     15     -10.0140      1.00000
     16     -10.0084      1.00000
     17      -9.9800      1.00000
     18      -9.9174      1.00000
     19      -9.8524      1.00000
     20      -9.8207      1.00000
     21      -9.7666      1.00000
     22      -9.6350      1.00000
     23      -9.5546      1.00000
     24      -9.3716      1.00000
     25      -8.0417      1.00000
     26      -7.9223      1.00000
     27      -7.9139      1.00000
     28      -7.7381      1.00000
     29      -7.7251      1.00000
     30      -7.6896      1.00000
     31      -7.6695      1.00000
     32      -7.5873      1.00000
     33      -7.5068      1.00000
     34      -7.4654      1.00000
     35      -7.4395      1.00000
     36      -7.4298      1.00000
     37      -7.4204      1.00000
     38      -7.1741      1.00000
     39      -7.1507      1.00000
     40      -7.1444      1.00000
     41      -6.9952      1.00000
     42      -6.9670      1.00000
     43       1.1604      1.00000
     44       2.0763      1.00000
     45       2.0893      1.00000
     46       2.0932      1.00000
     47       2.1224      1.00000
     48       2.2581      1.00000
     49       2.7389      1.00000
     50       2.7591      1.00000
     51       2.8273      1.00000
     52       2.8491      1.00000
     53       3.0118      1.00000
     54       3.0271      1.00000
     55       3.0499      1.00000
     56       3.0908      1.00000
     57       3.1295      1.00000
     58       3.1389      1.00000
     59       3.1495      1.00000
     60       3.1959      1.00000
[...]
    130      10.7839      0.00000
    131      10.7901      0.00000
    132      10.7979      0.00000
    133      10.8305      0.00000
    134      10.8375      0.00000
    135      10.8696      0.00000
    136      10.8746      0.00000
    137      10.8903      0.00000
    138      10.9115      0.00000
    139      10.9378      0.00000
    140      10.9569      0.00000
    141      10.9686      0.00000
    142      10.9857      0.00000
    143      11.0091      0.00000
    144      11.1051      0.00000

 soft charge-density along one line, spin component           1
         0         1         2         3         4         5         6         7         8         9
 total charge-density along one line

 soft charge-density along one line, spin component           2
         0         1         2         3         4         5         6         7         8         9
 total charge-density along one line

------------------------ aborting loop because EDIFF is reached ----------------------------------------

 total charge

# of ion       s       p       d       f       tot
    1        1.999   5.698   0.482   0.188   8.366
    2        1.999   5.696   0.484   0.187   8.366
    3        1.999   5.697   0.482   0.187   8.365
    4        1.999   5.698   0.482   0.188   8.366
    5        1.998   5.697   0.482   0.187   8.365
    6        1.999   5.696   0.484   0.187   8.367
    7        0.318   0.488   4.878   0.000   5.684
    8        0.343   0.536   4.878   0.000   5.758
    9        0.343   0.536   4.878   0.000   5.758
   10        0.343   0.535   4.873   0.000   5.751
   11        0.381   0.544   8.316   0.000   9.241
   12        0.381   0.544   8.315   0.000   9.241
   13        1.563   3.462   0.000   0.000   5.025
   14        1.563   3.462   0.000   0.000   5.025
   15        1.560   3.459   0.000   0.000   5.019
   16        1.560   3.458   0.000   0.000   5.018
   17        1.560   3.458   0.000   0.000   5.018
   18        1.560   3.459   0.000   0.000   5.019
   19        1.560   3.460   0.000   0.000   5.019
   20        1.564   3.461   0.000   0.000   5.025
   21        1.560   3.460   0.000   0.000   5.020
   22        1.560   3.460   0.000   0.000   5.020
   23        1.564   3.461   0.000   0.000   5.025
   24        1.560   3.460   0.000   0.000   5.019
   25        1.567   3.455   0.000   0.000   5.023
   26        1.559   3.455   0.000   0.000   5.014
   27        1.566   3.460   0.000   0.000   5.026
   28        1.554   3.454   0.000   0.000   5.008
   29        1.566   3.460   0.000   0.000   5.026
   30        1.559   3.455   0.000   0.000   5.014
tot         42.208  99.621  39.035   1.124 181.988

 magnetization (x)

[...]

  FORCE on cell =-STRESS in cart. coord.  units (eV):
  Direction    XX          YY          ZZ          XY          YZ          ZX
  Alpha Z   975.54770   975.54770   975.54770
  Ewald   -5026.31204 -5015.54592 -5027.57175    -0.00000     0.00000    -0.80684
  Hartree  1082.07037  1081.08728  1074.54247    -0.00000    -0.00000     0.45603
  E(xc)   -1025.77526 -1025.83784 -1025.82505    -0.00000    -0.00000    -0.01379
  Local    -588.61619  -596.65757  -579.15204    -0.00000    -0.00000     0.40461
  n-local   403.55177   402.91991   402.65639     0.54455     0.45001     0.08895
  augment   344.92174   344.16489   344.49662     0.00000     0.00000     0.04194
  Kinetic  3834.78480  3834.36790  3835.11204    -0.90879    -0.65272    -0.21609
  Fock        0.00000     0.00000     0.00000     0.00000     0.00000     0.00000
  Total       0.17289     0.04634    -0.19361     0.00000     0.00000    -0.04519
  in kB       0.77896     0.20879    -0.87230     0.00000     0.00000    -0.20359

 VOLUME and BASIS-vectors are now :
  energy-cutoff  :      520.00
  volume of cell :      355.61
      direct lattice vectors                 reciprocal lattice vectors
     3.903770047 -3.894455487  3.899590754     0.085393824 -0.128387653  0.042733240
     3.903770047  3.894455487  3.899590754     0.085393824  0.128387653  0.042733240
    -3.902039869  0.000000000  7.797445440    -0.085412837  0.000000000  0.085504376

  length of vectors
     6.753740606  6.753740606  8.719293007     0.160005076  0.160005076  0.120856737

 FORCES acting on ions
    electron-ion (+dipol)            ewald-force                    non-local-force                 convergence-correction
   -.430E-03 0.368E-05 0.169E-03   -.168E-03 -.117E-04 0.154E-03   0.000E+00 0.000E+00 0.434E-18   0.482E-05 0.795E-06 -.693E-05
   -.315E+02 0.345E+02 0.388E+02   0.312E+02 -.341E+02 -.383E+02   0.284E+00 -.406E+00 -.435E+00   0.266E-01 -.473E-02 -.259E-01
   0.315E+02 0.345E+02 -.388E+02   -.312E+02 -.341E+02 0.383E+02   -.284E+00 -.406E+00 0.435E+00   -.266E-01 -.474E-02 0.259E-01
   -.424E-03 0.233E-05 0.172E-03   -.168E-03 0.117E-04 0.154E-03   0.000E+00 -.108E-18 -.434E-18   0.492E-05 -.793E-06 -.688E-05
   -.315E+02 -.345E+02 0.388E+02   0.312E+02 0.341E+02 -.383E+02   0.284E+00 0.406E+00 -.435E+00   0.266E-01 0.473E-02 -.259E-01
   0.315E+02 -.345E+02 -.388E+02   -.312E+02 0.341E+02 0.383E+02   -.284E+00 0.406E+00 0.435E+00   -.266E-01 0.474E-02 0.259E-01
   0.906E-04 0.381E-05 -.184E-04   -.234E-03 -.141E-13 0.521E-04   0.000E+00 -.169E-20 0.000E+00   0.381E-05 -.568E-07 -.337E-05
   -.362E+01 0.172E-05 0.170E+02   0.356E+01 -.126E-13 -.167E+02   0.370E-02 0.000E+00 -.203E+00   0.146E-01 -.265E-07 -.202E-01
   0.362E+01 0.172E-05 -.170E+02   -.356E+01 0.272E-13 0.167E+02   -.370E-02 0.000E+00 0.203E+00   -.146E-01 -.265E-07 0.202E-01
   0.634E-04 -.844E-07 -.398E-04   -.200E-03 0.179E-13 0.594E-04   0.847E-20 0.000E+00 0.136E-19   0.315E-05 0.594E-07 -.381E-05
   -.400E+02 0.708E-06 0.105E+02   0.389E+02 0.324E-14 -.103E+02   0.114E+01 0.000E+00 -.166E+00   0.181E-01 0.449E-07 -.165E-01
   0.400E+02 0.708E-06 -.105E+02   -.389E+02 -.254E-13 0.103E+02   -.114E+01 0.000E+00 0.166E+00   -.181E-01 0.449E-07 0.165E-01
   0.312E+01 -.311E-05 0.236E+02   -.371E+01 -.318E-13 -.260E+02   0.599E+00 0.000E+00 0.229E+01   0.894E-02 -.464E-07 -.163E-01
   -.312E+01 -.311E-05 -.236E+02   0.371E+01 0.210E-13 0.260E+02   -.599E+00 0.000E+00 -.229E+01   -.894E-02 -.464E-07 0.163E-01
   -.135E+02 -.888E-06 -.384E+02   0.140E+02 -.170E-13 0.337E+02   -.451E+00 0.000E+00 0.473E+01   0.321E-03 -.205E-08 0.103E-01
   -.988E+01 -.314E-05 0.433E+02   0.970E+01 0.983E-14 -.381E+02   0.171E+00 0.000E+00 -.514E+01   0.923E-02 0.453E-07 -.291E-01
   0.988E+01 -.314E-05 -.433E+02   -.970E+01 0.178E-13 0.381E+02   -.171E+00 0.000E+00 0.514E+01   -.923E-02 0.453E-07 0.291E-01
   0.135E+02 -.888E-06 0.384E+02   -.140E+02 -.298E-13 -.337E+02   0.451E+00 0.000E+00 -.473E+01   -.325E-03 -.205E-08 -.103E-01
   -.132E+02 -.374E+02 0.109E+02   0.134E+02 0.322E+02 -.110E+02   -.181E+00 0.521E+01 0.173E+00   0.110E-01 0.100E-01 -.129E-01
   -.449E-03 -.171E+02 0.214E-03   -.987E-04 0.188E+02 0.777E-04   0.867E-17 -.178E+01 0.347E-17   0.331E-05 0.312E-02 -.350E-05
   0.132E+02 -.374E+02 -.109E+02   -.134E+02 0.322E+02 0.110E+02   0.181E+00 0.521E+01 -.173E+00   -.110E-01 0.100E-01 0.129E-01
   -.132E+02 0.374E+02 0.109E+02   0.134E+02 -.322E+02 -.110E+02   -.181E+00 -.521E+01 0.173E+00   0.110E-01 -.100E-01 -.129E-01
   -.449E-03 0.171E+02 0.214E-03   -.987E-04 -.188E+02 0.777E-04   0.347E-17 0.178E+01 0.173E-17   0.331E-05 -.312E-02 -.350E-05
   0.132E+02 0.374E+02 -.109E+02   -.134E+02 -.322E+02 0.110E+02   0.181E+00 -.521E+01 -.173E+00   -.110E-01 -.100E-01 0.129E-01
   -.312E-03 0.423E-05 0.261E-03   -.219E-03 0.655E-14 0.610E-05   0.000E+00 -.542E-19 -.542E-19   -.195E-05 -.533E-07 0.255E-05
   -.503E+02 0.181E-05 -.423E+01   0.454E+02 -.198E-13 0.492E+01   0.495E+01 0.000E+00 -.720E+00   0.254E-01 -.259E-07 -.924E-02
   0.522E+01 0.404E-06 -.925E+01   -.478E+01 -.190E-13 0.923E+01   -.498E+00 0.000E+00 -.243E-01   -.165E-01 0.276E-07 0.110E-01
   -.208E-03 0.486E-06 0.249E-03   -.278E-03 -.300E-13 0.765E-05   0.000E+00 0.136E-19 0.108E-18   -.304E-05 0.555E-07 0.232E-05
   -.522E+01 0.404E-06 0.925E+01   0.478E+01 0.580E-13 -.923E+01   0.498E+00 0.000E+00 0.243E-01   0.165E-01 0.276E-07 -.110E-01
   0.503E+02 0.181E-05 0.423E+01   -.454E+02 0.106E-13 -.492E+01   -.495E+01 0.000E+00 0.720E+00   -.254E-01 -.259E-07 0.924E-02
   0.125E-03 -.300E-04 0.537E-02   -.711E-13 -.220E-13 -.178E-14   0.888E-15 -.407E-19 0.000E+00   -.193E-04 0.240E-07 -.283E-05

 POSITION                                       TOTAL-FORCE (eV/Angst)
      0.00058      0.00000      3.89901         0.000000      0.000000      0.000000
     -0.02740      0.03996      7.84417        -0.027482      0.046604      0.048008
      0.03029      0.03996     11.65089         0.027482      0.046604     -0.048008
      3.90435      0.00000      7.79860         0.000000      0.000000      0.000000
      3.87637     -0.03996     11.74376        -0.027482     -0.046604      0.048008
      0.03029      3.85449     11.65089         0.027482     -0.046604     -0.048008
      1.95246     -1.94723      5.84881         0.000000      0.000000      0.000000
      1.95608     -1.94723      9.75215        -0.040344      0.000000      0.034574
      1.95058      1.94723     13.64250         0.040344      0.000000     -0.034574
      1.95246      1.94723      5.84881         0.000000      0.000000      0.000000
      1.97252      1.94723      9.74079         0.016366      0.000000      0.004994
      5.83617     -1.94723      5.85641        -0.016366      0.000000     -0.004994
      1.95924     -1.94723      7.83341         0.014865      0.000000     -0.035480
      1.94568     -1.94723      3.86421        -0.014865      0.000000      0.035480
      1.95286      1.94723     11.72527        -0.002089      0.000000      0.028108
      1.96278      1.94723      7.75246         0.003028      0.000000     -0.007520
      1.94214      1.94723      3.94516        -0.003028      0.000000      0.007520
      1.95379     -1.94723     11.66938         0.002089      0.000000     -0.028108
     -1.94883      0.04303      5.85031        -0.012440     -0.006445      0.009837
      5.85623     -0.02219      9.74840         0.000000     -0.037239      0.000000
      1.95172      0.04303     13.64475         0.012440     -0.006445     -0.009837
      1.95494     -0.04303      9.74990        -0.012440      0.006445      0.009837
      1.95246      0.02219      5.84881         0.000000      0.037239      0.000000
     -1.95205     -0.04303      9.74516         0.012440      0.006445     -0.009837
      0.00144     -1.94723      9.74753         0.000000      0.000000      0.000000
      0.04992     -1.94723      5.83381         0.084281      0.000000     -0.043783
      3.89733      1.94723      5.84506        -0.076152      0.000000     -0.038307
      0.00144      1.94723      9.74753         0.000000      0.000000      0.000000
      0.00759      1.94723      5.85255         0.076152      0.000000      0.038307
      3.85500     -1.94723      5.86381        -0.084281      0.000000      0.043783
    total drift:                                0.000106     -0.000030      0.005368

  FREE ENERGIE OF THE ION-ELECTRON SYSTEM (eV)
  free  energy   TOTEN  =      -226.79964376 eV

  energy  without entropy=     -226.79964376  energy(sigma->0) =     -226.79964376

 total charge

[...]

 magnetization (x)

# of ion       s       p       d       f       tot
    1        0.001   0.001   0.011   0.005   0.018
    2        0.000   0.001   0.006   0.005   0.013
    3        0.001   0.001   0.010   0.004   0.015
    4        0.001   0.001   0.010   0.005   0.017
    5        0.001   0.001   0.010   0.004   0.015
    6        0.000   0.001   0.006   0.005   0.013
    7        0.021   0.027   3.651   0.000   3.699
    8        0.027   0.033   3.480   0.000   3.540
    9        0.027   0.033   3.480   0.000   3.540
   10        0.026   0.031   3.472   0.000   3.528
   11        0.006  -0.002   1.709   0.000   1.713
   12        0.006  -0.002   1.709   0.000   1.713
   13        0.004  -0.025   0.000   0.000  -0.020
   14        0.004  -0.025   0.000   0.000  -0.020
   15        0.005  -0.006   0.000   0.000  -0.001
   16        0.005  -0.004   0.000   0.000   0.000
   17        0.005  -0.004   0.000   0.000   0.000
   18        0.005  -0.006   0.000   0.000  -0.001
   19        0.005  -0.005   0.000   0.000   0.000
   20        0.005  -0.029   0.000   0.000  -0.024
   21        0.005  -0.003   0.000   0.000   0.002
   22        0.005  -0.003   0.000   0.000   0.002
   23        0.005  -0.029   0.000   0.000  -0.024
   24        0.005  -0.005   0.000   0.000   0.000
   25        0.008  -0.051   0.000   0.000  -0.043
   26        0.004  -0.011   0.000   0.000  -0.007
   27        0.007  -0.039   0.000   0.000  -0.033
   28        0.006   0.035   0.000   0.000   0.041
   29        0.007  -0.039   0.000   0.000  -0.033
   30        0.004  -0.011   0.000   0.000  -0.008
tot          0.208  -0.137  17.555   0.028  17.653

 BZINTS: Fermi energy:  7.928835;222.000000 electrons
         Band energy:-371.096037;  BLOECHL correction: -0.006321