 vasp.5.4.4.18Apr17-6-g9f103f2a35 (build Oct 03 2018 13:58:34) complex

 executed on             LinuxIFC date 2019.06.04  01:53:32

 INCAR:
 POTCAR:    PAW_PBE La 06Sep2000
 POTCAR:    PAW_PBE Mn 06Sep2000
 POTCAR:    PAW_PBE Ni 02Aug2007
 POTCAR:    PAW_PBE O 08Apr2002

 POTCAR:    PAW_PBE La 06Sep2000
   VRHFIN =La : [core=Kr4d]

   TITEL  = PAW_PBE La 06Sep2000
   POMASS =  138.900; ZVAL   =   11.000    mass and valenz
   ENMAX  =  219.292; ENMIN  =  164.469 eV

 POTCAR:    PAW_PBE Mn 06Sep2000
   VRHFIN =Mn: d6 s1

   TITEL  = PAW_PBE Mn 06Sep2000
   POMASS =   54.938; ZVAL   =    7.000    mass and valenz
   ENMAX  =  269.864; ENMIN  =  202.398 eV

 POTCAR:    PAW_PBE Ni 02Aug2007
   VRHFIN =Ni:

   TITEL  = PAW_PBE Ni 02Aug2007
   POMASS =   58.690; ZVAL   =   10.000    mass and valenz
   ENMAX  =  269.532; ENMIN  =  202.149 eV

 POTCAR:    PAW_PBE O 08Apr2002
   VRHFIN =O: s2p4

   TITEL  = PAW_PBE O 08Apr2002
   POMASS =   16.000; ZVAL   =    6.000    mass and valenz
   ENMAX  =  400.000; ENMIN  =  300.000 eV

 Optimization of the real space projectors (new method)

 maximal supplied QI-value         = 13.42
 optimisation between [QCUT,QGAM] = [ 11.67, 23.35] = [ 38.16,152.62] Ry
 Optimized for a Real-space Cutoff    1.63 Angstroem

   l    n(q)    QCUT    max X(q) W(low)/X(q) W(high)/X(q)  e(spline)
   0     11    11.673    13.882    0.27E-04    0.79E-05    0.11E-06
   0     11    11.673    12.184    0.39E-04    0.13E-04    0.19E-06
   1     11    11.673     4.523    0.73E-05    0.76E-05    0.12E-06
   1     11    11.673     4.424    0.87E-05    0.13E-04    0.19E-06
   2     10    11.673    52.481    0.65E-04    0.36E-04    0.18E-06
   2     10    11.673    38.501    0.61E-04    0.33E-04    0.17E-06
   3     10    11.673    65.631    0.17E-03    0.14E-03    0.37E-06
   3     10    11.673    56.854    0.17E-03    0.14E-03    0.37E-06
 Optimization of the real space projectors (new method)

[...]

   l    n(q)    QCUT    max X(q) W(low)/X(q) W(high)/X(q)  e(spline)
   2      9    11.539    60.317    0.19E-03    0.47E-04    0.16E-06
   2      9    11.539    55.921    0.19E-03    0.48E-04    0.16E-06
   0     10    11.539    51.690    0.80E-04    0.50E-04    0.24E-06
   0     10    11.539    30.015    0.73E-04    0.45E-04    0.22E-06
   1     10    11.539    18.849    0.87E-04    0.16E-03    0.71E-07
   1     10    11.539    14.624    0.73E-04    0.13E-03    0.64E-07
 Optimization of the real space projectors (new method)

 maximal supplied QI-value         = 24.76
 optimisation between [QCUT,QGAM] = [ 11.64, 23.27] = [ 37.91,151.63] Ry
 Optimized for a Real-space Cutoff    1.14 Angstroem

   l    n(q)    QCUT    max X(q) W(low)/X(q) W(high)/X(q)  e(spline)
   0      8    11.635    20.381    0.10E-03    0.33E-03    0.24E-06
   0      8    11.635    15.268    0.11E-03    0.35E-03    0.26E-06
   1      7    11.635     5.964    0.24E-03    0.31E-03    0.30E-06
   1      7    11.635     5.382    0.22E-03    0.25E-03    0.26E-06
  PAW_PBE La 06Sep2000                  :
  PAW_PBE Mn 06Sep2000                  :
  PAW_PBE Ni 02Aug2007                  :
  PAW_PBE O 08Apr2002                   :

 POSCAR: SCEL6_2_1_3_0_1_1/6
  positions in direct lattice
  velocities in cartesian coordinates
 exchange correlation table for  LEXCH =        8
   RHO(1)=    0.500       N(1)  =     2000
   RHO(2)=  100.500       N(2)  =     4000

 ion  position               nearest neighbor table
   1  0.168  0.168  0.336-  23 2.72  29 2.72  26 2.72  20 2.72  17 2.73  17 2.73  14 2.73  14 2.73
                            24 2.76  27 2.76  30 2.76  21 2.76   9 3.33  11 3.33  11 3.33   9 3.33
   2  0.332  0.332  0.664-  20 2.72  26 2.72  29 2.72  23 2.72  16 2.73  16 2.73  13 2.73  13 2.73
                            19 2.76  28 2.76  25 2.76  22 2.76  11 3.33   9 3.33  11 3.33   9 3.33
   3  0.500  0.500  0.000-  19 2.73  21 2.73  27 2.73  28 2.73  25 2.73  30 2.73  22 2.73  24 2.73
                            15 2.73  18 2.73  18 2.73  15 2.73   7 3.35   8 3.35   7 3.35   8 3.35
   4  0.668  0.668  0.336-  20 2.72  29 2.72  26 2.72  23 2.72  17 2.73  17 2.73  14 2.73  14 2.73
                            21 2.76  27 2.76  30 2.76  24 2.76   9 3.33  11 3.33  11 3.33   9 3.33
   5  0.832  0.832  0.664-  23 2.72  26 2.72  29 2.72  20 2.72  16 2.73  16 2.73  13 2.73  13 2.73
                            22 2.76  28 2.76  25 2.76  19 2.76  11 3.33   9 3.33  11 3.33   9 3.33
   6  0.000  0.000  0.000-  22 2.73  24 2.73  27 2.73  28 2.73  25 2.73  30 2.73  19 2.73  21 2.73
                            15 2.73  18 2.73  18 2.73  15 2.73   7 3.35   8 3.35   7 3.35   8 3.35
   7  0.917  0.417  0.833-  28 1.90  22 1.90  19 1.90  25 1.90  18 1.90  13 1.91   3 3.35   6 3.35
                             3 3.35   6 3.35   5 3.36   2 3.36   5 3.36   2 3.36
   8  0.583  0.083  0.167-  27 1.90  24 1.90  21 1.90  30 1.90  15 1.90  14 1.91   3 3.35   6 3.35
                             3 3.35   6 3.35   4 3.36   1 3.36   1 3.36   4 3.36
   9  0.750  0.250  0.500-  20 1.95  23 1.95  26 1.95  29 1.95  13 1.96  14 1.96   2 3.33   5 3.33
                             4 3.33   1 3.33   1 3.33   2 3.33   4 3.33   5 3.33
  10  0.416  0.916  0.833-  28 1.97  22 1.97  25 1.97  19 1.97  15 1.97  16 1.97   6 3.35   3 3.35
                             3 3.35   6 3.35   5 3.36   2 3.36   2 3.36   5 3.36
  11  0.250  0.750  0.500-  16 1.89  17 1.89  20 1.92  23 1.92  26 1.92  29 1.92   5 3.33   2 3.33
                             1 3.33   4 3.33   1 3.33   2 3.33   4 3.33   5 3.33
  12  0.084  0.584  0.167-  27 1.97  24 1.97  21 1.97  30 1.97  18 1.97  17 1.97   6 3.35   3 3.35
                             3 3.35   6 3.35   4 3.36   1 3.36   4 3.36   1 3.36
  13  0.835  0.335  0.669-   7 1.91   9 1.96   2 2.73   5 2.73   5 2.73   2 2.73
  14  0.665  0.165  0.331-   8 1.91   9 1.96   1 2.73   4 2.73   1 2.73   4 2.73
  15  0.501  0.001  0.003-   8 1.90  10 1.97   3 2.73   6 2.73   3 2.73   6 2.73
  16  0.331  0.831  0.663-  11 1.89  10 1.97   2 2.73   5 2.73   5 2.73   2 2.73
  17  0.169  0.669  0.337-  11 1.89  12 1.97   1 2.73   4 2.73   1 2.73   4 2.73
  18  0.999  0.499  0.997-   7 1.90  12 1.97   3 2.73   6 2.73   3 2.73   6 2.73
  19  0.162  0.171  0.834-   7 1.90  10 1.97   3 2.73   6 2.73   2 2.76   5 2.76
  20  0.002  0.998  0.500-  11 1.92   9 1.95   4 2.72   2 2.72   5 2.72   1 2.72
  21  0.829  0.838  0.166-   8 1.90  12 1.97   3 2.73   6 2.73   4 2.76   1 2.76
  22  0.671  0.662  0.834-   7 1.90  10 1.97   6 2.73   3 2.73   5 2.76   2 2.76
  23  0.498  0.502  0.500-  11 1.92   9 1.95   5 2.72   1 2.72   4 2.72   2 2.72
  24  0.338  0.329  0.166-   8 1.90  12 1.97   6 2.73   3 2.73   1 2.76   4 2.76
  25  0.671  0.171  0.834-   7 1.90  10 1.97   3 2.73   6 2.73   5 2.76   2 2.76
  26  0.498  0.998  0.500-  11 1.92   9 1.95   5 2.72   2 2.72   4 2.72   1 2.72
  27  0.338  0.838  0.166-   8 1.90  12 1.97   3 2.73   6 2.73   4 2.76   1 2.76
  28  0.162  0.662  0.834-   7 1.90  10 1.97   3 2.73   6 2.73   5 2.76   2 2.76
  29  0.002  0.502  0.500-  11 1.92   9 1.95   4 2.72   1 2.72   5 2.72   2 2.72
  30  0.829  0.329  0.166-   8 1.90  12 1.97   3 2.73   6 2.73   4 2.76   1 2.76

  LATTYP: Found a body centered tetragonal cell.
 ALAT       =     5.4664681518
 C/A-ratio  =     4.2462926669

  Lattice vectors:

 A1 = (   0.0000000000,  -3.8653766993,  11.6061118133)
 A2 = (   0.0000000000,   3.8653766993,  11.6061118133)
 A3 = (  -3.8653766993,   0.0000000000, -11.6061118133)

Analysis of symmetry for initial positions (statically):
 Subroutine PRICEL returns:
 Original cell was already a primitive cell.

 Routine SETGRP: Setting up the symmetry group for a
 body centered tetragonal supercell.

 Subroutine GETGRP returns: Found 16 space group operations
 (whereof  8 operations were pure point group operations)
 out of a pool of 16 trial point group operations.

The static configuration has the point symmetry D_2d.
 The point group associated with its full space group is D_4h.

Analysis of symmetry for dynamics (positions and initial velocities):
 Subroutine PRICEL returns:
 Original cell was already a primitive cell.

[...]

The dynamic configuration has the point symmetry D_2d.
 The point group associated with its full space group is D_4h.

Analysis of structural, dynamic, and magnetic symmetry:
 Subroutine PRICEL returns:
 Original cell was already a primitive cell.

 Routine SETGRP: Setting up the symmetry group for a
 body centered tetragonal supercell.

 Subroutine GETGRP returns: Found 16 space group operations
 (whereof  8 operations were pure point group operations)
 out of a pool of 16 trial point group operations.

The magnetic configuration has the point symmetry D_2d.
 The point group associated with its full space group is D_4h.

 Subroutine INISYM returns: Found 16 space group operations
 (whereof  8 operations are pure point group operations),
 and found     1 'primitive' translations

 KPOINTS: Automatic mesh

Automatic generation of k-mesh.
 generate k-points for:    4    4    2
Space group operators:
 irot       det(A)        alpha          n_x          n_y          n_z        tau_x        tau_y        tau_z
    1     1.000000     0.000000     1.000000     0.000000     0.000000     0.000000     0.000000     0.000000
    2    -1.000000    90.000000     0.000000     0.000000    -1.000000     0.000000     0.000000     0.000000
    3     1.000000   180.000000     0.000000     0.000000     1.000000     0.000000     0.000000     0.000000
    4    -1.000000    90.000000     0.000000     0.000000     1.000000     0.000000     0.000000     0.000000
    5    -1.000000   180.000000     0.707107     0.707107     0.000000     0.000000     0.000000     0.000000
    6     1.000000   180.000000     1.000000     0.000000     0.000000     0.000000     0.000000     0.000000
    7    -1.000000   180.000000     0.707107    -0.707107     0.000000     0.000000     0.000000     0.000000
    8     1.000000   180.000000     0.000000     1.000000     0.000000     0.000000     0.000000     0.000000
    9    -1.000000     0.000000     1.000000     0.000000     0.000000     0.500000     0.500000     1.000000
   10     1.000000    90.000000     0.000000     0.000000    -1.000000     0.500000     0.500000     1.000000
   11    -1.000000   180.000000     0.000000     0.000000     1.000000     0.500000     0.500000     1.000000
   12     1.000000    90.000000     0.000000     0.000000     1.000000     0.500000     0.500000     1.000000
   13     1.000000   180.000000     0.707107     0.707107     0.000000     0.500000     0.500000     1.000000
   14    -1.000000   180.000000     1.000000     0.000000     0.000000     0.500000     0.500000     1.000000
   15     1.000000   180.000000     0.707107    -0.707107     0.000000     0.500000     0.500000     1.000000
   16    -1.000000   180.000000     0.000000     1.000000     0.000000     0.500000     0.500000     1.000000

 Subroutine IBZKPT returns following result:

 Found     10 irreducible k-points:

 Following reciprocal coordinates:
            Coordinates               Weight
  0.000000  0.000000  0.000000      1.000000
  0.250000  0.000000  0.000000      4.000000
[...]
     30      -7.2204      1.00000
     31      -7.2162      1.00000
     32      -7.1506      1.00000
     33      -7.1484      1.00000
     34      -7.1484      1.00000
     35      -7.1070      1.00000
     36      -7.1070      1.00000
     37      -6.9846      1.00000
     38      -6.9845      1.00000
     39      -6.9133      1.00000
     40      -6.9133      1.00000
     41      -6.5427      1.00000
     42      -6.5027      1.00000
     43       0.2654      1.00000
     44       0.3308      1.00000
     45       0.4970      1.00000
     46       0.4977      1.00000
     47       0.5051      1.00000
     48       0.5096      1.00000
     49       0.8665      1.00000
     50       1.0820      1.00000
     51       1.2588      1.00000
     52       1.2817      1.00000
     53       1.4212      1.00000
     54       1.7080      1.00000
     55       1.7080      1.00000
     56       1.8166      1.00000
     57       1.8786      1.00000
     58       1.8787      1.00000
     59       1.9057      1.00000
     60       1.9057      1.00000
[...]
    132      11.1248      0.00000
    133      11.1634      0.00000
    134      11.1916      0.00000
    135      11.2405      0.00000
    136      11.2562      0.00000
    137      11.2897      0.00000
    138      11.3109      0.00000
    139      11.3297      0.00000
    140      11.3637      0.00000
    141      11.3691      0.00000
    142      11.3831      0.00000
    143      11.4144      0.00000
    144      11.4462      0.00000
    145      11.4623      0.00000
    146      11.4929      0.00000

[...]

 spin component 2

[...]

 k-point    10 :      -0.2500    0.2500    0.5000
  band No.  band energies     occupation
      1     -23.6737      1.00000
      2     -23.6413      1.00000
      3     -23.6170      1.00000
      4     -23.5989      1.00000
      5     -23.5719      1.00000
      6     -23.5492      1.00000
      7     -10.8797      1.00000
      8     -10.8732      1.00000
      9     -10.8458      1.00000
     10     -10.7318      1.00000
     11     -10.3405      1.00000
     12     -10.2650      1.00000
     13      -9.9471      1.00000
     14      -9.8845      1.00000
     15      -9.8601      1.00000
     16      -9.8496      1.00000
     17      -9.6462      1.00000
     18      -9.6461      1.00000
     19      -9.4629      1.00000
     20      -9.4487      1.00000
     21      -9.3570      1.00000
     22      -9.3335      1.00000
     23      -9.2857      1.00000
     24      -9.2166      1.00000
     25      -7.4813      1.00000
     26      -7.4460      1.00000
     27      -7.1421      1.00000
     28      -7.1084      1.00000
     29      -7.0463      1.00000
     30      -7.0408      1.00000
     31      -7.0327      1.00000
     32      -7.0239      1.00000
     33      -6.9899      1.00000
     34      -6.9885      1.00000
     35      -6.9613      1.00000
     36      -6.9549      1.00000
     37      -6.8940      1.00000
     38      -6.8762      1.00000
     39      -6.7255      1.00000
     40      -6.6908      1.00000
     41      -6.5619      1.00000
     42      -6.5399      1.00000
     43       1.5562      1.00000
     44       1.7049      1.00000
     45       2.0008      1.00000
     46       2.0074      1.00000
     47       2.0131      1.00000
     48       2.0695      1.00000
     49       2.4744      1.00000
     50       2.5552      1.00000
     51       2.5843      1.00000
     52       2.6462      1.00000
     53       2.6469      1.00000
     54       2.7079      1.00000
     55       2.8437      1.00000
     56       2.9379      1.00000
     57       2.9635      1.00000
     58       3.0310      1.00000
     59       3.0540      1.00000
     60       3.0873      1.00000
[...]
    132      11.2812      0.00000
    133      11.2966      0.00000
    134      11.3221      0.00000
    135      11.3356      0.00000
    136      11.3390      0.00000
    137      11.3446      0.00000
    138      11.3581      0.00000
    139      11.3780      0.00000
    140      11.3845      0.00000
    141      11.3936      0.00000
    142      11.3990      0.00000
    143      11.4316      0.00000
    144      11.4423      0.00000
    145      11.4743      0.00000
    146      11.4983      0.00000

 soft charge-density along one line, spin component           1
         0         1         2         3         4         5         6         7         8         9
 total charge-density along one line

 soft charge-density along one line, spin component           2
         0         1         2         3         4         5         6         7         8         9
 total charge-density along one line

------------------------ aborting loop because EDIFF is reached ----------------------------------------

 total charge

# of ion       s       p       d       f       tot
    1        1.999   5.701   0.491   0.192   8.383
    2        1.999   5.701   0.491   0.192   8.383
    3        2.000   5.701   0.495   0.194   8.389
    4        2.000   5.700   0.493   0.190   8.383
    5        2.000   5.700   0.493   0.190   8.383
    6        2.000   5.701   0.495   0.194   8.390
    7        0.362   0.587   4.858   0.000   5.806
    8        0.362   0.587   4.857   0.000   5.806
    9        0.402   0.587   8.321   0.000   9.310
   10        0.386   0.559   8.323   0.000   9.267
   11        0.450   0.710   8.309   0.000   9.469
   12        0.386   0.559   8.323   0.000   9.267
   13        1.561   3.460   0.000   0.000   5.021
   14        1.561   3.460   0.000   0.000   5.021
   15        1.561   3.461   0.000   0.000   5.022
   16        1.561   3.434   0.000   0.000   4.995
   17        1.561   3.434   0.000   0.000   4.995
   18        1.561   3.461   0.000   0.000   5.022
   19        1.561   3.462   0.000   0.000   5.023
   20        1.562   3.435   0.000   0.000   4.996
   21        1.561   3.462   0.000   0.000   5.023
   22        1.561   3.462   0.000   0.000   5.023
   23        1.562   3.435   0.000   0.000   4.996
   24        1.561   3.462   0.000   0.000   5.023
   25        1.561   3.462   0.000   0.000   5.022
   26        1.562   3.433   0.000   0.000   4.995
   27        1.561   3.462   0.000   0.000   5.023
   28        1.561   3.462   0.000   0.000   5.023
   29        1.562   3.433   0.000   0.000   4.995
   30        1.561   3.462   0.000   0.000   5.022
tot         42.444  99.934  45.950   1.151 189.479

 magnetization (x)

[...]

  FORCE on cell =-STRESS in cart. coord.  units (eV):
  Direction    XX          YY          ZZ          XY          YZ          ZX
  Alpha Z   990.67100   990.67100   990.67100
  Ewald   -5302.37794 -5302.37794 -5359.78284    -0.00000     0.00000     0.00001
  Hartree  1250.10951  1250.10949  1195.86209    -0.00000     0.00000     0.00001
  E(xc)   -1066.80959 -1066.80959 -1066.77155    -0.00000    -0.00000    -0.00001
  Local    -795.58243  -795.58243  -682.43694     0.00000    -0.00000    -0.00047
  n-local   428.51018   428.44299   428.58012     2.27298    -0.08921     0.07865
  augment   635.24666   635.24689   634.61973    -0.00000    -0.00000     0.00093
  Kinetic  3859.46007  3859.96473  3858.10751    11.69079     0.27569    -0.27077
  Fock        0.00000     0.00000     0.00000     0.00000     0.00000     0.00000
  Total      -0.55371    -0.55371    -1.15088     0.00000     0.00000     0.00000
  in kB      -2.55793    -2.55793    -5.31666     0.00000     0.00000     0.00000

 VOLUME and BASIS-vectors are now :
  energy-cutoff  :      520.00
  volume of cell :      346.82
      direct lattice vectors                 reciprocal lattice vectors
     3.865376699 -3.865376699  0.000000000     0.129353499 -0.129353499  0.043080750
     3.865376699  3.865376699  0.000000000     0.129353499  0.129353499  0.043080750
    -3.865376699  0.000000000 11.606111813     0.000000000  0.000000000  0.086161500

  length of vectors
     5.466468152  5.466468152 12.232864278     0.187937772  0.187937772  0.086161500

 FORCES acting on ions
    electron-ion (+dipol)            ewald-force                    non-local-force                 convergence-correction
   -.399E-03 0.240E-04 0.760E+02   -.935E-04 -.136E-04 -.756E+02   -.434E-17 -.217E-17 -.262E+00   0.212E-05 -.122E-06 0.133E-01
   0.399E-03 -.240E-04 -.760E+02   0.935E-04 0.136E-04 0.756E+02   0.434E-17 0.130E-17 0.262E+00   -.212E-05 0.122E-06 -.133E-01
   -.152E-10 -.955E-05 -.843E-12   -.480E-13 0.119E-04 -.369E-12   -.434E-18 0.217E-18 0.000E+00   0.218E-13 -.414E-07 0.121E-11
   -.399E-03 -.240E-04 0.760E+02   -.935E-04 0.136E-04 -.756E+02   -.607E-17 0.867E-18 -.262E+00   0.212E-05 0.122E-06 0.133E-01
   0.399E-03 0.240E-04 -.760E+02   0.935E-04 -.136E-04 0.756E+02   0.520E-17 -.217E-17 0.262E+00   -.212E-05 -.122E-06 -.133E-01
   -.171E-10 0.955E-05 0.297E-12   0.544E-14 -.119E-04 0.384E-12   0.434E-18 -.217E-18 0.000E+00   0.146E-16 0.414E-07 0.116E-11
   0.272E-04 0.143E-10 -.187E+02   0.287E-04 0.181E-13 0.187E+02   -.325E-18 -.217E-18 -.429E-01   0.359E-07 0.149E-13 -.889E-02
   -.272E-04 0.142E-10 0.187E+02   -.287E-04 -.359E-13 -.187E+02   0.217E-18 0.000E+00 0.429E-01   -.359E-07 -.310E-13 0.889E-02
   0.258E-10 0.230E-10 0.301E-11   0.237E-12 -.114E-12 0.135E-12   0.424E-21 -.424E-21 0.000E+00   -.182E-13 -.128E-13 -.117E-11
   0.512E-04 0.202E-10 -.348E+02   0.224E-04 -.766E-13 0.348E+02   -.108E-18 0.542E-19 -.278E-01   0.166E-06 0.349E-14 -.171E-01
   0.251E-10 0.280E-10 0.191E-11   0.124E-13 0.196E-13 0.149E-12   0.106E-21 -.847E-21 0.000E+00   0.170E-13 -.111E-13 -.117E-11
   -.512E-04 0.238E-10 0.348E+02   -.224E-04 0.292E-16 -.348E+02   -.108E-18 0.542E-19 0.278E-01   -.166E-06 -.232E-13 0.171E-01
   0.470E-03 -.163E-10 -.655E+02   -.497E-04 -.373E-13 0.613E+02   0.000E+00 0.000E+00 0.413E+01   0.176E-06 0.115E-13 -.259E-01
   -.470E-03 -.145E-10 0.655E+02   0.497E-04 -.248E-14 -.613E+02   0.000E+00 0.000E+00 -.413E+01   -.176E-06 -.407E-13 0.259E-01
   -.141E-04 -.158E-10 -.301E+02   -.963E-05 0.333E-14 0.251E+02   -.416E-16 0.000E+00 0.510E+01   -.551E-07 -.539E-14 -.150E-01
   0.559E-03 -.119E-10 -.618E+02   -.747E-04 -.215E-13 0.651E+02   -.153E-15 0.000E+00 -.336E+01   0.473E-07 -.313E-13 0.604E-02
   -.559E-03 -.147E-10 0.618E+02   0.747E-04 0.166E-13 -.651E+02   0.139E-15 0.000E+00 0.336E+01   -.473E-07 -.210E-14 -.604E-02
   0.141E-04 -.174E-10 0.301E+02   0.963E-05 0.935E-14 -.251E+02   0.278E-16 0.000E+00 -.510E+01   0.551E-07 -.913E-14 0.150E-01
   -.480E-03 -.324E+02 -.185E+02   -.529E-04 0.275E+02 0.185E+02   -.759E-16 0.490E+01 0.901E-01   0.413E-07 -.153E-01 -.862E-02
   0.188E-10 -.198E+02 0.395E-12   0.116E-10 0.214E+02 0.711E-14   0.352E-17 -.190E+01 -.325E-18   -.123E-12 0.147E-01 -.744E-12
   0.480E-03 -.324E+02 0.185E+02   0.529E-04 0.275E+02 -.185E+02   0.850E-16 0.490E+01 -.901E-01   -.413E-07 -.153E-01 0.862E-02
   -.480E-03 0.324E+02 -.185E+02   -.529E-04 -.275E+02 0.185E+02   -.885E-16 -.490E+01 0.901E-01   0.413E-07 0.153E-01 -.862E-02
   -.515E-10 0.198E+02 0.398E-11   -.114E-10 -.214E+02 0.107E-12   -.144E-16 0.190E+01 0.108E-18   0.710E-13 -.147E-01 -.717E-12
   0.480E-03 0.324E+02 0.185E+02   0.529E-04 -.275E+02 -.185E+02   0.924E-16 -.490E+01 -.901E-01   -.413E-07 0.153E-01 0.862E-02
   -.324E+02 -.246E-10 -.185E+02   0.275E+02 0.282E-12 0.185E+02   0.490E+01 0.000E+00 0.901E-01   -.153E-01 -.123E-13 -.862E-02
   -.198E+02 0.112E-10 0.212E-05   0.214E+02 0.117E-10 0.646E-06   -.190E+01 0.000E+00 -.217E-18   0.147E-01 -.105E-12 -.820E-07
   -.324E+02 -.250E-10 0.185E+02   0.275E+02 0.515E-12 -.185E+02   0.490E+01 0.000E+00 -.901E-01   -.153E-01 -.778E-13 0.862E-02
   0.324E+02 -.265E-10 -.185E+02   -.275E+02 -.419E-12 0.185E+02   -.490E+01 0.000E+00 0.901E-01   0.153E-01 0.234E-13 -.862E-02
   0.198E+02 -.610E-10 -.212E-05   -.214E+02 -.114E-10 -.646E-06   0.190E+01 0.000E+00 0.434E-18   -.147E-01 0.849E-13 0.820E-07
   0.324E+02 -.260E-10 0.185E+02   -.275E+02 -.644E-12 -.185E+02   -.490E+01 0.000E+00 -.901E-01   0.153E-01 0.993E-14 0.862E-02
   -.272E-09 -.286E-09 0.307E-10   -.355E-14 0.866E-14 -.426E-13   -.266E-14 -.888E-15 -.139E-16   0.285E-12 -.351E-13 -.398E-12

 POSITION                                       TOTAL-FORCE (eV/Angst)
      0.00000      0.00000      3.89522        -0.000000      0.000000      0.093893
     -0.00000      0.00000      7.71090        -0.000000     -0.000000     -0.093893
      3.86538      0.00000      0.00000        -0.000000      0.000000      0.000000
      3.86538      0.00000      3.89522        -0.000000     -0.000000      0.093893
      3.86538      0.00000      7.71090        -0.000000     -0.000000     -0.093893
      0.00000      0.00000      0.00000        -0.000000     -0.000000      0.000000
      1.93269     -1.93269      9.67356        -0.000000     -0.000000     -0.000388
      1.93269     -1.93269      1.93255        -0.000000      0.000000      0.000388
      1.93269     -1.93269      5.80306        -0.000000     -0.000000      0.000000
      1.93269      1.93269      9.66434        -0.000000      0.000000     -0.031293
      1.93269      1.93269      5.80306        -0.000000     -0.000000      0.000000
      1.93269      1.93269      1.94178        -0.000000      0.000000      0.031293
      1.93269     -1.93269      7.76665        -0.000000      0.000000     -0.058580
      1.93269     -1.93269      3.83946        -0.000000      0.000000      0.058580
      1.93269     -1.93269      0.03210        -0.000000      0.000000      0.050236
      1.93269      1.93269      7.68943        -0.000000      0.000000     -0.091575
      1.93269      1.93269      3.91668        -0.000000      0.000000      0.091575
      1.93269     -1.93269     11.57401        -0.000000      0.000000     -0.050236
     -1.93269      0.03420      9.67699        -0.000000      0.028641      0.000998
      1.93269      3.84816      5.80306        -0.000000     -0.280468      0.000000
      5.79806      0.03420      1.92912        -0.000000      0.028641     -0.000998
      1.93269     -0.03420      9.67699        -0.000000     -0.028641      0.000998
      1.93269      0.01721      5.80306        -0.000000      0.280468     -0.000000
      1.93269     -0.03420      1.92912        -0.000000     -0.028641     -0.000998
      0.03420     -1.93269      9.67699         0.028641      0.000000      0.000998
      3.84816      1.93269      5.80306        -0.280468      0.000000      0.000000
      3.89958      1.93269      1.92912         0.028641      0.000000     -0.000998
     -0.03420      1.93269      9.67699        -0.028641      0.000000      0.000998
      0.01721      1.93269      5.80306         0.280468      0.000000      0.000000
      3.83117     -1.93269      1.92912        -0.028641      0.000000     -0.000998
    total drift:                               -0.000000     -0.000000      0.000000

  FREE ENERGIE OF THE ION-ELECTRON SYSTEM (eV)
  free  energy   TOTEN  =      -214.14234441 eV

  energy  without entropy=     -214.14234441  energy(sigma->0) =     -214.14234441

 total charge

[...]

 magnetization (x)

# of ion       s       p       d       f       tot
    1        0.001   0.000   0.006   0.002   0.009
    2        0.001   0.000   0.006   0.002   0.009
    3        0.001   0.001   0.009   0.003   0.014
    4        0.001   0.001   0.006   0.002   0.009
    5        0.001   0.001   0.006   0.002   0.009
    6        0.001   0.001   0.009   0.003   0.014
    7        0.025   0.037   3.158   0.000   3.220
    8        0.025   0.037   3.158   0.000   3.220
    9        0.009   0.001   1.560   0.000   1.570
   10        0.003  -0.006   1.664   0.000   1.662
   11        0.016   0.021   1.029   0.000   1.066
   12        0.003  -0.006   1.664   0.000   1.662
   13        0.004  -0.025   0.000   0.000  -0.021
   14        0.004  -0.025   0.000   0.000  -0.021
   15        0.004  -0.018   0.000   0.000  -0.014
   16        0.005  -0.065   0.000   0.000  -0.060
   17        0.005  -0.065   0.000   0.000  -0.060
   18        0.004  -0.018   0.000   0.000  -0.014
   19        0.004  -0.011   0.000   0.000  -0.007
   20        0.005  -0.074   0.000   0.000  -0.069
   21        0.004  -0.012   0.000   0.000  -0.007
   22        0.004  -0.012   0.000   0.000  -0.007
   23        0.005  -0.074   0.000   0.000  -0.069
   24        0.004  -0.011   0.000   0.000  -0.007
   25        0.004  -0.012   0.000   0.000  -0.008
   26        0.005  -0.076   0.000   0.000  -0.071
   27        0.004  -0.012   0.000   0.000  -0.008
   28        0.004  -0.012   0.000   0.000  -0.008
   29        0.005  -0.076   0.000   0.000  -0.071
   30        0.004  -0.012   0.000   0.000  -0.008
tot          0.167  -0.525  12.274   0.015  11.930

 BZINTS: Fermi energy:  7.444523;228.000000 electrons
         Band energy:-288.679184;  BLOECHL correction: -0.001733