 vasp.5.4.4.18Apr17-6-g9f103f2a35 (build Oct 03 2018 13:58:34) complex

 executed on             LinuxIFC date 2019.06.04  00:47:58

 INCAR:
 POTCAR:    PAW_PBE La 06Sep2000
 POTCAR:    PAW_PBE Mn 06Sep2000
 POTCAR:    PAW_PBE Ni 02Aug2007
 POTCAR:    PAW_PBE O 08Apr2002

 POTCAR:    PAW_PBE La 06Sep2000
   VRHFIN =La : [core=Kr4d]

   TITEL  = PAW_PBE La 06Sep2000
   POMASS =  138.900; ZVAL   =   11.000    mass and valenz
   ENMAX  =  219.292; ENMIN  =  164.469 eV

 POTCAR:    PAW_PBE Mn 06Sep2000
   VRHFIN =Mn: d6 s1

   TITEL  = PAW_PBE Mn 06Sep2000
   POMASS =   54.938; ZVAL   =    7.000    mass and valenz
   ENMAX  =  269.864; ENMIN  =  202.398 eV

 POTCAR:    PAW_PBE Ni 02Aug2007
   VRHFIN =Ni:

   TITEL  = PAW_PBE Ni 02Aug2007
   POMASS =   58.690; ZVAL   =   10.000    mass and valenz
   ENMAX  =  269.532; ENMIN  =  202.149 eV

 POTCAR:    PAW_PBE O 08Apr2002
   VRHFIN =O: s2p4

   TITEL  = PAW_PBE O 08Apr2002
   POMASS =   16.000; ZVAL   =    6.000    mass and valenz
   ENMAX  =  400.000; ENMIN  =  300.000 eV

 Optimization of the real space projectors (new method)

 maximal supplied QI-value         = 13.42
 optimisation between [QCUT,QGAM] = [ 11.67, 23.35] = [ 38.16,152.62] Ry
 Optimized for a Real-space Cutoff    1.63 Angstroem

   l    n(q)    QCUT    max X(q) W(low)/X(q) W(high)/X(q)  e(spline)
   0     11    11.673    13.882    0.27E-04    0.79E-05    0.11E-06
   0     11    11.673    12.184    0.39E-04    0.13E-04    0.19E-06
   1     11    11.673     4.523    0.73E-05    0.76E-05    0.12E-06
   1     11    11.673     4.424    0.87E-05    0.13E-04    0.19E-06
   2     10    11.673    52.481    0.65E-04    0.36E-04    0.18E-06
   2     10    11.673    38.501    0.61E-04    0.33E-04    0.17E-06
   3     10    11.673    65.631    0.17E-03    0.14E-03    0.37E-06
   3     10    11.673    56.854    0.17E-03    0.14E-03    0.37E-06
 Optimization of the real space projectors (new method)

[...]

   l    n(q)    QCUT    max X(q) W(low)/X(q) W(high)/X(q)  e(spline)
   2      9    11.539    60.317    0.19E-03    0.47E-04    0.16E-06
   2      9    11.539    55.921    0.19E-03    0.48E-04    0.16E-06
   0     10    11.539    51.690    0.80E-04    0.50E-04    0.24E-06
   0     10    11.539    30.015    0.73E-04    0.45E-04    0.22E-06
   1     10    11.539    18.849    0.87E-04    0.16E-03    0.71E-07
   1     10    11.539    14.624    0.73E-04    0.13E-03    0.64E-07
 Optimization of the real space projectors (new method)

 maximal supplied QI-value         = 24.76
 optimisation between [QCUT,QGAM] = [ 11.64, 23.27] = [ 37.91,151.63] Ry
 Optimized for a Real-space Cutoff    1.14 Angstroem

   l    n(q)    QCUT    max X(q) W(low)/X(q) W(high)/X(q)  e(spline)
   0      8    11.635    20.381    0.10E-03    0.33E-03    0.24E-06
   0      8    11.635    15.268    0.11E-03    0.35E-03    0.26E-06
   1      7    11.635     5.964    0.24E-03    0.31E-03    0.30E-06
   1      7    11.635     5.382    0.22E-03    0.25E-03    0.26E-06
  PAW_PBE La 06Sep2000                  :
  PAW_PBE Mn 06Sep2000                  :
  PAW_PBE Ni 02Aug2007                  :
  PAW_PBE O 08Apr2002                   :

 POSCAR: SCEL6_3_2_1_1_1_0/1
  positions in direct lattice
  velocities in cartesian coordinates
 exchange correlation table for  LEXCH =        8
   RHO(1)=    0.500       N(1)  =     2000
   RHO(2)=  100.500       N(2)  =     4000

 ion  position               nearest neighbor table
   1  0.164  0.173  0.329-  17 2.71  24 2.72  30 2.73  14 2.75  23 2.75  13 2.75  20 2.76  29 2.77
                            27 2.77  19 2.80  16 2.80  26 2.81  12 3.33  11 3.36   7 3.36   9 3.37
   2  0.328  0.339  0.667-  18 2.71  16 2.71  29 2.73  28 2.73  24 2.75  23 2.75  19 2.76  22 2.76
                            15 2.78  13 2.78  26 2.80  25 2.80   8 3.34  10 3.34  12 3.35  11 3.35
   3  0.494  0.503  0.005-  17 2.71  23 2.72  27 2.73  14 2.75  24 2.75  15 2.75  21 2.76  28 2.77
                            30 2.77  22 2.80  18 2.80  25 2.81  11 3.33  12 3.36   9 3.36   7 3.37
   4  0.673  0.664  0.329-  17 2.71  21 2.72  30 2.73  14 2.75  20 2.75  13 2.75  23 2.76  29 2.77
                            27 2.77  22 2.80  16 2.80  26 2.81  12 3.33  11 3.36   7 3.36   9 3.37
   5  0.839  0.828  0.667-  18 2.71  16 2.71  29 2.73  28 2.73  21 2.75  20 2.75  19 2.76  22 2.76
                            15 2.78  13 2.78  26 2.80  25 2.80   8 3.34  10 3.34  12 3.35  11 3.35
   6  0.003  0.994  0.005-  17 2.71  20 2.72  27 2.73  14 2.75  21 2.75  15 2.75  24 2.76  28 2.77
                            30 2.77  19 2.80  18 2.80  25 2.81  11 3.33  12 3.36   9 3.36   7 3.37
   7  0.667  0.167  0.334-  30 1.90  23 1.91  20 1.91  26 1.94  14 1.96  13 1.99   1 3.36   4 3.36
                             3 3.37   6 3.37   4 3.40   1 3.40   5 3.40   2 3.40
   8  0.834  0.334  0.668-  29 1.90  18 1.93  25 1.94  13 1.94  19 1.95  22 1.95   2 3.34   5 3.34
                             4 3.40   1 3.40   5 3.41   2 3.41   3 3.42   6 3.42
   9  0.500  1.000  1.000-  27 1.90  24 1.91  21 1.91  25 1.94  14 1.96  15 1.99   3 3.36   6 3.36
                             4 3.37   1 3.37   6 3.40   3 3.40   5 3.40   2 3.40
  10  0.333  0.833  0.665-  28 1.90  16 1.93  26 1.94  15 1.94  19 1.95  22 1.95   2 3.34   5 3.34
                             3 3.40   6 3.40   5 3.41   2 3.41   1 3.42   4 3.42
  11  0.167  0.667  0.334-  17 1.96  16 1.97  27 1.98  29 1.98  20 2.00  23 2.00   3 3.33   6 3.33
                             5 3.35   2 3.35   1 3.36   4 3.36
  12  1.000  0.500  1.000-  17 1.96  18 1.97  30 1.98  28 1.98  21 2.00  24 2.00   1 3.33   4 3.33
                             2 3.35   5 3.35   3 3.36   6 3.36
  13  0.751  0.251  0.503-   8 1.94   7 1.99   1 2.75   4 2.75   2 2.78   5 2.78
  14  0.583  0.083  0.167-   9 1.96   7 1.96   1 2.75   4 2.75   3 2.75   6 2.75
  15  0.416  0.916  0.830-  10 1.94   9 1.99   3 2.75   6 2.75   5 2.78   2 2.78
  16  0.250  0.750  0.502-  10 1.93  11 1.97   2 2.71   5 2.71   4 2.80   1 2.80
  17  0.083  0.583  0.167-  11 1.96  12 1.96   1 2.71   4 2.71   3 2.71   6 2.71
  18  0.917  0.417  0.831-   8 1.93  12 1.97   2 2.71   5 2.71   3 2.80   6 2.80
  19  0.083  0.083  0.667-   8 1.95  10 1.95   2 2.76   5 2.76   6 2.80   1 2.80
  20  0.911  0.922  0.334-   7 1.91  11 2.00   6 2.72   5 2.75   4 2.75   1 2.76
  21  0.744  0.756  0.999-   9 1.91  12 2.00   4 2.72   5 2.75   6 2.75   3 2.76
  22  0.583  0.583  0.667-   8 1.95  10 1.95   2 2.76   5 2.76   3 2.80   4 2.80
  23  0.422  0.411  0.334-   7 1.91  11 2.00   3 2.72   2 2.75   1 2.75   4 2.76
  24  0.256  0.244  0.999-   9 1.91  12 2.00   1 2.72   2 2.75   3 2.75   6 2.76
  25  0.667  0.167  0.833-   8 1.94   9 1.94   2 2.80   5 2.80   3 2.81   6 2.81
  26  0.500  1.000  0.500-  10 1.94   7 1.94   2 2.80   5 2.80   4 2.81   1 2.81
  27  0.337  0.837  0.163-   9 1.90  11 1.98   3 2.73   6 2.73   4 2.77   1 2.77
  28  0.170  0.670  0.829-  10 1.90  12 1.98   2 2.73   5 2.73   3 2.77   6 2.77
  29  0.997  0.497  0.504-   8 1.90  11 1.98   2 2.73   5 2.73   4 2.77   1 2.77
  30  0.830  0.330  0.170-   7 1.90  12 1.98   1 2.73   4 2.73   3 2.77   6 2.77

  LATTYP: Found a base centered monoclinic cell.
 ALAT       =    11.0226067722
 B/A-ratio  =     0.7086207284
 C/A-ratio  =     2.3792606783
 COS(beta)  =    -0.7743347103

  Lattice vectors:

 A1 = (   3.8762059565,   3.9054238199,   3.9178428243)
 A2 = (   3.8762059565,  -3.9054238199,   3.9178428243)
 A3 = ( -11.6295441713,   0.0000000000, -23.5061412298)

Analysis of symmetry for initial positions (statically):
 Subroutine PRICEL returns:
 Original cell was already a primitive cell.

 Routine SETGRP: Setting up the symmetry group for a
 base centered monoclinic supercell.

 Subroutine GETGRP returns: Found  4 space group operations
 (whereof  1 operations were pure point group operations)
 out of a pool of  4 trial point group operations.

The static configuration has the point symmetry C_1 .
 The point group associated with its full space group is C_2h.

Analysis of symmetry for dynamics (positions and initial velocities):
 Subroutine PRICEL returns:
 Original cell was already a primitive cell.

[...]

The dynamic configuration has the point symmetry C_1 .
 The point group associated with its full space group is C_2h.

Analysis of structural, dynamic, and magnetic symmetry:
 Subroutine PRICEL returns:
 Original cell was already a primitive cell.

 Routine SETGRP: Setting up the symmetry group for a
 base centered monoclinic supercell.

 Subroutine GETGRP returns: Found  4 space group operations
 (whereof  1 operations were pure point group operations)
 out of a pool of  4 trial point group operations.

The magnetic configuration has the point symmetry C_1 .
 The point group associated with its full space group is C_2h.

 Subroutine INISYM returns: Found  4 space group operations
 (whereof  1 operations are pure point group operations),
 and found     1 'primitive' translations

 KPOINTS: Automatic mesh

Automatic generation of k-mesh.
 generate k-points for:    3    3    2
Space group operators:
 irot       det(A)        alpha          n_x          n_y          n_z        tau_x        tau_y        tau_z
    1     1.000000     0.000000     1.000000     0.000000     0.000000     0.000000     0.000000     0.000000
    2    -1.000000     0.000000     1.000000     0.000000     0.000000    -0.833333    -0.833333    -0.666667
    3     1.000000   180.000000     0.000000     1.000000     0.000000    -1.333333    -1.333333    -0.666667
    4    -1.000000   180.000000     0.000000     1.000000     0.000000     0.500000     0.500000     0.000000

 Subroutine IBZKPT returns following result:

 Found      8 irreducible k-points:

 Following reciprocal coordinates:
            Coordinates               Weight
  0.000000  0.000000  0.000000      1.000000
  0.333333 -0.000000  0.000000      4.000000
  0.333333  0.333333 -0.000000      2.000000
 -0.333333  0.333333  0.000000      2.000000
  0.000000  0.000000  0.500000      1.000000
  0.333333 -0.000000  0.500000      4.000000
  0.333333  0.333333  0.500000      2.000000
 -0.333333  0.333333  0.500000      2.000000

 Following cartesian coordinates:
            Coordinates               Weight
  0.000000  0.000000  0.000000      1.000000
  0.028666 -0.042676  0.014179      4.000000
  0.057332  0.000000  0.028358      2.000000
  0.000000  0.085351  0.000000      2.000000
 -0.043004  0.000000  0.042547      1.000000
 -0.014338 -0.042676  0.056726      4.000000
  0.014328  0.000000  0.070905      2.000000
 -0.043004  0.085351  0.042547      2.000000

 TETIRR: Found     25 inequivalent tetrahedra from      108

 SYSTEM =  final
 POSCAR =  SCEL6_3_2_1_1_1_0/1

 Startparameter for this run:
   NWRITE =      2    write-flag & timer
   PREC   = accura    normal or accurate (medium, high low for compatibility)
   ISTART =      0    job   : 0-new  1-cont  2-samecut
   ICHARG =      1    charge: 1-file 2-atom 10-const
   ISPIN  =      2    spin polarized calculation?
   LNONCOLLINEAR =      F non collinear calculations
   LSORBIT =      F    spin-orbit coupling
   INIWAV =      1    electr: 0-lowe 1-rand  2-diag
   LASPH  =      F    aspherical Exc in radial PAW
[...]
     30      -7.5943      1.00000
     31      -7.5873      1.00000
     32      -7.5069      1.00000
     33      -7.4121      1.00000
     34      -7.4053      1.00000
     35      -7.3826      1.00000
     36      -7.3719      1.00000
     37      -7.3464      1.00000
     38      -7.3278      1.00000
     39      -7.2954      1.00000
     40      -7.2295      1.00000
     41      -7.1885      1.00000
     42      -7.1457      1.00000
     43       0.2524      1.00000
     44       0.3098      1.00000
     45       0.3856      1.00000
     46       0.6437      1.00000
     47       0.9516      1.00000
     48       1.0142      1.00000
     49       1.1286      1.00000
     50       1.2097      1.00000
     51       1.2196      1.00000
     52       1.2560      1.00000
     53       1.2690      1.00000
     54       1.4488      1.00000
     55       1.4686      1.00000
     56       1.5805      1.00000
     57       1.5954      1.00000
     58       1.8082      1.00000
     59       1.8335      1.00000
     60       1.9277      1.00000
[...]
    130      10.5931      0.00000
    131      10.6034      0.00000
    132      10.6157      0.00000
    133      10.6170      0.00000
    134      10.6944      0.00000
    135      10.7091      0.00000
    136      10.7221      0.00000
    137      10.7475      0.00000
    138      10.7581      0.00000
    139      10.7712      0.00000
    140      10.7902      0.00000
    141      10.8034      0.00000
    142      10.8082      0.00000
    143      10.8252      0.00000
    144      10.8734      0.00000

[...]

 spin component 2

[...]

 k-point     8 :      -0.3333    0.3333    0.5000
  band No.  band energies     occupation
      1     -24.1707      1.00000
      2     -24.1623      1.00000
      3     -24.1614      1.00000
      4     -24.1605      1.00000
      5     -24.1501      1.00000
      6     -24.0868      1.00000
      7     -11.2676      1.00000
      8     -11.1282      1.00000
      9     -11.1163      1.00000
     10     -11.0094      1.00000
     11     -10.9355      1.00000
     12     -10.1735      1.00000
     13     -10.0909      1.00000
     14     -10.0683      1.00000
     15     -10.0504      1.00000
     16     -10.0307      1.00000
     17      -9.9978      1.00000
     18      -9.9122      1.00000
     19      -9.8873      1.00000
     20      -9.7634      1.00000
     21      -9.6942      1.00000
     22      -9.6875      1.00000
     23      -9.6367      1.00000
     24      -9.3950      1.00000
     25      -8.0420      1.00000
     26      -7.9357      1.00000
     27      -7.9270      1.00000
     28      -7.7369      1.00000
     29      -7.7185      1.00000
     30      -7.7135      1.00000
     31      -7.6979      1.00000
     32      -7.6069      1.00000
     33      -7.5291      1.00000
     34      -7.4691      1.00000
     35      -7.4443      1.00000
     36      -7.4316      1.00000
     37      -7.3971      1.00000
     38      -7.1717      1.00000
     39      -7.1591      1.00000
     40      -7.1180      1.00000
     41      -7.1057      1.00000
     42      -6.9467      1.00000
     43       1.1472      1.00000
     44       2.0570      1.00000
     45       2.0892      1.00000
     46       2.1071      1.00000
     47       2.1121      1.00000
     48       2.2722      1.00000
     49       2.6678      1.00000
     50       2.7313      1.00000
     51       2.8256      1.00000
     52       2.8766      1.00000
     53       2.8926      1.00000
     54       3.0179      1.00000
     55       3.0734      1.00000
     56       3.0915      1.00000
     57       3.0984      1.00000
     58       3.1571      1.00000
     59       3.1742      1.00000
     60       3.2145      1.00000
[...]
    130      10.7785      0.00000
    131      10.7851      0.00000
    132      10.7954      0.00000
    133      10.8093      0.00000
    134      10.8231      0.00000
    135      10.8354      0.00000
    136      10.8582      0.00000
    137      10.8936      0.00000
    138      10.9087      0.00000
    139      10.9313      0.00000
    140      10.9441      0.00000
    141      10.9679      0.00000
    142      10.9751      0.00000
    143      11.0201      0.00000
    144      11.0387      0.00000

 soft charge-density along one line, spin component           1
         0         1         2         3         4         5         6         7         8         9
 total charge-density along one line

 soft charge-density along one line, spin component           2
         0         1         2         3         4         5         6         7         8         9
 total charge-density along one line

------------------------ aborting loop because EDIFF is reached ----------------------------------------

 total charge

# of ion       s       p       d       f       tot
    1        1.999   5.696   0.483   0.187   8.364
    2        1.999   5.698   0.484   0.188   8.368
    3        1.998   5.697   0.480   0.187   8.362
    4        1.998   5.697   0.480   0.187   8.362
    5        1.999   5.698   0.484   0.188   8.368
    6        1.999   5.696   0.483   0.187   8.365
    7        0.337   0.522   4.874   0.000   5.733
    8        0.334   0.518   4.877   0.000   5.729
    9        0.337   0.522   4.874   0.000   5.733
   10        0.334   0.518   4.876   0.000   5.728
   11        0.386   0.550   8.317   0.000   9.253
   12        0.386   0.550   8.317   0.000   9.253
   13        1.564   3.457   0.000   0.000   5.021
   14        1.568   3.449   0.000   0.000   5.017
   15        1.564   3.457   0.000   0.000   5.021
   16        1.559   3.456   0.000   0.000   5.015
   17        1.554   3.454   0.000   0.000   5.008
   18        1.559   3.456   0.000   0.000   5.015
   19        1.566   3.454   0.000   0.000   5.020
   20        1.560   3.456   0.000   0.000   5.016
   21        1.560   3.457   0.000   0.000   5.017
   22        1.566   3.460   0.000   0.000   5.026
   23        1.560   3.457   0.000   0.000   5.017
   24        1.560   3.456   0.000   0.000   5.016
   25        1.560   3.468   0.000   0.000   5.029
   26        1.560   3.468   0.000   0.000   5.029
   27        1.561   3.458   0.000   0.000   5.019
   28        1.561   3.458   0.000   0.000   5.019
   29        1.561   3.458   0.000   0.000   5.019
   30        1.561   3.458   0.000   0.000   5.019
tot         42.211  99.598  39.030   1.123 181.962

 magnetization (x)

[...]

  FORCE on cell =-STRESS in cart. coord.  units (eV):
  Direction    XX          YY          ZZ          XY          YZ          ZX
  Alpha Z   975.02623   975.02623   975.02623
  Ewald   -4986.09216 -5043.42090 -5035.24316     0.00000     0.00000    -4.74035
  Hartree  1089.24218  1064.60736  1086.58873     0.00000    -0.00000    -3.63429
  E(xc)   -1025.68900 -1025.87596 -1025.74843    -0.00000     0.00000    -0.00841
  Local    -627.59947  -553.75096  -588.94887     0.00000    -0.00000     8.71840
  n-local   404.35488   403.12082   402.44281     0.57501     0.46130     0.08298
  augment   342.03805   344.56351   346.73932     0.00000     0.00000    -0.02933
  Kinetic  3828.25004  3835.48219  3839.11894    -1.11872    -0.64692    -0.38051
  Fock        0.00000     0.00000     0.00000     0.00000     0.00000     0.00000
  Total      -0.46926    -0.24770    -0.02444     0.00000     0.00000     0.00849
  in kB      -2.11308    -1.11541    -0.11006     0.00000     0.00000     0.03822

 VOLUME and BASIS-vectors are now :
  energy-cutoff  :      520.00
  volume of cell :      355.80
      direct lattice vectors                 reciprocal lattice vectors
     3.876205957 -3.905423820  3.917842824     0.085998243 -0.128027078  0.042536953
     3.876205957  3.905423820  3.917842824     0.085998243  0.128027078  0.042536953
    -3.875279655  0.000000000  7.834769932    -0.086008295  0.000000000  0.085094242

  length of vectors
     6.754761300  6.754761300  8.740790141     0.159987571  0.159987571  0.120989490

 FORCES acting on ions
    electron-ion (+dipol)            ewald-force                    non-local-force                 convergence-correction
   0.312E+02 0.294E+02 -.275E+02   -.308E+02 -.290E+02 0.273E+02   -.293E+00 -.327E+00 0.216E+00   -.189E-01 -.444E-02 0.189E-01
   0.646E-03 0.504E+02 0.481E-04   0.168E-03 -.499E+02 -.152E-03   -.585E-17 -.456E+00 -.434E-18   -.124E-04 -.134E-01 0.549E-05
   -.312E+02 0.294E+02 0.275E+02   0.308E+02 -.290E+02 -.273E+02   0.293E+00 -.327E+00 -.216E+00   0.189E-01 -.444E-02 -.189E-01
   0.312E+02 -.294E+02 -.275E+02   -.308E+02 0.290E+02 0.273E+02   -.293E+00 0.327E+00 0.216E+00   -.189E-01 0.444E-02 0.189E-01
   0.646E-03 -.504E+02 0.481E-04   0.168E-03 0.499E+02 -.152E-03   0.369E-17 0.456E+00 0.000E+00   -.124E-04 0.134E-01 0.549E-05
   -.312E+02 -.294E+02 0.275E+02   0.308E+02 0.290E+02 -.273E+02   0.293E+00 0.327E+00 -.216E+00   0.189E-01 0.444E-02 -.189E-01
   0.258E+02 0.882E-12 -.983E+01   -.254E+02 -.699E-13 0.975E+01   -.487E+00 0.000E+00 0.972E-01   -.145E-01 -.904E-13 0.103E-01
   0.238E+02 -.120E-12 0.814E+01   -.234E+02 0.296E-13 -.779E+01   -.401E+00 0.000E+00 -.381E+00   -.640E-02 -.101E-12 -.684E-02
   -.258E+02 0.139E-11 0.983E+01   0.254E+02 0.296E-13 -.975E+01   0.487E+00 0.000E+00 -.972E-01   0.145E-01 0.117E-12 -.103E-01
   -.238E+02 0.143E-11 -.814E+01   0.234E+02 0.484E-13 0.779E+01   0.401E+00 0.000E+00 0.381E+00   0.640E-02 0.105E-12 0.684E-02
   0.293E+01 0.559E-12 -.261E+02   -.282E+01 -.343E-14 0.252E+02   -.936E-01 0.000E+00 0.907E+00   -.106E-01 0.187E-12 0.142E-01
   -.293E+01 -.810E-11 0.261E+02   0.282E+01 0.322E-13 -.252E+02   0.936E-01 0.000E+00 -.907E+00   0.106E-01 -.268E-12 -.142E-01
   0.195E+02 -.133E-11 0.750E+00   -.198E+02 0.324E-14 -.232E+01   0.382E+00 0.000E+00 0.157E+01   -.106E-01 -.823E-13 0.136E-01
   0.670E-03 0.142E-11 -.520E-04   -.420E-05 -.867E-13 -.592E-05   0.000E+00 -.271E-19 0.000E+00   0.286E-05 -.112E-13 -.206E-05
   -.195E+02 0.998E-12 -.750E+00   0.198E+02 0.157E-13 0.232E+01   -.382E+00 0.000E+00 -.157E+01   0.106E-01 0.119E-12 -.136E-01
   -.132E+02 0.242E-12 -.512E+02   0.140E+02 -.300E-14 0.474E+02   -.928E+00 0.000E+00 0.375E+01   -.185E-02 0.125E-12 0.195E-01
   0.710E-03 0.121E-12 -.932E-05   -.298E-04 0.340E-14 -.769E-05   -.542E-19 0.000E+00 -.108E-18   0.207E-05 0.641E-13 -.314E-05
   0.132E+02 -.623E-11 0.512E+02   -.140E+02 -.793E-14 -.474E+02   0.928E+00 0.000E+00 -.375E+01   0.185E-02 -.169E-12 -.195E-01
   0.622E-03 -.233E-04 -.341E-04   0.988E-04 0.629E-05 -.784E-04   -.542E-19 -.108E-18 0.000E+00   -.317E-05 0.581E-06 0.350E-05
   0.107E+02 -.419E+02 -.110E+02   -.109E+02 0.368E+02 0.112E+02   0.241E+00 0.518E+01 -.212E+00   -.831E-02 0.248E-02 0.722E-02
   -.107E+02 -.419E+02 0.110E+02   0.109E+02 0.368E+02 -.112E+02   -.241E+00 0.518E+01 0.212E+00   0.831E-02 0.247E-02 -.722E-02
   0.622E-03 0.233E-04 -.341E-04   0.988E-04 -.629E-05 -.784E-04   0.000E+00 -.108E-18 0.000E+00   -.317E-05 -.581E-06 0.350E-05
   0.107E+02 0.419E+02 -.110E+02   -.109E+02 -.368E+02 0.112E+02   0.241E+00 -.518E+01 -.212E+00   -.831E-02 -.248E-02 0.722E-02
   -.107E+02 0.419E+02 0.110E+02   0.109E+02 -.368E+02 -.112E+02   -.241E+00 -.518E+01 0.212E+00   0.831E-02 -.247E-02 -.722E-02
   -.577E+01 0.543E-12 0.736E+01   0.566E+01 -.157E-13 -.733E+01   0.105E+00 0.000E+00 -.605E-02   0.142E-01 0.237E-14 -.899E-02
   0.577E+01 -.985E-12 -.736E+01   -.566E+01 -.246E-13 0.733E+01   -.105E+00 0.000E+00 0.605E-02   -.142E-01 0.175E-13 0.900E-02
   -.407E+02 -.119E-11 -.105E+02   0.354E+02 0.503E-13 0.111E+02   0.523E+01 0.000E+00 -.614E+00   0.377E-02 0.167E-12 0.543E-03
   -.464E+02 -.529E-12 -.799E+00   0.411E+02 0.332E-13 0.131E+01   0.526E+01 0.000E+00 -.520E+00   0.181E-01 0.488E-13 -.404E-02
   0.464E+02 -.222E-11 0.799E+00   -.411E+02 0.282E-13 -.131E+01   -.526E+01 0.000E+00 0.520E+00   -.181E-01 -.904E-13 0.404E-02
   0.407E+02 -.241E-11 0.105E+02   -.354E+02 0.365E-13 -.111E+02   -.523E+01 0.000E+00 0.614E+00   -.376E-02 -.144E-12 -.549E-03
   0.514E-02 -.198E-10 0.908E-04   -.284E-13 -.413E-13 0.568E-13   0.888E-15 0.888E-15 -.222E-15   -.484E-05 -.589E-13 0.100E-05

 POSITION                                       TOTAL-FORCE (eV/Angst)
      0.03191      0.03289      3.89288         0.036611      0.059077     -0.009679
      0.00062      0.04500      7.83508         0.000000      0.072470      0.000000
      3.84460      0.03289      3.94250        -0.036611      0.059077      0.009679
      3.90812     -0.03289      7.81072         0.036611     -0.059077     -0.009679
      3.87682     -0.04500     11.75292         0.000000     -0.072470     -0.000000
      3.84460      3.87253      3.94250        -0.036611     -0.059077      0.009679
      1.93925     -1.95271      5.88245        -0.087082      0.000000      0.023307
      1.93955     -1.95271      9.80913        -0.080682      0.000000     -0.038093
      1.93819      1.95271     13.70555         0.087082      0.000000     -0.023307
      1.93790      1.95271      9.77886         0.080682      0.000000      0.038093
      1.93774      1.95271      5.87937         0.004669      0.000000      0.036850
      1.93970     -1.95271     13.70862        -0.004669      0.000000     -0.036850
      1.93439     -1.95271      7.87041         0.042194      0.000000      0.017500
      1.93826     -1.95271      3.91769         0.000000      0.000000      0.000000
      1.94305      1.95271     11.71758        -0.042194      0.000000     -0.017500
      1.93120      1.95271      7.85112        -0.043346      0.000000     -0.021549
      1.93826      1.95271      3.91769         0.000000      0.000000      0.000000
      1.94624     -1.95271     11.73687         0.043346      0.000000      0.021549
     -1.93749      0.00000      5.87615         0.000000      0.000000      0.000000
      5.81078      0.04557      9.79953         0.010739     -0.007517     -0.011790
      1.94286      0.04557     13.70631        -0.010739     -0.007517      0.011790
      1.93872      0.00000      9.79400         0.000000      0.000000      0.000000
      1.93458     -0.04557      5.88169         0.010739      0.007517     -0.011790
     -1.93334     -0.04557      9.78846        -0.010739      0.007517      0.011790
      0.00294     -1.95271      9.79033         0.009811      0.000000      0.016163
      3.87450      1.95271      9.79766        -0.009811      0.000000     -0.016163
      3.91461      1.95271      5.87586        -0.003845      0.000000     -0.060848
      0.04130      1.95271      9.78705         0.008748      0.000000     -0.014778
      3.83614     -1.95271      9.80094        -0.008748      0.000000      0.014778
      3.83811     -1.95271      5.87736         0.003845      0.000000      0.060848
    total drift:                                0.005136     -0.000000      0.000092

  FREE ENERGIE OF THE ION-ELECTRON SYSTEM (eV)
  free  energy   TOTEN  =      -226.70937815 eV

  energy  without entropy=     -226.70937815  energy(sigma->0) =     -226.70937815

 total charge

[...]

 magnetization (x)

# of ion       s       p       d       f       tot
    1        0.000   0.001   0.007   0.005   0.013
    2        0.001   0.001   0.010   0.005   0.017
    3        0.001   0.001   0.010   0.004   0.015
    4        0.001   0.001   0.010   0.004   0.015
    5        0.001   0.001   0.010   0.005   0.017
    6        0.000   0.001   0.007   0.005   0.013
    7        0.026   0.031   3.515   0.000   3.572
    8        0.025   0.031   3.557   0.000   3.612
    9        0.026   0.031   3.515   0.000   3.572
   10        0.025   0.031   3.556   0.000   3.612
   11        0.008  -0.002   1.698   0.000   1.704
   12        0.008  -0.002   1.698   0.000   1.704
   13        0.006  -0.030   0.000   0.000  -0.024
   14        0.008  -0.057   0.000   0.000  -0.048
   15        0.006  -0.030   0.000   0.000  -0.025
   16        0.005  -0.002   0.000   0.000   0.003
   17        0.006   0.031   0.000   0.000   0.037
   18        0.005  -0.002   0.000   0.000   0.003
   19        0.008  -0.035   0.000   0.000  -0.027
   20        0.005  -0.009   0.000   0.000  -0.004
   21        0.005  -0.006   0.000   0.000  -0.001
   22        0.007  -0.026   0.000   0.000  -0.019
   23        0.005  -0.006   0.000   0.000  -0.001
   24        0.005  -0.009   0.000   0.000  -0.004
   25        0.002  -0.015   0.000   0.000  -0.013
   26        0.002  -0.015   0.000   0.000  -0.013
   27        0.005  -0.020   0.000   0.000  -0.015
   28        0.005  -0.027   0.000   0.000  -0.023
   29        0.005  -0.027   0.000   0.000  -0.023
   30        0.005  -0.020   0.000   0.000  -0.015
tot          0.213  -0.181  17.593   0.028  17.653

 BZINTS: Fermi energy:  8.046892;222.000000 electrons
         Band energy:-372.035757;  BLOECHL correction: -0.014446