 vasp.5.4.4.18Apr17-6-g9f103f2a35 (build Oct 03 2018 13:58:34) complex

 executed on             LinuxIFC date 2019.06.04  01:18:58

 INCAR:
 POTCAR:    PAW_PBE La 06Sep2000
 POTCAR:    PAW_PBE Mn 06Sep2000
 POTCAR:    PAW_PBE Ni 02Aug2007
 POTCAR:    PAW_PBE O 08Apr2002

 POTCAR:    PAW_PBE La 06Sep2000
   VRHFIN =La : [core=Kr4d]

   TITEL  = PAW_PBE La 06Sep2000
   POMASS =  138.900; ZVAL   =   11.000    mass and valenz
   ENMAX  =  219.292; ENMIN  =  164.469 eV

 POTCAR:    PAW_PBE Mn 06Sep2000
   VRHFIN =Mn: d6 s1

   TITEL  = PAW_PBE Mn 06Sep2000
   POMASS =   54.938; ZVAL   =    7.000    mass and valenz
   ENMAX  =  269.864; ENMIN  =  202.398 eV

 POTCAR:    PAW_PBE Ni 02Aug2007
   VRHFIN =Ni:

   TITEL  = PAW_PBE Ni 02Aug2007
   POMASS =   58.690; ZVAL   =   10.000    mass and valenz
   ENMAX  =  269.532; ENMIN  =  202.149 eV

 POTCAR:    PAW_PBE O 08Apr2002
   VRHFIN =O: s2p4

   TITEL  = PAW_PBE O 08Apr2002
   POMASS =   16.000; ZVAL   =    6.000    mass and valenz
   ENMAX  =  400.000; ENMIN  =  300.000 eV

 Optimization of the real space projectors (new method)

 maximal supplied QI-value         = 13.42
 optimisation between [QCUT,QGAM] = [ 11.67, 23.35] = [ 38.16,152.62] Ry
 Optimized for a Real-space Cutoff    1.63 Angstroem

   l    n(q)    QCUT    max X(q) W(low)/X(q) W(high)/X(q)  e(spline)
   0     11    11.673    13.882    0.27E-04    0.79E-05    0.11E-06
   0     11    11.673    12.184    0.39E-04    0.13E-04    0.19E-06
   1     11    11.673     4.523    0.73E-05    0.76E-05    0.12E-06
   1     11    11.673     4.424    0.87E-05    0.13E-04    0.19E-06
   2     10    11.673    52.481    0.65E-04    0.36E-04    0.18E-06
   2     10    11.673    38.501    0.61E-04    0.33E-04    0.17E-06
   3     10    11.673    65.631    0.17E-03    0.14E-03    0.37E-06
   3     10    11.673    56.854    0.17E-03    0.14E-03    0.37E-06
 Optimization of the real space projectors (new method)

[...]

   l    n(q)    QCUT    max X(q) W(low)/X(q) W(high)/X(q)  e(spline)
   2      9    11.539    60.317    0.19E-03    0.47E-04    0.16E-06
   2      9    11.539    55.921    0.19E-03    0.48E-04    0.16E-06
   0     10    11.539    51.690    0.80E-04    0.50E-04    0.24E-06
   0     10    11.539    30.015    0.73E-04    0.45E-04    0.22E-06
   1     10    11.539    18.849    0.87E-04    0.16E-03    0.71E-07
   1     10    11.539    14.624    0.73E-04    0.13E-03    0.64E-07
 Optimization of the real space projectors (new method)

 maximal supplied QI-value         = 24.76
 optimisation between [QCUT,QGAM] = [ 11.64, 23.27] = [ 37.91,151.63] Ry
 Optimized for a Real-space Cutoff    1.14 Angstroem

   l    n(q)    QCUT    max X(q) W(low)/X(q) W(high)/X(q)  e(spline)
   0      8    11.635    20.381    0.10E-03    0.33E-03    0.24E-06
   0      8    11.635    15.268    0.11E-03    0.35E-03    0.26E-06
   1      7    11.635     5.964    0.24E-03    0.31E-03    0.30E-06
   1      7    11.635     5.382    0.22E-03    0.25E-03    0.26E-06
  PAW_PBE La 06Sep2000                  :
  PAW_PBE Mn 06Sep2000                  :
  PAW_PBE Ni 02Aug2007                  :
  PAW_PBE O 08Apr2002                   :

 POSCAR: SCEL5_5_1_1_0_3_1/3
  positions in direct lattice
  velocities in cartesian coordinates
 exchange correlation table for  LEXCH =        8
   RHO(1)=    0.500       N(1)  =     2000
   RHO(2)=  100.500       N(2)  =     4000

 ion  position               nearest neighbor table
   1  0.803  0.203  0.605-  25 2.70  18 2.70  12 2.70  20 2.73  22 2.73  14 2.74  14 2.74  24 2.74
                            17 2.74  11 2.77  19 2.78  21 2.78   8 3.33  10 3.33  10 3.33   6 3.34
   2  0.597  0.397  0.195-  18 2.70  25 2.70  15 2.70  16 2.73  23 2.73  13 2.74  13 2.74  19 2.74
                            21 2.74  11 2.77  24 2.78  17 2.78  10 3.33   8 3.33   8 3.33   7 3.34
   3  0.400  0.590  0.799-  14 2.68  18 2.69  25 2.69  17 2.73  24 2.73  12 2.74  12 2.74  23 2.75
                            16 2.75  22 2.79  20 2.79  15 2.80  10 3.30   9 3.33   8 3.34   8 3.34
   4  0.200  0.800  0.400-  17 2.73  24 2.73  19 2.73  21 2.73  23 2.74  16 2.74  20 2.74  22 2.74
                            11 2.74  11 2.74  13 2.74  14 2.74   8 3.34  10 3.34   9 3.36   9 3.36
   5  0.000  0.010  0.001-  13 2.68  18 2.69  25 2.69  19 2.73  21 2.73  15 2.74  15 2.74  22 2.75
                            20 2.75  23 2.79  16 2.79  12 2.80   8 3.30   9 3.33  10 3.34  10 3.34
   6  0.801  0.700  0.601-  12 1.88  24 1.90  17 1.90  22 1.90  20 1.90  11 1.95   1 3.34   4 3.36
                             4 3.36   3 3.36   3 3.36   5 3.37   1 3.37   2 3.41
   7  0.599  0.900  0.199-  15 1.88  19 1.90  21 1.90  23 1.90  16 1.90  11 1.95   2 3.34   4 3.36
                             4 3.36   5 3.36   5 3.36   3 3.37   2 3.37   1 3.41
   8  0.001  0.501  0.002-  25 1.95  18 1.95  13 1.95  23 1.96  16 1.96  12 1.98   5 3.30   1 3.33
                             2 3.33   2 3.33   3 3.34   3 3.34   4 3.34
   9  0.200  0.300  0.400-  13 1.91  14 1.91  19 1.98  21 1.98  17 1.98  24 1.98   5 3.33   3 3.33
                             4 3.36   4 3.36   2 3.37   1 3.37   2 3.37   1 3.37
  10  0.399  0.099  0.798-  18 1.95  25 1.95  14 1.95  22 1.96  20 1.96  15 1.98   3 3.30   2 3.33
                             1 3.33   1 3.33   5 3.34   5 3.34   4 3.34
  11  0.700  0.800  0.400-   7 1.95   6 1.95   4 2.74   4 2.74   2 2.77   1 2.77
  12  0.898  0.601  0.796-   6 1.88   8 1.98   1 2.70   3 2.74   3 2.74   5 2.80
  13  0.101  0.399  0.202-   9 1.91   8 1.95   5 2.68   2 2.74   2 2.74   4 2.74
  14  0.299  0.201  0.598-   9 1.91  10 1.95   3 2.68   1 2.74   1 2.74   4 2.74
  15  0.502  0.999  0.004-   7 1.88  10 1.98   2 2.70   5 2.74   5 2.74   3 2.80
  16  0.796  0.703  0.102-   7 1.90   8 1.96   2 2.73   4 2.74   3 2.75   5 2.79
  17  0.997  0.505  0.502-   6 1.90   9 1.98   3 2.73   4 2.73   1 2.74   2 2.78
  18  0.200  0.300  0.900-  10 1.95   8 1.95   5 2.69   3 2.69   1 2.70   2 2.70
  19  0.403  0.095  0.298-   7 1.90   9 1.98   5 2.73   4 2.73   2 2.74   1 2.78
  20  0.604  0.897  0.698-   6 1.90  10 1.96   1 2.73   4 2.74   5 2.75   3 2.79
  21  0.894  0.095  0.298-   7 1.90   9 1.98   5 2.73   4 2.73   2 2.74   1 2.78
  22  0.094  0.897  0.698-   6 1.90  10 1.96   1 2.73   4 2.74   5 2.75   3 2.79
  23  0.306  0.703  0.102-   7 1.90   8 1.96   2 2.73   4 2.74   3 2.75   5 2.79
  24  0.506  0.505  0.502-   6 1.90   9 1.98   3 2.73   4 2.73   1 2.74   2 2.78
  25  0.700  0.300  0.900-  10 1.95   8 1.95   5 2.69   3 2.69   1 2.70   2 2.70

  LATTYP: Found a base centered monoclinic cell.
 ALAT       =    16.4175536974
 B/A-ratio  =     0.3332553655
 C/A-ratio  =     0.9723103668
 COS(beta)  =    -0.8675059739

  Lattice vectors:

 A1 = (  -3.8706021854,   0.0018527947,  -7.7386086324)
 A2 = (  -0.0018527947,   3.8706021854,  -7.7386086324)
 A3 = (   7.7503243027,  -7.7503243027,  11.6052127755)

Analysis of symmetry for initial positions (statically):
 Subroutine PRICEL returns:
 Original cell was already a primitive cell.

 Routine SETGRP: Setting up the symmetry group for a
 base centered monoclinic supercell.

 Subroutine GETGRP returns: Found  4 space group operations
 (whereof  2 operations were pure point group operations)
 out of a pool of  4 trial point group operations.

The static configuration has the point symmetry C_1h.
 The point group associated with its full space group is C_2h.

Analysis of symmetry for dynamics (positions and initial velocities):
 Subroutine PRICEL returns:
 Original cell was already a primitive cell.

[...]

The dynamic configuration has the point symmetry C_1h.
 The point group associated with its full space group is C_2h.

Analysis of structural, dynamic, and magnetic symmetry:
 Subroutine PRICEL returns:
 Original cell was already a primitive cell.

 Routine SETGRP: Setting up the symmetry group for a
 base centered monoclinic supercell.

 Subroutine GETGRP returns: Found  4 space group operations
 (whereof  2 operations were pure point group operations)
 out of a pool of  4 trial point group operations.

The magnetic configuration has the point symmetry C_1h.
 The point group associated with its full space group is C_2h.

 Subroutine INISYM returns: Found  4 space group operations
 (whereof  2 operations are pure point group operations),
 and found     1 'primitive' translations

 KPOINTS: Automatic mesh

Automatic generation of k-mesh.
 generate k-points for:    4    3    3
Space group operators:
 irot       det(A)        alpha          n_x          n_y          n_z        tau_x        tau_y        tau_z
    1     1.000000     0.000001     1.000000     0.000000     0.000000     0.000000     0.000000     0.000000
    2    -1.000000   179.999999    -0.707107    -0.707107    -0.000000     0.000000     0.000000     0.000000
    3    -1.000000     0.000001     1.000000     0.000000     0.000000     0.400000    -0.400000     0.800000
    4     1.000000   179.999999    -0.707107    -0.707107    -0.000000     0.400000    -0.400000     0.800000

 Subroutine IBZKPT returns following result:

 Found     19 irreducible k-points:

 Following reciprocal coordinates:
            Coordinates               Weight
  0.000000  0.000000  0.000000      1.000000
  0.250000  0.000000 -0.000000      2.000000
  0.500000  0.000000 -0.000000      1.000000
  0.000000  0.333333  0.000000      2.000000
  0.250000  0.333333 -0.000000      2.000000
  0.500000  0.333333 -0.000000      2.000000
 -0.250000  0.333333 -0.000000      2.000000
  0.000000 -0.000000  0.333333      2.000000
  0.250000  0.000000  0.333333      2.000000
  0.500000  0.000000  0.333333      2.000000
 -0.250000 -0.000000  0.333333      2.000000
  0.000000  0.333333  0.333333      2.000000
  0.250000  0.333333  0.333333      2.000000
  0.500000  0.333333  0.333333      2.000000
 -0.250000  0.333333  0.333333      2.000000
  0.000000 -0.333333  0.333333      2.000000
  0.250000 -0.333333  0.333333      2.000000
  0.500000 -0.333333  0.333333      2.000000
 -0.250000 -0.333333  0.333333      2.000000

 Following cartesian coordinates:
            Coordinates               Weight
  0.000000  0.000000  0.000000      1.000000
 -0.038762 -0.025858 -0.012924      2.000000
 -0.077525 -0.051716 -0.025848      1.000000
 -0.034388  0.034388  0.017208      2.000000
 -0.073150  0.008530  0.004284      2.000000
 -0.111913 -0.017328 -0.008640      2.000000
  0.004374  0.060246  0.030132      2.000000
 -0.017206  0.017206 -0.034464      2.000000
 -0.055968 -0.008652 -0.047388      2.000000
 -0.094731 -0.034510 -0.060312      2.000000
  0.021556  0.043064 -0.021540      2.000000
 -0.051594  0.051594 -0.017256      2.000000
 -0.090356  0.025736 -0.030180      2.000000
 -0.129119 -0.000122 -0.043104      2.000000
 -0.012832  0.077452 -0.004332      2.000000
  0.017182 -0.017182 -0.051672      2.000000
 -0.021580 -0.043040 -0.064596      2.000000
 -0.060343 -0.068898 -0.077520      2.000000
  0.055944  0.008676 -0.038748      2.000000

 TETIRR: Found    106 inequivalent tetrahedra from      216

 SYSTEM =  final
 POSCAR =  SCEL5_5_1_1_0_3_1/3

 Startparameter for this run:
   NWRITE =      2    write-flag & timer
[...]
       1 -95.2617       2 -95.2616       3 -95.2860       4 -95.3022       5 -95.2858
       6 -43.1665       7 -43.1665       8 -83.6836       9 -83.6986      10 -83.6836
      11 -67.0173      12 -66.9535      13 -66.5285      14 -66.5285      15 -66.9535
      16 -66.8300      17 -66.8228      18 -66.6273      19 -66.8228      20 -66.8300
      21 -66.8228      22 -66.8300      23 -66.8300      24 -66.8228      25 -66.6273

 E-fermi :   7.5750     XC(G=0): -11.7716     alpha+bet :-16.6738

[...]

 k-point     1 :       0.0000    0.0000    0.0000
  band No.  band energies     occupation
      1     -23.8013      1.00000
      2     -23.7127      1.00000
      3     -23.7015      1.00000
      4     -23.6654      1.00000
      5     -23.6589      1.00000
      6     -10.8514      1.00000
      7     -10.8317      1.00000
      8     -10.7011      1.00000
      9     -10.3790      1.00000
     10     -10.3405      1.00000
     11     -10.0074      1.00000
     12      -9.9888      1.00000
     13      -9.9808      1.00000
     14      -9.8137      1.00000
     15      -9.7256      1.00000
     16      -9.5845      1.00000
     17      -9.5841      1.00000
     18      -9.5557      1.00000
     19      -9.4274      1.00000
     20      -9.3859      1.00000
     21      -7.4505      1.00000
     22      -7.4469      1.00000
     23      -7.3970      1.00000
     24      -7.3326      1.00000
     25      -7.3116      1.00000
     26      -7.3091      1.00000
     27      -7.2995      1.00000
     28      -7.1536      1.00000
     29      -7.0984      1.00000
     30      -7.0251      1.00000
     31      -6.9931      1.00000
     32      -6.9379      1.00000
     33      -6.8941      1.00000
     34      -6.7562      1.00000
     35      -6.6814      1.00000
     36       0.4521      1.00000
     37       0.4528      1.00000
     38       0.4694      1.00000
     39       0.5957      1.00000
     40       0.9327      1.00000
     41       1.2374      1.00000
     42       1.3479      1.00000
     43       1.3793      1.00000
     44       1.4352      1.00000
     45       1.5422      1.00000
     46       1.6736      1.00000
     47       1.8381      1.00000
     48       1.8571      1.00000
     49       1.8765      1.00000
     50       1.9827      1.00000
     51       2.0937      1.00000
     52       2.0969      1.00000
     53       2.1097      1.00000
     54       2.1122      1.00000
     55       2.3688      1.00000
     56       2.3839      1.00000
     57       2.4445      1.00000
     58       2.6940      1.00000
     59       2.7592      1.00000
     60       2.7646      1.00000
[...]
    108      10.9745      0.00000
    109      11.0039      0.00000
    110      11.0286      0.00000
    111      11.0537      0.00000
    112      11.0847      0.00000
    113      11.1380      0.00000
    114      11.1732      0.00000
    115      11.1867      0.00000
    116      11.2092      0.00000
    117      11.2203      0.00000
    118      11.2422      0.00000
    119      11.2532      0.00000
    120      11.2847      0.00000
    121      11.2990      0.00000
    122      11.3787      0.00000

[...]

 spin component 2

[...]

 k-point    19 :      -0.2500   -0.3333    0.3333
  band No.  band energies     occupation
      1     -23.7568      1.00000
      2     -23.7194      1.00000
      3     -23.7071      1.00000
      4     -23.6802      1.00000
      5     -23.6422      1.00000
      6     -11.0640      1.00000
      7     -10.9259      1.00000
      8     -10.8049      1.00000
      9     -10.7006      1.00000
     10     -10.2114      1.00000
     11      -9.9683      1.00000
     12      -9.8837      1.00000
     13      -9.8085      1.00000
     14      -9.7255      1.00000
     15      -9.7167      1.00000
     16      -9.6289      1.00000
     17      -9.4775      1.00000
     18      -9.3918      1.00000
     19      -9.2781      1.00000
     20      -9.2016      1.00000
     21      -7.5797      1.00000
     22      -7.5101      1.00000
     23      -7.3709      1.00000
     24      -7.2277      1.00000
     25      -7.2020      1.00000
     26      -7.1625      1.00000
     27      -7.1347      1.00000
     28      -7.1028      1.00000
     29      -7.0186      1.00000
     30      -7.0070      1.00000
     31      -6.9384      1.00000
     32      -6.8561      1.00000
     33      -6.7621      1.00000
     34      -6.6194      1.00000
     35      -6.5718      1.00000
     36       1.4109      1.00000
     37       1.9616      1.00000
     38       2.1881      1.00000
     39       2.3447      1.00000
     40       2.4229      1.00000
     41       2.5018      1.00000
     42       2.5660      1.00000
     43       2.6881      1.00000
     44       2.7191      1.00000
     45       2.8456      1.00000
     46       2.8899      1.00000
     47       2.9175      1.00000
     48       3.0515      1.00000
     49       3.0769      1.00000
     50       3.1691      1.00000
     51       3.2952      1.00000
     52       3.3773      1.00000
     53       3.3881      1.00000
     54       3.4283      1.00000
     55       3.4483      1.00000
     56       3.6272      1.00000
     57       3.7145      1.00000
     58       3.8854      1.00000
     59       3.8972      1.00000
     60       3.9894      1.00000
[...]
    108      11.1804      0.00000
    109      11.1908      0.00000
    110      11.2067      0.00000
    111      11.2199      0.00000
    112      11.2268      0.00000
    113      11.2464      0.00000
    114      11.2514      0.00000
    115      11.2737      0.00000
    116      11.2952      0.00000
    117      11.3010      0.00000
    118      11.3167      0.00000
    119      11.3271      0.00000
    120      11.3433      0.00000
    121      11.3609      0.00000
    122      11.4546      0.00000

 soft charge-density along one line, spin component           1
         0         1         2         3         4         5         6         7         8         9
 total charge-density along one line

 soft charge-density along one line, spin component           2
         0         1         2         3         4         5         6         7         8         9
 total charge-density along one line

------------------------ aborting loop because EDIFF is reached ----------------------------------------

 total charge

# of ion       s       p       d       f       tot
    1        2.000   5.700   0.493   0.192   8.384
    2        2.000   5.700   0.493   0.192   8.384
    3        2.000   5.699   0.493   0.192   8.383
    4        1.999   5.700   0.490   0.192   8.381
    5        2.000   5.699   0.493   0.192   8.384
    6        0.358   0.572   4.866   0.000   5.795
    7        0.358   0.572   4.865   0.000   5.795
    8        0.405   0.590   8.320   0.000   9.315
    9        0.404   0.598   8.318   0.000   9.320
   10        0.405   0.590   8.321   0.000   9.315
   11        1.561   3.470   0.000   0.000   5.031
   12        1.563   3.454   0.000   0.000   5.018
   13        1.559   3.444   0.000   0.000   5.003
   14        1.559   3.444   0.000   0.000   5.003
   15        1.563   3.454   0.000   0.000   5.018
   16        1.562   3.458   0.000   0.000   5.019
   17        1.562   3.455   0.000   0.000   5.018
   18        1.560   3.446   0.000   0.000   5.007
   19        1.562   3.455   0.000   0.000   5.018
   20        1.562   3.458   0.000   0.000   5.019
   21        1.562   3.455   0.000   0.000   5.017
   22        1.562   3.457   0.000   0.000   5.019
   23        1.562   3.457   0.000   0.000   5.019
   24        1.562   3.455   0.000   0.000   5.017
   25        1.560   3.438   0.000   0.000   4.998
tot         35.351  83.220  37.152   0.958 156.681

 magnetization (x)

[...]

  FORCE on cell =-STRESS in cart. coord.  units (eV):
  Direction    XX          YY          ZZ          XY          YZ          ZX
  Alpha Z   823.89229   823.89229   823.89229
  Ewald   -4395.16018 -4395.16018 -4372.91040     7.70105    -6.12837     6.12837
  Hartree   993.38817   993.38819  1010.93440     6.34970    -5.61300     5.61299
  E(xc)    -882.23613  -882.23612  -882.10815    -0.00387    -0.00256     0.00254
  Local    -586.86923  -586.86899  -624.24466   -13.47577    11.87778   -11.87828
  n-local   353.22055   353.18125   353.86188     0.19073     0.04392     0.04491
  augment   480.95379   480.95312   480.16514    -0.00891    -0.00368     0.00438
  Kinetic  3212.61646  3213.23522  3210.58863    -0.66480    -0.34381    -0.01558
  Fock        0.00000     0.00000     0.00000     0.00000     0.00000     0.00000
  Total       0.09526     0.09526     0.17915     0.08785    -0.03515     0.03515
  in kB       0.52591     0.52591     0.98904     0.48498    -0.19405     0.19405

 VOLUME and BASIS-vectors are now :
  energy-cutoff  :      520.00
  volume of cell :      290.21
      direct lattice vectors                 reciprocal lattice vectors
    -3.868749391 -3.868749391  0.000000000    -0.155049693 -0.103431769 -0.051696109
    -3.877869323  3.877869323  3.872004489    -0.103163857  0.103163857  0.051623930
    -0.001852795  3.870602185 -7.738608632    -0.051617925  0.051617925 -0.103392218

  length of vectors
     5.471237858  6.713282337  8.652608178     0.193419301  0.154759791  0.126565284

 FORCES acting on ions
    electron-ion (+dipol)            ewald-force                    non-local-force                 convergence-correction
   -.263E+02 0.263E+02 -.305E+02   0.261E+02 -.261E+02 0.302E+02   0.229E+00 -.229E+00 0.309E+00   -.310E-02 0.310E-02 -.496E-02
   0.263E+02 -.263E+02 0.305E+02   -.261E+02 0.261E+02 -.302E+02   -.229E+00 0.229E+00 -.309E+00   0.310E-02 -.310E-02 0.496E-02
   0.323E+02 -.323E+02 -.299E+02   -.318E+02 0.318E+02 0.296E+02   -.427E+00 0.427E+00 0.286E+00   0.338E-02 -.338E-02 -.504E-02
   0.242E-06 0.774E-05 -.241E-04   -.775E-11 0.600E-11 0.271E-10   -.559E-19 -.813E-19 0.000E+00   0.251E-05 0.364E-05 -.238E-05
   -.323E+02 0.323E+02 0.299E+02   0.318E+02 -.318E+02 -.296E+02   0.427E+00 -.427E+00 -.286E+00   -.338E-02 0.338E-02 0.503E-02
   0.634E+00 -.634E+00 -.200E+02   -.618E+00 0.618E+00 0.196E+02   -.122E-01 0.122E-01 0.440E+00   0.594E-03 -.594E-03 0.362E-03
   -.634E+00 0.634E+00 0.200E+02   0.618E+00 -.618E+00 -.196E+02   0.122E-01 -.122E-01 -.440E+00   -.593E-03 0.593E-03 -.362E-03
   0.302E+02 -.302E+02 -.177E+02   -.296E+02 0.296E+02 0.166E+02   -.609E+00 0.609E+00 0.111E+01   0.473E-02 -.473E-02 -.391E-03
   0.301E-04 0.661E-04 -.675E-06   0.196E-10 -.279E-10 0.366E-11   0.216E-19 0.136E-19 -.271E-19   0.347E-06 -.382E-06 0.505E-06
   -.302E+02 0.302E+02 0.177E+02   0.296E+02 -.296E+02 -.166E+02   0.609E+00 -.609E+00 -.111E+01   -.473E-02 0.473E-02 0.390E-03
   -.110E-04 -.384E-04 0.369E-05   -.115E-10 0.353E-11 0.901E-11   0.307E-19 0.108E-18 0.542E-19   0.183E-06 -.192E-06 0.527E-06
   0.117E+02 -.117E+02 -.369E+02   -.120E+02 0.120E+02 0.309E+02   0.354E+00 -.354E+00 0.596E+01   0.493E-03 -.494E-03 -.260E-01
   0.105E+02 -.105E+02 0.259E+00   -.107E+02 0.107E+02 0.702E+00   0.160E+00 -.160E+00 -.941E+00   0.905E-03 -.905E-03 0.533E-02
   -.105E+02 0.105E+02 -.259E+00   0.107E+02 -.107E+02 -.702E+00   -.160E+00 0.160E+00 0.941E+00   -.905E-03 0.905E-03 -.533E-02
   -.117E+02 0.117E+02 0.369E+02   0.120E+02 -.120E+02 -.309E+02   -.354E+00 0.354E+00 -.596E+01   -.494E-03 0.494E-03 0.260E-01
   0.996E+01 -.437E+02 -.160E+01   -.101E+02 0.392E+02 0.171E+01   0.127E+00 0.453E+01 -.141E+00   0.749E-03 -.244E-01 0.365E-03
   -.140E+01 -.391E+02 -.109E+02   0.167E+01 0.342E+02 0.112E+02   -.274E+00 0.496E+01 -.326E+00   0.134E-03 -.212E-01 0.970E-04
   -.171E-05 -.574E-04 0.201E-04   -.192E-10 0.371E-10 0.106E-10   0.866E-19 0.678E-19 0.271E-19   -.273E-06 0.360E-06 -.227E-06
   0.140E+01 0.391E+02 0.109E+02   -.167E+01 -.342E+02 -.112E+02   0.274E+00 -.496E+01 0.326E+00   -.134E-03 0.212E-01 -.965E-04
   -.996E+01 0.437E+02 0.160E+01   0.101E+02 -.392E+02 -.171E+01   -.127E+00 -.453E+01 0.141E+00   -.750E-03 0.244E-01 -.365E-03
   -.391E+02 -.140E+01 0.109E+02   0.342E+02 0.167E+01 -.112E+02   0.496E+01 -.274E+00 0.326E+00   -.212E-01 0.134E-03 -.965E-04
   -.437E+02 0.996E+01 0.160E+01   0.392E+02 -.101E+02 -.171E+01   0.453E+01 0.127E+00 0.141E+00   -.244E-01 0.750E-03 -.365E-03
   0.437E+02 -.996E+01 -.160E+01   -.392E+02 0.101E+02 0.171E+01   -.453E+01 -.127E+00 -.141E+00   0.244E-01 -.749E-03 0.365E-03
   0.391E+02 0.140E+01 -.109E+02   -.342E+02 -.167E+01 0.112E+02   -.496E+01 0.274E+00 -.326E+00   0.212E-01 -.134E-03 0.969E-04
   0.240E-04 -.485E-04 0.166E-04   -.714E-11 0.127E-10 0.156E-12   -.142E-18 -.122E-18 -.271E-19   -.375E-06 0.271E-06 -.216E-06
   -.433E-04 -.111E-03 0.214E-03   -.193E-13 0.302E-13 -.124E-13   0.888E-15 0.944E-15 0.888E-15   -.244E-05 0.165E-05 -.108E-04

 POSITION                                       TOTAL-FORCE (eV/Angst)
     -3.89473      0.02598     -3.89539        -0.010392      0.010392     -0.013229
     -3.84972     -0.01903      0.02770         0.010392     -0.010392      0.013229
     -3.83575      3.83575     -3.89937         0.060584     -0.060584     -0.048798
     -3.87679      3.87679      0.00216         0.000000      0.000000     -0.000000
     -0.03995      0.03995      0.03168        -0.060584      0.060584      0.048798
     -5.81229      1.94355     -1.94551         0.004703     -0.004703      0.019007
     -5.81003      1.94128      1.94983        -0.004703      0.004703     -0.019007
     -1.94777      1.94777      1.92916        -0.010344      0.010344      0.012227
     -1.93785      1.93785     -1.93384         0.000000      0.000000     -0.000000
     -1.92793      1.92793     -5.79685         0.010344     -0.010344     -0.012227
     -5.81116      1.94241      0.00216         0.000000      0.000000     -0.000000
     -5.80650      1.93775     -3.82789         0.010912     -0.010912     -0.021990
     -1.93752      1.93752     -0.02049         0.017832     -0.017832      0.025574
     -1.93819      1.93819     -3.84720        -0.017832      0.017832     -0.025574
     -5.81582      1.94708      3.83221        -0.010912      0.010912      0.021990
     -5.80828      0.04046      1.93281         0.012954      0.015358     -0.023684
     -5.81362      0.04499     -1.93308        -0.004693      0.014471     -0.004669
     -1.93878      3.87315     -5.80315         0.000000      0.000000     -0.000000
     -1.93083     -0.03804     -1.93461         0.004693     -0.014471      0.004669
     -5.81404      3.84437     -1.92849        -0.012954     -0.015358      0.023684
     -3.83071     -1.93792     -1.93461         0.014471     -0.004693      0.004669
     -3.84437      5.81404     -1.92849         0.015358      0.012954      0.023684
     -3.90921      1.93953      1.93281        -0.015358     -0.012954     -0.023684
     -3.91374      1.94488     -1.93308        -0.014471      0.004693     -0.004669
     -3.87315      1.93878     -5.80315         0.000000      0.000000     -0.000000
    total drift:                               -0.000046     -0.000109      0.000203

  FREE ENERGIE OF THE ION-ELECTRON SYSTEM (eV)
  free  energy   TOTEN  =      -180.61380428 eV

  energy  without entropy=     -180.61380428  energy(sigma->0) =     -180.61380428

 total charge

[...]

 magnetization (x)

# of ion       s       p       d       f       tot
    1        0.000   0.001   0.007   0.003   0.011
    2        0.000   0.001   0.007   0.003   0.011
    3        0.001   0.001   0.008   0.003   0.012
    4        0.001   0.001   0.008   0.003   0.013
    5        0.001   0.001   0.008   0.003   0.012
    6        0.024   0.031   3.215   0.000   3.270
    7        0.024   0.031   3.214   0.000   3.270
    8        0.012   0.003   1.576   0.000   1.591
    9        0.009   0.004   1.553   0.000   1.566
   10        0.012   0.003   1.576   0.000   1.591
   11        0.001  -0.018   0.000   0.000  -0.017
   12        0.005  -0.044   0.000   0.000  -0.039
   13        0.006  -0.047   0.000   0.000  -0.041
   14        0.006  -0.047   0.000   0.000  -0.041
   15        0.005  -0.044   0.000   0.000  -0.039
   16        0.005  -0.023   0.000   0.000  -0.019
   17        0.005  -0.024   0.000   0.000  -0.019
   18        0.006  -0.054   0.000   0.000  -0.048
   19        0.005  -0.024   0.000   0.000  -0.019
   20        0.005  -0.023   0.000   0.000  -0.019
   21        0.005  -0.025   0.000   0.000  -0.020
   22        0.005  -0.024   0.000   0.000  -0.020
   23        0.005  -0.024   0.000   0.000  -0.020
   24        0.005  -0.025   0.000   0.000  -0.020
   25        0.006  -0.062   0.000   0.000  -0.056
tot          0.158  -0.434  11.171   0.016  10.911

 BZINTS: Fermi energy:  7.574992;189.000000 electrons
         Band energy:-252.201964;  BLOECHL correction: -0.016635