 vasp.5.4.4.18Apr17-6-g9f103f2a35 (build Oct 03 2018 13:58:34) complex

 executed on             LinuxIFC date 2019.06.04  00:46:03

 INCAR:
 POTCAR:    PAW_PBE La 06Sep2000
 POTCAR:    PAW_PBE Mn 06Sep2000
 POTCAR:    PAW_PBE Ni 02Aug2007
 POTCAR:    PAW_PBE O 08Apr2002

 POTCAR:    PAW_PBE La 06Sep2000
   VRHFIN =La : [core=Kr4d]

   TITEL  = PAW_PBE La 06Sep2000
   POMASS =  138.900; ZVAL   =   11.000    mass and valenz
   ENMAX  =  219.292; ENMIN  =  164.469 eV

 POTCAR:    PAW_PBE Mn 06Sep2000
   VRHFIN =Mn: d6 s1

   TITEL  = PAW_PBE Mn 06Sep2000
   POMASS =   54.938; ZVAL   =    7.000    mass and valenz
   ENMAX  =  269.864; ENMIN  =  202.398 eV

 POTCAR:    PAW_PBE Ni 02Aug2007
   VRHFIN =Ni:

   TITEL  = PAW_PBE Ni 02Aug2007
   POMASS =   58.690; ZVAL   =   10.000    mass and valenz
   ENMAX  =  269.532; ENMIN  =  202.149 eV

 POTCAR:    PAW_PBE O 08Apr2002
   VRHFIN =O: s2p4

   TITEL  = PAW_PBE O 08Apr2002
   POMASS =   16.000; ZVAL   =    6.000    mass and valenz
   ENMAX  =  400.000; ENMIN  =  300.000 eV

 Optimization of the real space projectors (new method)

 maximal supplied QI-value         = 13.42
 optimisation between [QCUT,QGAM] = [ 11.67, 23.35] = [ 38.16,152.62] Ry
 Optimized for a Real-space Cutoff    1.63 Angstroem

   l    n(q)    QCUT    max X(q) W(low)/X(q) W(high)/X(q)  e(spline)
   0     11    11.673    13.882    0.27E-04    0.79E-05    0.11E-06
   0     11    11.673    12.184    0.39E-04    0.13E-04    0.19E-06
   1     11    11.673     4.523    0.73E-05    0.76E-05    0.12E-06
   1     11    11.673     4.424    0.87E-05    0.13E-04    0.19E-06
   2     10    11.673    52.481    0.65E-04    0.36E-04    0.18E-06
   2     10    11.673    38.501    0.61E-04    0.33E-04    0.17E-06
   3     10    11.673    65.631    0.17E-03    0.14E-03    0.37E-06
   3     10    11.673    56.854    0.17E-03    0.14E-03    0.37E-06
 Optimization of the real space projectors (new method)

[...]

   l    n(q)    QCUT    max X(q) W(low)/X(q) W(high)/X(q)  e(spline)
   2      9    11.539    60.317    0.19E-03    0.47E-04    0.16E-06
   2      9    11.539    55.921    0.19E-03    0.48E-04    0.16E-06
   0     10    11.539    51.690    0.80E-04    0.50E-04    0.24E-06
   0     10    11.539    30.015    0.73E-04    0.45E-04    0.22E-06
   1     10    11.539    18.849    0.87E-04    0.16E-03    0.71E-07
   1     10    11.539    14.624    0.73E-04    0.13E-03    0.64E-07
 Optimization of the real space projectors (new method)

 maximal supplied QI-value         = 24.76
 optimisation between [QCUT,QGAM] = [ 11.64, 23.27] = [ 37.91,151.63] Ry
 Optimized for a Real-space Cutoff    1.14 Angstroem

   l    n(q)    QCUT    max X(q) W(low)/X(q) W(high)/X(q)  e(spline)
   0      8    11.635    20.381    0.10E-03    0.33E-03    0.24E-06
   0      8    11.635    15.268    0.11E-03    0.35E-03    0.26E-06
   1      7    11.635     5.964    0.24E-03    0.31E-03    0.30E-06
   1      7    11.635     5.382    0.22E-03    0.25E-03    0.26E-06
  PAW_PBE La 06Sep2000                  :
  PAW_PBE Mn 06Sep2000                  :
  PAW_PBE Ni 02Aug2007                  :
  PAW_PBE O 08Apr2002                   :

 POSCAR: SCEL4_4_1_1_0_3_3/1
  positions in direct lattice
  velocities in cartesian coordinates
 exchange correlation table for  LEXCH =        8
   RHO(1)=    0.500       N(1)  =     2000
   RHO(2)=  100.500       N(2)  =     4000

 ion  position               nearest neighbor table
   1  0.243  0.243  0.271-  15 2.59  19 2.59  11 2.59  16 2.76  20 2.76  12 2.76  12 2.76  20 2.76
                            16 2.76   8 3.20   7 3.30   7 3.30   7 3.30
   2  0.500  0.500  0.500-  11 2.75  11 2.75  15 2.75  19 2.75  19 2.75  15 2.75  16 2.77  18 2.77
                            14 2.77  20 2.77  10 2.77  12 2.77   8 3.37   7 3.37   7 3.37   8 3.37
   3  0.757  0.757  0.729-  15 2.59  19 2.59  11 2.59  18 2.76  14 2.76  10 2.76  10 2.76  18 2.76
                            14 2.76   7 3.20   8 3.30   8 3.30   8 3.30
   4  0.000  0.000  0.000-  14 2.73  16 2.73  18 2.73  20 2.73  10 2.73  12 2.73   9 2.75   9 2.75
                            13 2.75  17 2.75  17 2.75  13 2.75   7 3.34   8 3.34   6 3.36   5 3.36
   5  0.375  0.375  0.876-  10 1.89  14 1.89  18 1.89   9 1.94  17 1.94  13 1.94   4 3.36   4 3.36
                             4 3.36   2 3.37
   6  0.625  0.625  0.124-  12 1.89  16 1.89  20 1.89   9 1.94  17 1.94  13 1.94   4 3.36   4 3.36
                             4 3.36   2 3.37
   7  0.876  0.876  0.372-  11 1.95  15 1.95  19 1.95  12 1.99  16 1.99  20 1.99   3 3.20   1 3.30
                             1 3.30   1 3.30   4 3.34   2 3.37   2 3.37   2 3.37
   8  0.124  0.124  0.628-  11 1.95  15 1.95  19 1.95  10 1.99  18 1.99  14 1.99   1 3.20   3 3.30
                             3 3.30   3 3.30   4 3.34   2 3.37   2 3.37   2 3.37
   9  0.500  0.500  0.000-   5 1.94   6 1.94   4 2.75   4 2.75
  10  0.252  0.252  0.756-   5 1.89   8 1.99   4 2.73   3 2.76   3 2.76   2 2.77
  11  0.000  0.000  0.500-   7 1.95   8 1.95   1 2.59   3 2.59   2 2.75   2 2.75
  12  0.748  0.748  0.244-   6 1.89   7 1.99   4 2.73   1 2.76   1 2.76   2 2.77
  13  0.500  0.000  0.000-   5 1.94   6 1.94   4 2.75   4 2.75
  14  0.252  0.740  0.756-   5 1.89   8 1.99   4 2.73   3 2.76   3 2.76   2 2.77
  15  0.000  0.500  0.500-   7 1.95   8 1.95   1 2.59   3 2.59   2 2.75   2 2.75
  16  0.748  0.260  0.244-   6 1.89   7 1.99   4 2.73   1 2.76   1 2.76   2 2.77
  17  0.000  0.500  0.000-   5 1.94   6 1.94   4 2.75   4 2.75
  18  0.740  0.252  0.756-   5 1.89   8 1.99   4 2.73   3 2.76   3 2.76   2 2.77
  19  0.500  0.000  0.500-   7 1.95   8 1.95   1 2.59   3 2.59   2 2.75   2 2.75
  20  0.260  0.748  0.244-   6 1.89   7 1.99   4 2.73   1 2.76   1 2.76   2 2.77

  LATTYP: Found a trigonal (rhomboedric) cell.
 ALAT       =     9.5142019776
 COS(alpha) =     0.8334570307

  Lattice vectors:

 A1 = (  -3.8848774682,  -7.7675925137,  -3.8848774585)
 A2 = (  -7.7675925137,  -3.8848774682,  -3.8848774585)
 A3 = (  -3.8848774683,  -3.8848774683,  -7.7675925041)

Analysis of symmetry for initial positions (statically):
 Subroutine PRICEL returns:
 Original cell was already a primitive cell.

 Routine SETGRP: Setting up the symmetry group for a
 trigonal (rhombohedral) supercell.

 Subroutine GETGRP returns: Found 12 space group operations
 (whereof 12 operations were pure point group operations)
 out of a pool of 12 trial point group operations.

The static configuration has the point symmetry D_3d.

Analysis of symmetry for dynamics (positions and initial velocities):
 Subroutine PRICEL returns:
 Original cell was already a primitive cell.

[...]

The dynamic configuration has the point symmetry D_3d.

Analysis of structural, dynamic, and magnetic symmetry:
 Subroutine PRICEL returns:
 Original cell was already a primitive cell.

 Routine SETGRP: Setting up the symmetry group for a
 trigonal (rhombohedral) supercell.

 Subroutine GETGRP returns: Found 12 space group operations
 (whereof 12 operations were pure point group operations)
 out of a pool of 12 trial point group operations.

The magnetic configuration has the point symmetry D_3d.

 Subroutine INISYM returns: Found 12 space group operations
 (whereof 12 operations are pure point group operations),
 and found     1 'primitive' translations

 KPOINTS: Automatic mesh

Automatic generation of k-mesh.
 generate k-points for:    4    4    2
Space group operators:
 irot       det(A)        alpha          n_x          n_y          n_z        tau_x        tau_y        tau_z
    1     1.000000     0.000000     1.000000     0.000000     0.000000     0.000000     0.000000     0.000000
    2    -1.000000     0.000000     1.000000     0.000000     0.000000     0.000000     0.000000     0.000000
    3     1.000000   179.999999    -0.707107     0.000000     0.707107     0.000000     0.000000     0.000000
    4    -1.000000   179.999999    -0.707107     0.000000     0.707107     0.000000     0.000000     0.000000
    5     1.000000   120.000000     0.577350     0.577350     0.577350     0.000000     0.000000     0.000000
    6    -1.000000   120.000000     0.577350     0.577350     0.577350     0.000000     0.000000     0.000000
    7     1.000000   180.000000     0.707107    -0.707107    -0.000000     0.000000     0.000000     0.000000
    8    -1.000000   180.000000     0.707107    -0.707107    -0.000000     0.000000     0.000000     0.000000
    9     1.000000   120.000000    -0.577350    -0.577350    -0.577350     0.000000     0.000000     0.000000
   10    -1.000000   120.000000    -0.577350    -0.577350    -0.577350     0.000000     0.000000     0.000000
   11     1.000000   179.999999    -0.000000     0.707107    -0.707107     0.000000     0.000000     0.000000
   12    -1.000000   179.999999    -0.000000     0.707107    -0.707107     0.000000     0.000000     0.000000

 Subroutine IBZKPT returns following result:

 Found     11 irreducible k-points:

 Following reciprocal coordinates:
            Coordinates               Weight
  0.000000  0.000000  0.000000      1.000000
  0.250000 -0.000000 -0.000000      4.000000
  0.500000 -0.000000 -0.000000      3.000000
  0.250000  0.250000 -0.000000      2.000000
  0.500000  0.250000  0.000000      8.000000
 -0.250000  0.250000  0.000000      2.000000
  0.500000  0.500000 -0.000000      3.000000
  0.000000  0.000000  0.500000      1.000000
  0.250000  0.000000  0.500000      4.000000
  0.250000  0.250000  0.500000      2.000000
 -0.250000  0.250000  0.500000      2.000000

 Following cartesian coordinates:
            Coordinates               Weight
  0.000000  0.000000  0.000000      1.000000
 -0.048289  0.016099  0.016099      4.000000
 -0.096577  0.032198  0.032198      3.000000
 -0.032189 -0.032189  0.032198      2.000000
 -0.080478 -0.016090  0.048298      8.000000
  0.064388 -0.064388  0.000000      2.000000
 -0.064379 -0.064379  0.064397      3.000000
  0.032181  0.032181  0.032181      1.000000
 -0.016108  0.048280  0.048280      4.000000
 -0.000009 -0.000009  0.064379      2.000000
  0.096568 -0.032207  0.032181      2.000000

 TETIRR: Found     48 inequivalent tetrahedra from      192

 SYSTEM =  final
 POSCAR =  SCEL4_4_1_1_0_3_3/1

 Startparameter for this run:
   NWRITE =      2    write-flag & timer
   PREC   = accura    normal or accurate (medium, high low for compatibility)
   ISTART =      0    job   : 0-new  1-cont  2-samecut
   ICHARG =      1    charge: 1-file 2-atom 10-const
   ISPIN  =      2    spin polarized calculation?
   LNONCOLLINEAR =      F non collinear calculations
   LSORBIT =      F    spin-orbit coupling
   INIWAV =      1    electr: 0-lowe 1-rand  2-diag
   LASPH  =      F    aspherical Exc in radial PAW
   METAGGA=      F    non-selfconsistent MetaGGA calc.

 Electronic Relaxation 1
   ENCUT  =  520.0 eV  38.22 Ry    6.18 a.u.  10.21 10.21 17.69*2*pi/ulx,y,z
   ENINI  =  520.0     initial cutoff
   ENAUG  =  605.4 eV  augmentation charge cutoff
   NELM   =    100;   NELMIN=  2; NELMDL= -5     # of ELM steps
   EDIFF  = 0.1E-02   stopping-criterion for ELM
   LREAL  =      T    real-space projection
   NLSPLINE    = F    spline interpolate recip. space projectors
[...]
  0.4901  0.4901  0.5014

[...]

--------------------------------------- Iteration      1(  19)  ---------------------------------------

atom =   1  type =  1  l = 0

[...]

  o =  0.7820  v =  0.0000  1.0000      0.0000  0.0000
  o =  0.7893  v =  1.0000  0.0000      0.0000  0.0000
atom =  20  type =  4  l = 0

 onsite density matrix

[...]

  0.7869

 occupancies and eigenvectors

  o =  0.7869  v =  0.0000  1.0000      0.0000  0.0000
  o =  0.7913  v =  1.0000  0.0000      0.0000  0.0000
 BZINTS: Fermi energy:  7.761257;150.000000 electrons
         Band energy:-220.567559;  BLOECHL correction:  0.000000

 eigenvalue-minimisations  :  4258
 total energy-change (2. order) :-0.4118013E-03  (-0.6078862E-03)
 number of electron     149.9999981 magnetization      10.0005233
 augmentation part       19.3496533 magnetization       7.5288737

 Free energy of the ion-electron system (eV)
  alpha Z        PSCENC =       655.24734613
  Ewald energy   TEWEN  =    -10312.36940685
  -Hartree energ DENC   =     -2342.79895629
  -exchange      EXHF   =         0.00000000
  -V(xc)+E(xc)   XCENC  =       511.40934586
  PAW double counting   =     12456.86347588   -12535.81758075
  entropy T*S    EENTRO =         0.00000000
  eigenvalues    EBANDS =      -220.56755866
  atomic energy  EATOM  =     11641.04254247
  Solvation  Ediel_sol  =         0.00000000
  free energy    TOTEN  =      -146.99079222 eV

  energy without entropy =     -146.99079222  energy(sigma->0) =     -146.99079222

 average (electrostatic) potential at core
  the test charge radii are     1.1480  1.0210  0.9791  0.7215
  (the norm of the test charge is              1.0000)
       1 -95.3533       2 -95.4575       3 -95.3533       4 -95.5410       5 -43.3438
       6 -43.3438       7 -83.5518       8 -83.5518       9 -67.0484      10 -67.0538
      11 -66.4077      12 -67.0538      13 -67.0484      14 -67.0538      15 -66.4077
      16 -67.0538      17 -67.0484      18 -67.0538      19 -66.4077      20 -67.0538

 E-fermi :   7.7613     XC(G=0): -11.7183     alpha+bet :-16.5095

[...]

 k-point     1 :       0.0000    0.0000    0.0000
  band No.  band energies     occupation
      1     -23.9822      1.00000
      2     -23.9155      1.00000
      3     -23.7927      1.00000
      4     -23.7459      1.00000
      5     -10.9981      1.00000
      6     -10.9034      1.00000
      7     -10.6181      1.00000
      8      -9.9455      1.00000
      9      -9.9455      1.00000
     10      -9.8608      1.00000
     11      -9.8608      1.00000
     12      -9.7689      1.00000
     13      -9.7689      1.00000
     14      -9.7600      1.00000
     15      -9.5411      1.00000
     16      -9.5411      1.00000
     17      -7.9787      1.00000
     18      -7.9787      1.00000
     19      -7.9756      1.00000
     20      -7.5266      1.00000
     21      -7.5266      1.00000
     22      -7.4723      1.00000
     23      -7.3744      1.00000
     24      -7.3744      1.00000
     25      -7.2585      1.00000
     26      -7.2585      1.00000
     27      -6.9321      1.00000
     28      -6.6343      1.00000
     29       0.3520      1.00000
     30       0.3520      1.00000
     31       0.7739      1.00000
     32       1.2193      1.00000
     33       1.2193      1.00000
     34       1.3570      1.00000
     35       1.3874      1.00000
     36       1.5793      1.00000
     37       1.5793      1.00000
     38       1.8224      1.00000
     39       1.8224      1.00000
     40       1.9220      1.00000
     41       1.9490      1.00000
     42       1.9491      1.00000
     43       2.2338      1.00000
     44       2.2338      1.00000
     45       2.4256      1.00000
     46       2.5566      1.00000
     47       2.7714      1.00000
     48       2.7849      1.00000
     49       2.7849      1.00000
     50       3.2716      1.00000
     51       3.2716      1.00000
     52       3.3290      1.00000
     53       3.9880      1.00000
     54       3.9880      1.00000
     55       5.1661      1.00000
     56       5.2159      1.00000
     57       5.2159      1.00000
     58       5.2188      1.00000
     59       5.2188      1.00000
     60       5.2578      1.00000
[...]
     84      10.1878      0.00000
     85      10.7797      0.00000
     86      10.7863      0.00000
     87      10.8951      0.00000
     88      10.9057      0.00000
     89      10.9161      0.00000
     90      10.9278      0.00000
     91      10.9692      0.00000
     92      11.0328      0.00000
     93      11.0677      0.00000
     94      11.0928      0.00000
     95      11.1081      0.00000
     96      11.1703      0.00000
     97      11.2210      0.00000
     98      11.2803      0.00000

[...]

 spin component 2

[...]

 k-point    11 :      -0.2500    0.2500    0.5000
  band No.  band energies     occupation
      1     -23.9528      1.00000
      2     -23.8793      1.00000
      3     -23.7855      1.00000
      4     -23.7813      1.00000
      5     -11.1622      1.00000
      6     -10.9984      1.00000
      7     -10.6914      1.00000
      8     -10.6037      1.00000
      9     -10.1657      1.00000
     10     -10.1399      1.00000
     11      -9.9389      1.00000
     12      -9.8460      1.00000
     13      -9.7439      1.00000
     14      -9.7101      1.00000
     15      -9.4939      1.00000
     16      -9.1898      1.00000
     17      -7.4810      1.00000
     18      -7.4586      1.00000
     19      -7.3943      1.00000
     20      -7.3789      1.00000
     21      -7.2206      1.00000
     22      -7.1706      1.00000
     23      -7.1571      1.00000
     24      -7.0459      1.00000
     25      -6.9897      1.00000
     26      -6.8809      1.00000
     27      -6.7064      1.00000
     28      -6.6006      1.00000
     29       1.7531      1.00000
     30       1.8645      1.00000
     31       2.1683      1.00000
     32       2.2894      1.00000
     33       2.3137      1.00000
     34       2.3804      1.00000
     35       2.8600      1.00000
     36       2.9269      1.00000
     37       2.9786      1.00000
     38       3.0040      1.00000
     39       3.0865      1.00000
     40       3.2101      1.00000
     41       3.2150      1.00000
     42       3.3966      1.00000
     43       3.4495      1.00000
     44       3.5141      1.00000
     45       3.5545      1.00000
     46       3.6440      1.00000
     47       3.7280      1.00000
     48       3.8865      1.00000
     49       4.2460      1.00000
     50       4.3153      1.00000
     51       4.5647      1.00000
     52       4.6209      1.00000
     53       5.0375      1.00000
     54       5.0627      1.00000
     55       5.1414      1.00000
     56       5.3042      1.00000
     57       5.3727      1.00000
     58       5.4353      1.00000
     59       5.5930      1.00000
     60       5.6660      1.00000
[...]
     84      10.9406      0.00000
     85      10.9907      0.00000
     86      11.0322      0.00000
     87      11.0413      0.00000
     88      11.0555      0.00000
     89      11.0932      0.00000
     90      11.0978      0.00000
     91      11.1100      0.00000
     92      11.1197      0.00000
     93      11.1449      0.00000
     94      11.1674      0.00000
     95      11.1825      0.00000
     96      11.2088      0.00000
     97      11.2309      0.00000
     98      11.2431      0.00000

 soft charge-density along one line, spin component           1
         0         1         2         3         4         5         6         7         8         9
 total charge-density along one line

 soft charge-density along one line, spin component           2
         0         1         2         3         4         5         6         7         8         9
 total charge-density along one line

------------------------ aborting loop because EDIFF is reached ----------------------------------------

 total charge

# of ion       s       p       d       f       tot
    1        2.001   5.697   0.504   0.195   8.398
    2        1.999   5.697   0.489   0.189   8.374
    3        2.001   5.697   0.504   0.195   8.398
    4        1.999   5.700   0.485   0.192   8.376
    5        0.350   0.552   4.854   0.000   5.756
    6        0.350   0.552   4.854   0.000   5.756
    7        0.396   0.573   8.331   0.000   9.301
    8        0.396   0.573   8.331   0.000   9.301
    9        1.562   3.460   0.000   0.000   5.022
   10        1.563   3.455   0.000   0.000   5.018
   11        1.556   3.465   0.000   0.000   5.021
   12        1.563   3.455   0.000   0.000   5.018
   13        1.562   3.447   0.000   0.000   5.009
   14        1.563   3.427   0.000   0.000   4.990
   15        1.556   3.436   0.000   0.000   4.992
   16        1.563   3.427   0.000   0.000   4.990
   17        1.561   3.480   0.000   0.000   5.040
   18        1.562   3.469   0.000   0.000   5.031
   19        1.556   3.499   0.000   0.000   5.055
   20        1.562   3.469   0.000   0.000   5.031
tot         28.224  66.529  28.353   0.771 123.877

 magnetization (x)

[...]

  FORCE on cell =-STRESS in cart. coord.  units (eV):
  Direction    XX          YY          ZZ          XY          YZ          ZX
  Alpha Z   655.24735   655.24735   655.24735
  Ewald   -3437.46605 -3437.46605 -3437.46605   -20.03109   -20.03109   -20.03109
  Hartree   780.76000   780.76000   780.75997   -22.32280   -22.32282   -22.32282
  E(xc)    -697.45500  -697.45500  -697.45498     0.02970     0.02970     0.02970
  Local    -470.05813  -470.05813  -470.05733    42.59377    42.59366    42.59366
  n-local   277.83272   276.62012   277.39778    -0.50233    -0.86716     0.41067
  augment   326.45960   326.45960   326.46086    -0.02795    -0.02835    -0.02835
  Kinetic  2558.78715  2572.94432  2563.95284    -0.53199    -3.31873     4.03521
  Fock        0.00000     0.00000     0.00000     0.00000     0.00000     0.00000
  Total       0.00009     0.00009     0.00009    -0.01962    -0.01962    -0.01962
  in kB       0.00065     0.00065     0.00065    -0.13421    -0.13421    -0.13421

 VOLUME and BASIS-vectors are now :
  energy-cutoff  :      520.00
  volume of cell :      234.23
      direct lattice vectors                 reciprocal lattice vectors
    -3.882715045  0.000000000  3.882715046    -0.193154841  0.064396895  0.064396895
     0.000000000 -3.882715045  3.882715046     0.064396895 -0.193154841  0.064396895
     3.884877468  3.884877468  7.767592504     0.064361050  0.064361050  0.064361050

  length of vectors
     5.490988276  5.490988276  9.514201974     0.213547917  0.213547917  0.111476609

 FORCES acting on ions
    electron-ion (+dipol)            ewald-force                    non-local-force                 convergence-correction
   0.865E+02 0.865E+02 0.865E+02   -.854E+02 -.854E+02 -.854E+02   -.100E+01 -.100E+01 -.100E+01   -.344E-01 -.344E-01 -.344E-01
   0.835E-12 0.483E-12 0.695E-12   0.142E-13 -.426E-13 0.000E+00   -.542E-19 0.108E-18 0.108E-18   -.145E-12 -.150E-12 -.142E-12
   -.865E+02 -.865E+02 -.865E+02   0.854E+02 0.854E+02 0.854E+02   0.100E+01 0.100E+01 0.100E+01   0.344E-01 0.344E-01 0.344E-01
   -.163E-13 -.180E-13 -.544E-13   -.782E-13 0.284E-13 0.568E-13   0.000E+00 0.000E+00 0.000E+00   0.146E-12 0.146E-12 0.173E-12
   -.316E+02 -.316E+02 -.316E+02   0.313E+02 0.313E+02 0.313E+02   0.303E+00 0.303E+00 0.303E+00   0.198E-01 0.198E-01 0.198E-01
   0.316E+02 0.316E+02 0.316E+02   -.313E+02 -.313E+02 -.313E+02   -.303E+00 -.303E+00 -.303E+00   -.198E-01 -.198E-01 -.198E-01
   0.465E+02 0.465E+02 0.465E+02   -.447E+02 -.447E+02 -.447E+02   -.186E+01 -.186E+01 -.186E+01   -.462E-01 -.462E-01 -.462E-01
   -.465E+02 -.465E+02 -.465E+02   0.447E+02 0.447E+02 0.447E+02   0.186E+01 0.186E+01 0.186E+01   0.462E-01 0.462E-01 0.462E-01
   -.230E-11 -.108E-11 -.201E-11   -.711E-14 -.497E-13 -.497E-13   -.102E-19 -.339E-20 -.136E-19   0.103E-12 0.978E-13 0.331E-13
   -.252E+02 -.252E+02 -.536E+02   0.251E+02 0.251E+02 0.479E+02   0.112E+00 0.112E+00 0.564E+01   0.141E-01 0.141E-01 -.163E-01
   0.160E-12 0.154E-12 0.163E-12   0.426E-13 -.213E-13 -.142E-12   0.000E+00 0.000E+00 0.000E+00   -.884E-13 -.843E-13 -.125E-12
   0.252E+02 0.252E+02 0.536E+02   -.251E+02 -.251E+02 -.479E+02   -.112E+00 -.112E+00 -.564E+01   -.141E-01 -.141E-01 0.163E-01
   -.313E-11 -.135E-11 -.551E-11   0.000E+00 0.426E-13 -.711E-14   0.000E+00 -.339E-20 -.678E-20   0.104E-12 0.190E-13 0.850E-13
   -.252E+02 -.536E+02 -.252E+02   0.251E+02 0.479E+02 0.251E+02   0.112E+00 0.564E+01 0.112E+00   0.141E-01 -.163E-01 0.141E-01
   0.176E-12 0.629E-13 0.565E-12   -.213E-13 0.355E-13 0.462E-13   0.000E+00 0.000E+00 -.271E-19   -.995E-13 -.152E-12 -.995E-13
   0.252E+02 0.536E+02 0.252E+02   -.251E+02 -.479E+02 -.251E+02   -.112E+00 -.564E+01 -.112E+00   -.141E-01 0.163E-01 -.141E-01
   0.211E-13 -.173E-12 0.166E-12   -.426E-13 -.142E-13 -.355E-14   -.152E-19 0.339E-20 0.508E-20   0.569E-13 0.118E-12 0.106E-12
   -.536E+02 -.252E+02 -.252E+02   0.479E+02 0.251E+02 0.251E+02   0.564E+01 0.112E+00 0.112E+00   -.163E-01 0.141E-01 0.141E-01
   0.230E-12 0.171E-12 0.204E-12   -.711E-14 -.213E-13 0.284E-13   -.169E-20 0.169E-20 0.169E-19   -.119E-12 -.785E-13 -.817E-13
   0.536E+02 0.252E+02 0.252E+02   -.479E+02 -.251E+02 -.251E+02   -.564E+01 -.112E+00 -.112E+00   0.163E-01 -.141E-01 -.141E-01
   0.262E-12 0.892E-11 0.627E-11   -.711E-13 -.355E-14 0.639E-13   0.000E+00 0.874E-15 0.278E-16   -.111E-12 0.826E-14 0.102E-12

 POSITION                                       TOTAL-FORCE (eV/Angst)
      0.11116      0.11116      3.99388         0.024628      0.024628      0.024628
      0.00108      0.00108      7.76651         0.000000     -0.000000      0.000000
     -0.10900     -0.10900     11.53914        -0.024628     -0.024628     -0.024628
      0.00000      0.00000      0.00000         0.000000     -0.000000      0.000000
      1.94920      1.94920      9.71463        -0.002361     -0.002361     -0.002361
     -1.94704     -1.94704      5.81839         0.002361      0.002361      0.002361
     -1.95366     -1.95366      9.69448        -0.016426     -0.016426     -0.016426
      1.95582      1.95582      5.83854         0.016426      0.016426      0.016426
     -1.94136     -1.94136      3.88272         0.000000     -0.000000      0.000000
      1.95647      1.95647      7.82584        -0.023327     -0.023327      0.003087
      1.94244      1.94244      3.88380         0.000000     -0.000000     -0.000000
     -1.95431     -1.95431      7.70719         0.023327      0.023327     -0.003087
     -1.94136      0.00000      1.94136         0.000000     -0.000000      0.000000
      1.95647      0.06041      9.72190        -0.023327      0.003087     -0.023327
      1.94244      0.00108      5.82515         0.000000     -0.000000     -0.000000
     -1.95431     -0.05824      5.81112         0.023327     -0.003087      0.023327
      0.00000     -1.94136      1.94136         0.000000     -0.000000     -0.000000
      0.06041      1.95647      9.72190         0.003087     -0.023327     -0.023327
      0.00108      1.94244      5.82515         0.000000     -0.000000      0.000000
     -0.05824     -1.95431      5.81112        -0.003087      0.023327      0.023327
    total drift:                                0.000000      0.000000      0.000000

  FREE ENERGIE OF THE ION-ELECTRON SYSTEM (eV)
  free  energy   TOTEN  =      -146.99079222 eV

  energy  without entropy=     -146.99079222  energy(sigma->0) =     -146.99079222

 total charge

[...]

 magnetization (x)

# of ion       s       p       d       f       tot
    1       -0.000   0.001   0.006   0.003   0.009
    2       -0.000   0.001   0.003   0.001   0.005
    3       -0.000   0.001   0.006   0.003   0.009
    4        0.000   0.001   0.012   0.005   0.019
    5        0.022   0.024   3.247   0.000   3.293
    6        0.022   0.024   3.247   0.000   3.292
    7        0.011   0.007   1.665   0.000   1.683
    8        0.011   0.007   1.665   0.000   1.683
    9        0.002  -0.012   0.000   0.000  -0.010
   10        0.005  -0.041   0.000   0.000  -0.036
   11        0.007   0.032   0.000   0.000   0.039
   12        0.005  -0.041   0.000   0.000  -0.037
   13        0.002  -0.010   0.000   0.000  -0.008
   14        0.004  -0.047   0.000   0.000  -0.043
   15        0.007   0.035   0.000   0.000   0.042
   16        0.004  -0.047   0.000   0.000  -0.043
   17        0.002  -0.002   0.000   0.000  -0.001
   18        0.004  -0.043   0.000   0.000  -0.039
   19        0.008   0.043   0.000   0.000   0.051
   20        0.004  -0.043   0.000   0.000  -0.039
tot          0.120  -0.111   9.850   0.012   9.871

 BZINTS: Fermi energy:  7.761257;150.000000 electrons
         Band energy:-220.567559;  BLOECHL correction:  0.000000