 vasp.5.4.4.18Apr17-6-g9f103f2a35 (build Oct 03 2018 13:58:34) complex

 executed on             LinuxIFC date 2019.06.04  00:54:49

 INCAR:
 POTCAR:    PAW_PBE La 06Sep2000
 POTCAR:    PAW_PBE Mn 06Sep2000
 POTCAR:    PAW_PBE Ni 02Aug2007
 POTCAR:    PAW_PBE O 08Apr2002

 POTCAR:    PAW_PBE La 06Sep2000
   VRHFIN =La : [core=Kr4d]

   TITEL  = PAW_PBE La 06Sep2000
   POMASS =  138.900; ZVAL   =   11.000    mass and valenz
   ENMAX  =  219.292; ENMIN  =  164.469 eV

 POTCAR:    PAW_PBE Mn 06Sep2000
   VRHFIN =Mn: d6 s1

   TITEL  = PAW_PBE Mn 06Sep2000
   POMASS =   54.938; ZVAL   =    7.000    mass and valenz
   ENMAX  =  269.864; ENMIN  =  202.398 eV

 POTCAR:    PAW_PBE Ni 02Aug2007
   VRHFIN =Ni:

   TITEL  = PAW_PBE Ni 02Aug2007
   POMASS =   58.690; ZVAL   =   10.000    mass and valenz
   ENMAX  =  269.532; ENMIN  =  202.149 eV

 POTCAR:    PAW_PBE O 08Apr2002
   VRHFIN =O: s2p4

   TITEL  = PAW_PBE O 08Apr2002
   POMASS =   16.000; ZVAL   =    6.000    mass and valenz
   ENMAX  =  400.000; ENMIN  =  300.000 eV

 Optimization of the real space projectors (new method)

 maximal supplied QI-value         = 13.42
 optimisation between [QCUT,QGAM] = [ 11.67, 23.35] = [ 38.16,152.62] Ry
 Optimized for a Real-space Cutoff    1.63 Angstroem

   l    n(q)    QCUT    max X(q) W(low)/X(q) W(high)/X(q)  e(spline)
   0     11    11.673    13.882    0.27E-04    0.79E-05    0.11E-06
   0     11    11.673    12.184    0.39E-04    0.13E-04    0.19E-06
   1     11    11.673     4.523    0.73E-05    0.76E-05    0.12E-06
   1     11    11.673     4.424    0.87E-05    0.13E-04    0.19E-06
   2     10    11.673    52.481    0.65E-04    0.36E-04    0.18E-06
   2     10    11.673    38.501    0.61E-04    0.33E-04    0.17E-06
   3     10    11.673    65.631    0.17E-03    0.14E-03    0.37E-06
   3     10    11.673    56.854    0.17E-03    0.14E-03    0.37E-06
 Optimization of the real space projectors (new method)

[...]

   l    n(q)    QCUT    max X(q) W(low)/X(q) W(high)/X(q)  e(spline)
   2      9    11.539    60.317    0.19E-03    0.47E-04    0.16E-06
   2      9    11.539    55.921    0.19E-03    0.48E-04    0.16E-06
   0     10    11.539    51.690    0.80E-04    0.50E-04    0.24E-06
   0     10    11.539    30.015    0.73E-04    0.45E-04    0.22E-06
   1     10    11.539    18.849    0.87E-04    0.16E-03    0.71E-07
   1     10    11.539    14.624    0.73E-04    0.13E-03    0.64E-07
 Optimization of the real space projectors (new method)

 maximal supplied QI-value         = 24.76
 optimisation between [QCUT,QGAM] = [ 11.64, 23.27] = [ 37.91,151.63] Ry
 Optimized for a Real-space Cutoff    1.14 Angstroem

   l    n(q)    QCUT    max X(q) W(low)/X(q) W(high)/X(q)  e(spline)
   0      8    11.635    20.381    0.10E-03    0.33E-03    0.24E-06
   0      8    11.635    15.268    0.11E-03    0.35E-03    0.26E-06
   1      7    11.635     5.964    0.24E-03    0.31E-03    0.30E-06
   1      7    11.635     5.382    0.22E-03    0.25E-03    0.26E-06
  PAW_PBE La 06Sep2000                  :
  PAW_PBE Mn 06Sep2000                  :
  PAW_PBE Ni 02Aug2007                  :
  PAW_PBE O 08Apr2002                   :

 POSCAR: SCEL4_1_4_1_2_0_0/1
  positions in direct lattice
  velocities in cartesian coordinates
 exchange correlation table for  LEXCH =        8
   RHO(1)=    0.500       N(1)  =     2000
   RHO(2)=  100.500       N(2)  =     4000

 ion  position               nearest neighbor table
   1  0.000  0.266  0.500-  19 2.66  20 2.66  15 2.67  15 2.67  12 2.75  12 2.75  11 2.75  11 2.75
                             8 3.30   8 3.30   7 3.30   7 3.30   3 3.66
   2  0.000  0.500  0.000-  10 2.73  11 2.73  10 2.73  11 2.73  17 2.74  18 2.74  19 2.75  20 2.75
                            14 2.75  16 2.75  14 2.75  16 2.75   7 3.35   7 3.35   8 3.35   8 3.35
   3  0.000  0.734  0.500-  20 2.66  19 2.66  15 2.67  15 2.67   9 2.75   9 2.75  10 2.75  10 2.75
                             7 3.30   7 3.30   8 3.30   8 3.30   1 3.66
   4  0.000  0.000  0.000-   9 2.73  12 2.73   9 2.73  12 2.73  17 2.74  18 2.74  19 2.75  20 2.75
                            14 2.75  16 2.75  14 2.75  16 2.75   8 3.35   8 3.35   7 3.35   7 3.35
   5  0.500  0.875  0.251-  14 1.89  10 1.90  12 1.90  13 1.93  18 1.94  18 1.94   2 3.36   2 3.36
                             4 3.36   4 3.36
   6  0.500  0.125  0.749-  16 1.89  11 1.90   9 1.90  13 1.93  17 1.94  17 1.94   2 3.36   2 3.36
                             4 3.36   4 3.36
   7  0.500  0.374  0.248-  20 1.94  20 1.94  15 1.95  16 1.96  10 2.00  12 2.00   3 3.30   3 3.30
                             1 3.30   1 3.30   4 3.35   4 3.35   2 3.35   2 3.35
   8  0.500  0.626  0.752-  19 1.94  19 1.94  15 1.95  14 1.96  11 2.00   9 2.00   1 3.30   1 3.30
                             3 3.30   3 3.30   4 3.35   4 3.35   2 3.35   2 3.35
   9  0.500  0.882  0.751-   6 1.90   8 2.00   4 2.73   4 2.73   3 2.75   3 2.75
  10  0.500  0.631  0.249-   5 1.90   7 2.00   2 2.73   2 2.73   3 2.75   3 2.75
  11  0.500  0.369  0.751-   6 1.90   8 2.00   2 2.73   2 2.73   1 2.75   1 2.75
  12  0.500  0.118  0.249-   5 1.90   7 2.00   4 2.73   4 2.73   1 2.75   1 2.75
  13  0.500  0.000  0.500-   5 1.93   6 1.93
  14  0.500  0.753  0.006-   5 1.89   8 1.96   2 2.75   2 2.75   4 2.75   4 2.75
  15  0.500  0.500  0.500-   7 1.95   8 1.95   1 2.67   3 2.67   1 2.67   3 2.67
  16  0.500  0.247  0.994-   6 1.89   7 1.96   2 2.75   2 2.75   4 2.75   4 2.75
  17  0.000  0.125  0.751-   6 1.94   6 1.94   2 2.74   4 2.74
  18  0.000  0.875  0.249-   5 1.94   5 1.94   2 2.74   4 2.74
  19  0.000  0.625  0.750-   8 1.94   8 1.94   1 2.66   3 2.66   4 2.75   2 2.75
  20  0.000  0.375  0.250-   7 1.94   7 1.94   3 2.66   1 2.66   4 2.75   2 2.75

  LATTYP: Found a base centered orthorhombic cell.
 ALAT       =     7.8059891086
 B/A-ratio  =     1.9799744780
 C/A-ratio  =     0.4970235271

  Lattice vectors:

 A1 = (   0.0000000000,   7.7278296053,   3.9029945494)
 A2 = (   0.0000000000,  -7.7278296052,   3.9029945592)
 A3 = (   3.8797602390,   0.0000000000,   0.0000000000)

Analysis of symmetry for initial positions (statically):
 Subroutine PRICEL returns:
 Original cell was already a primitive cell.

 Routine SETGRP: Setting up the symmetry group for a
 base centered orthorhombic supercell.

 Subroutine GETGRP returns: Found  8 space group operations
 (whereof  4 operations were pure point group operations)
 out of a pool of  8 trial point group operations.

The static configuration has the point symmetry C_2h.
 The point group associated with its full space group is D_2h.

Analysis of symmetry for dynamics (positions and initial velocities):
 Subroutine PRICEL returns:
 Original cell was already a primitive cell.

[...]

The dynamic configuration has the point symmetry C_2h.
 The point group associated with its full space group is D_2h.

Analysis of structural, dynamic, and magnetic symmetry:
 Subroutine PRICEL returns:
 Original cell was already a primitive cell.

 Routine SETGRP: Setting up the symmetry group for a
 base centered orthorhombic supercell.

 Subroutine GETGRP returns: Found  8 space group operations
 (whereof  4 operations were pure point group operations)
 out of a pool of  8 trial point group operations.

The magnetic configuration has the point symmetry C_2h.
 The point group associated with its full space group is D_2h.

 Subroutine INISYM returns: Found  8 space group operations
 (whereof  4 operations are pure point group operations),
 and found     1 'primitive' translations

 KPOINTS: Automatic mesh

Automatic generation of k-mesh.
 generate k-points for:    5    3    3
Space group operators:
 irot       det(A)        alpha          n_x          n_y          n_z        tau_x        tau_y        tau_z
    1     1.000000     0.000000     1.000000     0.000000     0.000000     0.000000     0.000000     0.000000
    2    -1.000000     0.000000     1.000000     0.000000     0.000000     0.000000     0.000000     0.000000
    3     1.000000   180.000000     1.000000     0.000000     0.000000     0.000000     0.000000     0.000000
    4    -1.000000   180.000000     1.000000     0.000000     0.000000     0.000000     0.000000     0.000000
    5     1.000000   180.000000     0.000000    -1.000000     0.000000     0.000000     0.500000     0.000000
    6    -1.000000   180.000000     0.000000    -1.000000     0.000000     0.000000     0.500000    -0.000000
    7     1.000000   179.999999     0.000000     0.000000     1.000000     0.000000     0.500000    -0.000000
    8    -1.000000   179.999999     0.000000     0.000000     1.000000     0.000000     0.500000     0.000000

 Subroutine IBZKPT returns following result:

 Found     12 irreducible k-points:

 Following reciprocal coordinates:
            Coordinates               Weight
  0.000000  0.000000  0.000000      1.000000
  0.200000  0.000000  0.000000      2.000000
  0.400000  0.000000  0.000000      2.000000
  0.000000  0.333333 -0.000000      4.000000
  0.200000  0.333333 -0.000000      8.000000
  0.400000  0.333333 -0.000000      8.000000
  0.000000 -0.000000  0.333333      2.000000
  0.200000 -0.000000  0.333333      4.000000
  0.400000 -0.000000  0.333333      4.000000
  0.000000  0.333333  0.333333      2.000000
  0.200000  0.333333  0.333333      4.000000
  0.400000  0.333333  0.333333      4.000000

 Following cartesian coordinates:
            Coordinates               Weight
  0.000000  0.000000  0.000000      1.000000
 -0.051550  0.000000  0.000000      2.000000
 -0.103099  0.000000  0.000000      2.000000
  0.000000  0.021567  0.042702      4.000000
 -0.051550  0.021567  0.042702      8.000000
 -0.103099  0.021567  0.042702      8.000000
  0.000000  0.043134 -0.000000      2.000000
 -0.051550  0.043134 -0.000000      4.000000
 -0.103099  0.043134 -0.000000      4.000000
  0.000000  0.064701  0.042702      2.000000
 -0.051550  0.064701  0.042702      4.000000
 -0.103099  0.064701  0.042702      4.000000

 TETIRR: Found     90 inequivalent tetrahedra from      270

 SYSTEM =  final
 POSCAR =  SCEL4_1_4_1_2_0_0/1

 Startparameter for this run:
   NWRITE =      2    write-flag & timer
   PREC   = accura    normal or accurate (medium, high low for compatibility)
   ISTART =      0    job   : 0-new  1-cont  2-samecut
   ICHARG =      1    charge: 1-file 2-atom 10-const
   ISPIN  =      2    spin polarized calculation?
   LNONCOLLINEAR =      F non collinear calculations
   LSORBIT =      F    spin-orbit coupling
   INIWAV =      1    electr: 0-lowe 1-rand  2-diag
   LASPH  =      F    aspherical Exc in radial PAW
   METAGGA=      F    non-selfconsistent MetaGGA calc.

 Electronic Relaxation 1
   ENCUT  =  520.0 eV  38.22 Ry    6.18 a.u.   7.21 14.51 16.10*2*pi/ulx,y,z
   ENINI  =  520.0     initial cutoff
   ENAUG  =  605.4 eV  augmentation charge cutoff
   NELM   =    100;   NELMIN=  2; NELMDL= -5     # of ELM steps
   EDIFF  = 0.1E-02   stopping-criterion for ELM
   LREAL  =      T    real-space projection
   NLSPLINE    = F    spline interpolate recip. space projectors
   LCOMPAT=      F    compatible to vasp.4.4
   GGA_COMPAT  = T    GGA compatible to vasp.4.4-vasp.4.6
   LMAXPAW     = -100 max onsite density
[...]
  0.5258  0.5599

[...]

--------------------------------------- Iteration      1(  18)  ---------------------------------------

atom =   1  type =  1  l = 0

[...]

  o =  0.7830  v =  0.0000  1.0000      0.0000  0.0000
  o =  0.7891  v =  1.0000  0.0000      0.0000  0.0000
atom =  20  type =  4  l = 0

 onsite density matrix

[...]

  0.7830

 occupancies and eigenvectors

  o =  0.7830  v =  0.0000  1.0000      0.0000  0.0000
  o =  0.7891  v =  1.0000  0.0000      0.0000  0.0000
 BZINTS: Fermi energy:  7.654605;150.000000 electrons
         Band energy:-219.323189;  BLOECHL correction: -0.114743

 eigenvalue-minimisations  :  4730
 total energy-change (2. order) :-0.6878287E-03  (-0.7180491E-03)
 number of electron     150.0000021 magnetization       9.9996449
 augmentation part       19.3467529 magnetization       7.5361344

 Free energy of the ion-electron system (eV)
  alpha Z        PSCENC =       655.78702357
  Ewald energy   TEWEN  =    -10329.38850391
  -Hartree energ DENC   =     -2327.58153048
  -exchange      EXHF   =         0.00000000
  -V(xc)+E(xc)   XCENC  =       511.52727905
  PAW double counting   =     12448.13278687   -12527.23559615
  entropy T*S    EENTRO =         0.00000000
  eigenvalues    EBANDS =      -219.32318891
  atomic energy  EATOM  =     11641.04254247
  Solvation  Ediel_sol  =         0.00000000
  free energy    TOTEN  =      -147.03918749 eV

  energy without entropy =     -147.03918749  energy(sigma->0) =     -147.03918749

 average (electrostatic) potential at core
  the test charge radii are     1.1480  1.0210  0.9791  0.7215
  (the norm of the test charge is              1.0000)
       1 -95.4110       2 -95.4712       3 -95.4110       4 -95.4712       5 -43.1365
       6 -43.1365       7 -83.6244       8 -83.6244       9 -66.8625      10 -66.8625
      11 -66.8625      12 -66.8625      13 -66.9910      14 -67.0102      15 -66.6473
      16 -67.0102      17 -67.2022      18 -67.2022      19 -66.5575      20 -66.5575

 E-fermi :   7.6546     XC(G=0): -11.7256     alpha+bet :-16.5231

[...]

 k-point     1 :       0.0000    0.0000    0.0000
  band No.  band energies     occupation
      1     -23.9661      1.00000
      2     -23.8936      1.00000
      3     -23.8817      1.00000
      4     -23.8291      1.00000
      5     -11.3513      1.00000
      6     -11.0532      1.00000
      7     -10.9663      1.00000
      8     -10.7660      1.00000
      9     -10.0190      1.00000
     10      -9.9861      1.00000
     11      -9.8024      1.00000
     12      -9.7651      1.00000
     13      -9.7308      1.00000
     14      -9.6121      1.00000
     15      -9.4813      1.00000
     16      -9.4009      1.00000
     17      -7.4745      1.00000
     18      -7.4738      1.00000
     19      -7.4460      1.00000
     20      -7.3472      1.00000
     21      -7.3406      1.00000
     22      -7.3296      1.00000
     23      -7.2567      1.00000
     24      -7.1406      1.00000
     25      -7.1323      1.00000
     26      -6.8812      1.00000
     27      -6.7804      1.00000
     28      -6.5718      1.00000
     29       0.2951      1.00000
     30       0.5590      1.00000
     31       0.7863      1.00000
     32       1.4034      1.00000
     33       1.4426      1.00000
     34       1.4655      1.00000
     35       1.8245      1.00000
     36       2.0780      1.00000
     37       2.0954      1.00000
     38       2.1082      1.00000
     39       2.1446      1.00000
     40       2.2264      1.00000
     41       2.2458      1.00000
     42       2.7786      1.00000
     43       2.7829      1.00000
     44       2.8038      1.00000
     45       2.8257      1.00000
     46       3.0227      1.00000
     47       3.0259      1.00000
     48       3.2319      1.00000
     49       3.3050      1.00000
     50       3.3139      1.00000
     51       3.4702      1.00000
     52       3.6370      1.00000
     53       3.8124      1.00000
     54       3.8537      1.00000
     55       4.0675      1.00000
     56       4.2871      1.00000
     57       4.3576      1.00000
     58       4.8483      1.00000
     59       4.8626      1.00000
     60       4.8806      1.00000
[...]
     84       9.4848      0.00000
     85      10.1301      0.00000
     86      10.2373      0.00000
     87      10.7610      0.00000
     88      10.8281      0.00000
     89      10.8644      0.00000
     90      10.9579      0.00000
     91      10.9982      0.00000
     92      11.0199      0.00000
     93      11.0524      0.00000
     94      11.0586      0.00000
     95      11.0848      0.00000
     96      11.1293      0.00000
     97      11.1767      0.00000
     98      11.2407      0.00000

[...]

 spin component 2

[...]

 k-point    12 :       0.4000    0.3333    0.3333
  band No.  band energies     occupation
      1     -23.8770      1.00000
      2     -23.8632      1.00000
      3     -23.8282      1.00000
      4     -23.7786      1.00000
      5     -10.8632      1.00000
      6     -10.8245      1.00000
      7     -10.7022      1.00000
      8     -10.2882      1.00000
      9     -10.2043      1.00000
     10      -9.9613      1.00000
     11      -9.9360      1.00000
     12      -9.9133      1.00000
     13      -9.6555      1.00000
     14      -9.6281      1.00000
     15      -9.5303      1.00000
     16      -9.4704      1.00000
     17      -7.8408      1.00000
     18      -7.6250      1.00000
     19      -7.5532      1.00000
     20      -7.5104      1.00000
     21      -7.4807      1.00000
     22      -7.2518      1.00000
     23      -7.1430      1.00000
     24      -7.1140      1.00000
     25      -7.0051      1.00000
     26      -6.9433      1.00000
     27      -6.9052      1.00000
     28      -6.7720      1.00000
     29       1.2440      1.00000
     30       1.8817      1.00000
     31       1.9301      1.00000
     32       1.9929      1.00000
     33       2.2566      1.00000
     34       2.4604      1.00000
     35       2.4963      1.00000
     36       2.8037      1.00000
     37       2.8433      1.00000
     38       2.9035      1.00000
     39       2.9986      1.00000
     40       3.0899      1.00000
     41       3.2090      1.00000
     42       3.2166      1.00000
     43       3.4438      1.00000
     44       3.4672      1.00000
     45       3.5121      1.00000
     46       3.6796      1.00000
     47       3.7610      1.00000
     48       3.8805      1.00000
     49       4.0703      1.00000
     50       4.1664      1.00000
     51       4.2395      1.00000
     52       4.6137      1.00000
     53       5.0564      1.00000
     54       5.3075      1.00000
     55       5.4045      1.00000
     56       5.4199      1.00000
     57       5.6363      1.00000
     58       5.6677      1.00000
     59       5.7164      1.00000
     60       5.7730      1.00000
[...]
     84      11.0126      0.00000
     85      11.0345      0.00000
     86      11.0508      0.00000
     87      11.0554      0.00000
     88      11.0616      0.00000
     89      11.0664      0.00000
     90      11.0762      0.00000
     91      11.0952      0.00000
     92      11.1210      0.00000
     93      11.1462      0.00000
     94      11.1790      0.00000
     95      11.1941      0.00000
     96      11.2165      0.00000
     97      11.2299      0.00000
     98      11.2624      0.00000

 soft charge-density along one line, spin component           1
         0         1         2         3         4         5         6         7         8         9
 total charge-density along one line

 soft charge-density along one line, spin component           2
         0         1         2         3         4         5         6         7         8         9
 total charge-density along one line

------------------------ aborting loop because EDIFF is reached ----------------------------------------

 total charge

# of ion       s       p       d       f       tot
    1        2.000   5.698   0.495   0.191   8.383
    2        1.999   5.699   0.488   0.191   8.377
    3        2.000   5.698   0.495   0.191   8.383
    4        2.000   5.699   0.488   0.191   8.377
    5        0.347   0.547   4.864   0.000   5.759
    6        0.347   0.547   4.865   0.000   5.759
    7        0.401   0.582   8.324   0.000   9.306
    8        0.401   0.582   8.324   0.000   9.306
    9        1.562   3.455   0.000   0.000   5.017
   10        1.562   3.456   0.000   0.000   5.018
   11        1.562   3.456   0.000   0.000   5.018
   12        1.562   3.455   0.000   0.000   5.017
   13        1.561   3.463   0.000   0.000   5.024
   14        1.562   3.457   0.000   0.000   5.019
   15        1.559   3.455   0.000   0.000   5.014
   16        1.562   3.457   0.000   0.000   5.019
   17        1.565   3.453   0.000   0.000   5.018
   18        1.565   3.453   0.000   0.000   5.018
   19        1.557   3.455   0.000   0.000   5.011
   20        1.557   3.455   0.000   0.000   5.011
tot         28.231  66.520  28.341   0.763 123.855

 magnetization (x)

[...]

  FORCE on cell =-STRESS in cart. coord.  units (eV):
  Direction    XX          YY          ZZ          XY          YZ          ZX
  Alpha Z   655.78702   655.78702   655.78702
  Ewald   -3398.16684 -3405.71337 -3525.53804     0.00000     0.00000    -0.00000
  Hartree   817.45138   798.92183   710.81128     0.00000     0.00001    -0.00000
  E(xc)    -697.37729  -697.50063  -697.67025     0.00000    -0.00001     0.00000
  Local    -546.24405  -517.97318  -314.81793    -0.00000    -0.00045     0.00000
  n-local   277.91667   277.75693   276.99833     0.14025     0.15432    -0.34546
  augment   326.50088   325.56457   326.89094    -0.00000     0.00103     0.00000
  Kinetic  2564.24138  2563.54277  2567.06481    -0.18092    -0.42222     1.01858
  Fock        0.00000     0.00000     0.00000     0.00000     0.00000     0.00000
  Total       0.10915     0.38594    -0.47384     0.00000    -0.00000     0.00000
  in kB       0.74720     2.64205    -3.24376     0.00000    -0.00000     0.00000

 VOLUME and BASIS-vectors are now :
  energy-cutoff  :      520.00
  volume of cell :      234.04
      direct lattice vectors                 reciprocal lattice vectors
    -3.879760239  0.000000000  0.000000000    -0.257747886  0.000000000  0.000000000
     0.000000000  0.000000000  7.805989109     0.000000000  0.064701220  0.128106763
     0.000000000  7.727829605 -3.902994559     0.000000000  0.129402439 -0.000000000

  length of vectors
     3.879760239  7.805989109  8.657523718     0.257747886  0.143518607  0.129402439

 FORCES acting on ions
    electron-ion (+dipol)            ewald-force                    non-local-force                 convergence-correction
   0.199E-14 -.266E-05 0.125E+03   -.401E-13 -.647E-07 -.124E+03   0.108E-18 -.153E-10 -.122E+01   -.261E-13 0.268E-07 -.946E-01
   0.613E-14 -.367E-10 0.135E-09   0.100E-13 -.861E-11 0.327E-11   0.000E+00 0.000E+00 0.108E-18   -.257E-13 0.723E-13 0.737E-13
   0.552E-14 0.266E-05 -.125E+03   0.458E-13 0.647E-07 0.124E+03   0.000E+00 0.153E-10 0.122E+01   -.197E-13 -.268E-07 0.946E-01
   0.746E-14 -.379E-10 0.107E-09   -.499E-14 0.865E-11 0.327E-11   0.000E+00 0.000E+00 0.136E-18   -.213E-13 0.528E-13 -.988E-13
   -.480E-13 -.354E+02 -.672E-05   -.435E-13 0.352E+02 -.342E-07   -.542E-19 0.214E+00 -.134E-09   -.938E-14 0.309E-01 0.213E-08
   -.460E-13 0.354E+02 0.672E-05   0.364E-13 -.352E+02 0.342E-07   0.542E-19 -.214E+00 0.134E-09   -.653E-14 -.309E-01 -.213E-08
   -.311E-12 0.346E+02 0.186E-05   0.224E-13 -.337E+02 0.500E-07   0.108E-18 -.967E+00 0.608E-09   -.376E-13 -.528E-01 -.112E-06
   -.315E-12 -.346E+02 -.186E-05   -.267E-13 0.337E+02 -.501E-07   -.108E-18 0.967E+00 -.608E-09   -.454E-13 0.528E-01 0.112E-06
   -.118E-12 0.535E+01 -.530E+02   -.382E-14 -.562E+01 0.475E+02   0.000E+00 0.276E+00 0.543E+01   -.589E-14 0.960E-04 0.142E-01
   -.117E-12 -.535E+01 -.530E+02   0.367E-13 0.562E+01 0.475E+02   0.000E+00 -.276E+00 0.543E+01   -.510E-14 -.961E-04 0.142E-01
   -.118E-12 0.535E+01 0.530E+02   -.275E-13 -.562E+01 -.475E+02   0.000E+00 0.276E+00 -.543E+01   -.966E-14 0.961E-04 -.142E-01
   -.119E-12 -.535E+01 0.530E+02   0.950E-14 0.562E+01 -.475E+02   0.000E+00 -.276E+00 -.543E+01   -.129E-13 -.960E-04 -.142E-01
   -.117E-12 -.329E-10 0.111E-09   -.596E-14 0.000E+00 0.392E-11   0.000E+00 0.000E+00 0.000E+00   -.703E-14 -.151E-12 0.929E-13
   -.115E-12 -.469E+02 -.191E-04   0.140E-13 0.418E+02 -.608E-07   0.217E-18 0.513E+01 -.322E-08   -.703E-14 0.542E-02 -.140E-06
   -.115E-12 -.292E-10 0.114E-09   0.936E-14 -.711E-13 -.126E-10   0.000E+00 0.000E+00 0.000E+00   -.690E-14 -.746E-13 0.362E-13
   -.116E-12 0.469E+02 0.191E-04   -.182E-13 -.418E+02 0.608E-07   -.217E-18 -.513E+01 0.322E-08   -.364E-14 -.542E-02 0.140E-06
   0.114E-14 0.282E+02 -.981E-05   -.380E-13 -.290E+02 0.231E-07   0.000E+00 0.863E+00 -.542E-09   -.176E-13 -.174E-01 0.400E-07
   -.304E-14 -.282E+02 0.981E-05   0.349E-13 0.290E+02 -.231E-07   0.000E+00 -.863E+00 0.542E-09   -.913E-14 0.174E-01 -.400E-07
   0.735E-15 -.217E+02 0.372E-05   0.482E-14 0.221E+02 -.247E-07   0.000E+00 -.481E+00 0.302E-09   -.257E-14 0.180E-01 -.519E-07
   0.628E-14 0.217E+02 -.372E-05   -.349E-13 -.221E+02 0.247E-07   0.000E+00 0.481E+00 -.302E-09   -.825E-14 -.180E-01 0.519E-07
   -.163E-11 -.561E-09 0.162E-08   -.196E-13 -.249E-13 0.359E-13   0.108E-18 0.555E-16 0.888E-15   -.287E-12 -.254E-12 0.248E-12

 POSITION                                       TOTAL-FORCE (eV/Angst)
      0.00000      3.86391      0.12263         0.000000      0.000000      0.064246
      0.00000      0.00000      3.90299         0.000000      0.000000      0.000000
      0.00000      3.86391      3.78036         0.000000     -0.000000     -0.064246
      0.00000      0.00000      0.00000         0.000000      0.000000      0.000000
     -1.93988      1.93687      5.85449         0.000000      0.070005     -0.000000
     -1.93988      5.79096     -1.95150         0.000000     -0.070005      0.000000
     -1.93988      1.91278      1.95150         0.000000     -0.022993      0.000000
     -1.93988      5.81505      1.95150         0.000000      0.022993     -0.000000
     -1.93988      5.80405      3.95557         0.000000      0.000228     -0.022990
     -1.93988      1.92378      3.95557         0.000000     -0.000228     -0.022990
     -1.93988      5.80405     -0.05257         0.000000      0.000228      0.022990
     -1.93988      1.92378     -0.05257         0.000000     -0.000228      0.022990
     -1.93988      3.86391     -1.95150         0.000000      0.000000      0.000000
     -1.93988      0.04851      5.85449         0.000000     -0.004268      0.000000
     -1.93988      3.86391      1.95150         0.000000      0.000000      0.000000
     -1.93988      7.67932     -1.95150         0.000000      0.004268     -0.000000
      0.00000      5.80336     -1.95150         0.000000      0.032157     -0.000000
      0.00000      1.92447      5.85449         0.000000     -0.032157      0.000000
      0.00000      5.79352      1.95150        -0.000000     -0.034141      0.000000
      0.00000      1.93431      1.95150         0.000000      0.034141     -0.000000
    total drift:                               -0.000000     -0.000000      0.000000

  FREE ENERGIE OF THE ION-ELECTRON SYSTEM (eV)
  free  energy   TOTEN  =      -147.03918749 eV

  energy  without entropy=     -147.03918749  energy(sigma->0) =     -147.03918749

 total charge

[...]

 magnetization (x)

# of ion       s       p       d       f       tot
    1        0.000   0.001   0.006   0.003   0.009
    2        0.000   0.001   0.009   0.004   0.014
    3        0.000   0.001   0.006   0.003   0.009
    4        0.000   0.001   0.009   0.004   0.014
    5        0.023   0.026   3.333   0.000   3.382
    6        0.023   0.026   3.333   0.000   3.383
    7        0.013   0.005   1.625   0.000   1.643
    8        0.013   0.005   1.625   0.000   1.643
    9        0.005  -0.011   0.000   0.000  -0.006
   10        0.005  -0.008   0.000   0.000  -0.002
   11        0.005  -0.008   0.000   0.000  -0.002
   12        0.005  -0.011   0.000   0.000  -0.006
   13        0.002  -0.011   0.000   0.000  -0.009
   14        0.004  -0.037   0.000   0.000  -0.033
   15        0.007  -0.019   0.000   0.000  -0.013
   16        0.004  -0.037   0.000   0.000  -0.033
   17        0.004  -0.059   0.000   0.000  -0.055
   18        0.004  -0.059   0.000   0.000  -0.055
   19        0.006  -0.011   0.000   0.000  -0.005
   20        0.006  -0.011   0.000   0.000  -0.005
tot          0.131  -0.218   9.945   0.014   9.872

 BZINTS: Fermi energy:  7.654605;150.000000 electrons
         Band energy:-219.323189;  BLOECHL correction: -0.114743