 vasp.5.4.4.18Apr17-6-g9f103f2a35 (build Oct 03 2018 13:58:34) complex

 executed on             LinuxIFC date 2019.06.04  00:58:45

 INCAR:
 POTCAR:    PAW_PBE La 06Sep2000
 POTCAR:    PAW_PBE Mn 06Sep2000
 POTCAR:    PAW_PBE Ni 02Aug2007
 POTCAR:    PAW_PBE O 08Apr2002

 POTCAR:    PAW_PBE La 06Sep2000
   VRHFIN =La : [core=Kr4d]

   TITEL  = PAW_PBE La 06Sep2000
   POMASS =  138.900; ZVAL   =   11.000    mass and valenz
   ENMAX  =  219.292; ENMIN  =  164.469 eV

 POTCAR:    PAW_PBE Mn 06Sep2000
   VRHFIN =Mn: d6 s1

   TITEL  = PAW_PBE Mn 06Sep2000
   POMASS =   54.938; ZVAL   =    7.000    mass and valenz
   ENMAX  =  269.864; ENMIN  =  202.398 eV

 POTCAR:    PAW_PBE Ni 02Aug2007
   VRHFIN =Ni:

   TITEL  = PAW_PBE Ni 02Aug2007
   POMASS =   58.690; ZVAL   =   10.000    mass and valenz
   ENMAX  =  269.532; ENMIN  =  202.149 eV

 POTCAR:    PAW_PBE O 08Apr2002
   VRHFIN =O: s2p4

   TITEL  = PAW_PBE O 08Apr2002
   POMASS =   16.000; ZVAL   =    6.000    mass and valenz
   ENMAX  =  400.000; ENMIN  =  300.000 eV

 Optimization of the real space projectors (new method)

 maximal supplied QI-value         = 13.42
 optimisation between [QCUT,QGAM] = [ 11.67, 23.35] = [ 38.16,152.62] Ry
 Optimized for a Real-space Cutoff    1.63 Angstroem

   l    n(q)    QCUT    max X(q) W(low)/X(q) W(high)/X(q)  e(spline)
   0     11    11.673    13.882    0.27E-04    0.79E-05    0.11E-06
   0     11    11.673    12.184    0.39E-04    0.13E-04    0.19E-06
   1     11    11.673     4.523    0.73E-05    0.76E-05    0.12E-06
   1     11    11.673     4.424    0.87E-05    0.13E-04    0.19E-06
   2     10    11.673    52.481    0.65E-04    0.36E-04    0.18E-06
   2     10    11.673    38.501    0.61E-04    0.33E-04    0.17E-06
   3     10    11.673    65.631    0.17E-03    0.14E-03    0.37E-06
   3     10    11.673    56.854    0.17E-03    0.14E-03    0.37E-06
 Optimization of the real space projectors (new method)

[...]

   l    n(q)    QCUT    max X(q) W(low)/X(q) W(high)/X(q)  e(spline)
   2      9    11.539    60.317    0.19E-03    0.47E-04    0.16E-06
   2      9    11.539    55.921    0.19E-03    0.48E-04    0.16E-06
   0     10    11.539    51.690    0.80E-04    0.50E-04    0.24E-06
   0     10    11.539    30.015    0.73E-04    0.45E-04    0.22E-06
   1     10    11.539    18.849    0.87E-04    0.16E-03    0.71E-07
   1     10    11.539    14.624    0.73E-04    0.13E-03    0.64E-07
 Optimization of the real space projectors (new method)

 maximal supplied QI-value         = 24.76
 optimisation between [QCUT,QGAM] = [ 11.64, 23.27] = [ 37.91,151.63] Ry
 Optimized for a Real-space Cutoff    1.14 Angstroem

   l    n(q)    QCUT    max X(q) W(low)/X(q) W(high)/X(q)  e(spline)
   0      8    11.635    20.381    0.10E-03    0.33E-03    0.24E-06
   0      8    11.635    15.268    0.11E-03    0.35E-03    0.26E-06
   1      7    11.635     5.964    0.24E-03    0.31E-03    0.30E-06
   1      7    11.635     5.382    0.22E-03    0.25E-03    0.26E-06
  PAW_PBE La 06Sep2000                  :
  PAW_PBE Mn 06Sep2000                  :
  PAW_PBE Ni 02Aug2007                  :
  PAW_PBE O 08Apr2002                   :

 POSCAR: SCEL6_1_3_2_1_0_0/6
  positions in direct lattice
  velocities in cartesian coordinates
 exchange correlation table for  LEXCH =        8
   RHO(1)=    0.500       N(1)  =     2000
   RHO(2)=  100.500       N(2)  =     4000

 ion  position               nearest neighbor table
   1  0.000  0.668  0.173-  28 2.67  17 2.69  17 2.69  22 2.71  22 2.71  29 2.73  30 2.76  23 2.77
                            23 2.77  13 2.78  13 2.78  25 2.81  10 3.30  10 3.30  11 3.34  11 3.34
   2  0.000  0.332  0.327-  30 2.67  18 2.69  18 2.69  22 2.71  22 2.71  29 2.73  28 2.76  21 2.77
                            21 2.77  16 2.78  16 2.78  27 2.81  12 3.30  12 3.30  11 3.34  11 3.34
   3  0.000  0.993  0.497-  28 2.67  17 2.70  17 2.70  20 2.72  20 2.72  29 2.73  26 2.75  21 2.77
                            21 2.77  15 2.78  15 2.78  27 2.81  10 3.31  10 3.31  11 3.34  11 3.34
   4  0.000  0.675  0.663-  20 2.67  20 2.67  26 2.67  28 2.67  14 2.73  14 2.73  16 2.73  16 2.73
                            25 2.79  27 2.79  19 2.80  19 2.80   9 3.30   9 3.30  10 3.30  10 3.30
   5  0.000  0.325  0.837-  24 2.67  24 2.67  26 2.67  30 2.67  15 2.73  15 2.73  13 2.73  13 2.73
                            27 2.79  25 2.79  19 2.80  19 2.80   9 3.30   9 3.30  12 3.30  12 3.30
   6  0.000  0.007  0.003-  30 2.67  18 2.70  18 2.70  24 2.72  24 2.72  29 2.73  26 2.75  23 2.77
                            23 2.77  14 2.78  14 2.78  25 2.81  12 3.31  12 3.31  11 3.34  11 3.34
   7  0.500  0.667  0.917-  23 1.88  14 1.90  13 1.90  25 1.93  25 1.93  19 1.94   6 3.40   6 3.40
                             1 3.40   1 3.40   4 3.41   4 3.41   5 3.41   5 3.41
   8  0.500  0.333  0.583-  21 1.88  15 1.90  16 1.90  27 1.93  27 1.93  19 1.94   3 3.40   3 3.40
                             2 3.40   2 3.40   5 3.41   5 3.41   4 3.41   4 3.41
   9  0.500  0.000  0.750-  26 1.93  26 1.93  20 1.94  24 1.94  14 1.98  15 1.98   4 3.30   4 3.30
                             5 3.30   5 3.30   6 3.36   3 3.36   6 3.36   3 3.36
  10  0.500  0.666  0.416-  22 1.93  20 1.93  28 1.93  28 1.93  17 1.96  16 1.97   1 3.30   1 3.30
                             4 3.30   4 3.30   3 3.31   3 3.31   2 3.35   2 3.35
  11  0.500  0.000  0.250-  17 1.93  18 1.93  29 1.93  29 1.93  21 1.98  23 1.98   3 3.34   3 3.34
                             6 3.34   6 3.34   2 3.34   2 3.34   1 3.34   1 3.34
  12  0.500  0.334  0.084-  22 1.93  24 1.93  30 1.93  30 1.93  18 1.96  13 1.97   2 3.30   2 3.30
                             5 3.30   5 3.30   6 3.31   6 3.31   1 3.35   1 3.35
  13  0.500  0.502  0.997-   7 1.90  12 1.97   5 2.73   5 2.73   1 2.78   1 2.78
  14  0.500  0.829  0.834-   7 1.90   9 1.98   4 2.73   4 2.73   6 2.78   6 2.78
  15  0.500  0.171  0.666-   8 1.90   9 1.98   5 2.73   5 2.73   3 2.78   3 2.78
  16  0.500  0.498  0.503-   8 1.90  10 1.97   4 2.73   4 2.73   2 2.78   2 2.78
  17  0.500  0.834  0.333-  11 1.93  10 1.96   1 2.69   1 2.69   3 2.70   3 2.70
  18  0.500  0.166  0.167-  11 1.93  12 1.96   2 2.69   2 2.69   6 2.70   6 2.70
  19  0.500  0.500  0.750-   7 1.94   8 1.94   4 2.80   5 2.80   4 2.80   5 2.80
  20  0.500  0.832  0.583-  10 1.93   9 1.94   4 2.67   4 2.67   3 2.72   3 2.72
  21  0.500  0.171  0.421-   8 1.88  11 1.98   3 2.77   3 2.77   2 2.77   2 2.77
  22  0.500  0.500  0.250-  10 1.93  12 1.93   1 2.71   2 2.71   1 2.71   2 2.71
  23  0.500  0.829  0.079-   7 1.88  11 1.98   6 2.77   6 2.77   1 2.77   1 2.77
  24  0.500  0.168  0.917-  12 1.93   9 1.94   5 2.67   5 2.67   6 2.72   6 2.72
  25  0.000  0.665  0.916-   7 1.93   7 1.93   4 2.79   5 2.79   6 2.81   1 2.81
  26  0.000  0.000  0.750-   9 1.93   9 1.93   4 2.67   5 2.67   3 2.75   6 2.75
  27  0.000  0.335  0.584-   8 1.93   8 1.93   5 2.79   4 2.79   3 2.81   2 2.81
  28  0.000  0.668  0.417-  10 1.93  10 1.93   3 2.67   1 2.67   4 2.67   2 2.76
  29  0.000  0.000  0.250-  11 1.93  11 1.93   3 2.73   6 2.73   1 2.73   2 2.73
  30  0.000  0.332  0.083-  12 1.93  12 1.93   6 2.67   2 2.67   5 2.67   1 2.76

  LATTYP: Found a simple monoclinic cell.
 ALAT       =    11.5926439551
 B/A-ratio  =     0.3336203208
 C/A-ratio  =     1.4916420123
 COS(beta)  =    -0.8938010537

  Lattice vectors:

 A1 = (   0.0000000000, -11.5926439210,   0.0008893387)
 A2 = (   3.8675415955,   0.0000000000,   0.0000000000)
 A3 = (   0.0000000000,  15.4562695143,   7.7536818422)

Analysis of symmetry for initial positions (statically):
 Subroutine PRICEL returns:
 Original cell was already a primitive cell.

 Routine SETGRP: Setting up the symmetry group for a
 simple monoclinic supercell.

 Subroutine GETGRP returns: Found  4 space group operations
 (whereof  2 operations were pure point group operations)
 out of a pool of  4 trial point group operations.

The static configuration has the point symmetry C_1h.
 The point group associated with its full space group is C_2h.

Analysis of symmetry for dynamics (positions and initial velocities):
 Subroutine PRICEL returns:
 Original cell was already a primitive cell.

[...]

The dynamic configuration has the point symmetry C_1h.
 The point group associated with its full space group is C_2h.

Analysis of structural, dynamic, and magnetic symmetry:
 Subroutine PRICEL returns:
 Original cell was already a primitive cell.

 Routine SETGRP: Setting up the symmetry group for a
 simple monoclinic supercell.

 Subroutine GETGRP returns: Found  4 space group operations
 (whereof  2 operations were pure point group operations)
 out of a pool of  4 trial point group operations.

The magnetic configuration has the point symmetry C_1h.
 The point group associated with its full space group is C_2h.

 Subroutine INISYM returns: Found  4 space group operations
 (whereof  2 operations are pure point group operations),
 and found     1 'primitive' translations

 KPOINTS: Automatic mesh

Automatic generation of k-mesh.
 generate k-points for:    5    2    2
Space group operators:
 irot       det(A)        alpha          n_x          n_y          n_z        tau_x        tau_y        tau_z
    1     1.000000     0.000000     1.000000     0.000000     0.000000     0.000000     0.000000     0.000000
    2    -1.000000   180.000000     1.000000     0.000000     0.000000     0.000000     0.000000     0.000000
    3    -1.000000     0.000000     1.000000     0.000000     0.000000     0.000000     1.000000     0.500000
    4     1.000000   180.000000     1.000000     0.000000     0.000000     0.000000     1.000000     0.500000

 Subroutine IBZKPT returns following result:

 Found     12 irreducible k-points:

 Following reciprocal coordinates:
            Coordinates               Weight
  0.000000  0.000000  0.000000      1.000000
  0.200000  0.000000  0.000000      2.000000
  0.400000  0.000000  0.000000      2.000000
  0.000000  0.500000  0.000000      1.000000
  0.200000  0.500000  0.000000      2.000000
  0.400000  0.500000  0.000000      2.000000
  0.000000  0.000000  0.500000      1.000000
  0.200000  0.000000  0.500000      2.000000
  0.400000  0.000000  0.500000      2.000000
  0.000000  0.500000  0.500000      1.000000
  0.200000  0.500000  0.500000      2.000000
  0.400000  0.500000  0.500000      2.000000

 Following cartesian coordinates:
            Coordinates               Weight
  0.000000  0.000000  0.000000      1.000000
 -0.051712  0.000000  0.000000      2.000000
 -0.103425  0.000000  0.000000      2.000000
  0.000000  0.043134  0.042987      1.000000
 -0.051712  0.043134  0.042987      2.000000
 -0.103425  0.043134  0.042987      2.000000
  0.000000  0.043129 -0.021489      1.000000
 -0.051712  0.043129 -0.021489      2.000000
 -0.103425  0.043129 -0.021489      2.000000
  0.000000  0.086263  0.021498      1.000000
 -0.051712  0.086263  0.021498      2.000000
 -0.103425  0.086263  0.021498      2.000000

 TETIRR: Found     60 inequivalent tetrahedra from      120

 SYSTEM =  final
 POSCAR =  SCEL6_1_3_2_1_0_0/6

 Startparameter for this run:
   NWRITE =      2    write-flag & timer
[...]
     30      -7.1265      1.00000
     31      -7.1228      1.00000
     32      -7.0665      1.00000
     33      -7.0547      1.00000
     34      -7.0289      1.00000
     35      -7.0287      1.00000
     36      -6.8571      1.00000
     37      -6.8320      1.00000
     38      -6.7638      1.00000
     39      -6.6800      1.00000
     40      -6.5967      1.00000
     41      -6.5707      1.00000
     42      -6.3701      1.00000
     43       0.4209      1.00000
     44       0.6487      1.00000
     45       0.6874      1.00000
     46       0.8412      1.00000
     47       0.9855      1.00000
     48       1.0417      1.00000
     49       1.4457      1.00000
     50       1.5488      1.00000
     51       1.6629      1.00000
     52       1.9237      1.00000
     53       1.9897      1.00000
     54       2.0526      1.00000
     55       2.0865      1.00000
     56       2.1099      1.00000
     57       2.1175      1.00000
     58       2.1292      1.00000
     59       2.2234      1.00000
     60       2.2276      1.00000
[...]
    132      11.0454      0.00000
    133      11.0764      0.00000
    134      11.1577      0.00000
    135      11.2103      0.00000
    136      11.2366      0.00000
    137      11.2404      0.00000
    138      11.2664      0.00000
    139      11.2838      0.00000
    140      11.3030      0.00000
    141      11.3254      0.00000
    142      11.3405      0.00000
    143      11.3573      0.00000
    144      11.3736      0.00000
    145      11.3973      0.00000
    146      11.4337      0.00000

[...]

 spin component 2

[...]

 k-point    12 :       0.4000    0.5000    0.5000
  band No.  band energies     occupation
      1     -23.6478      1.00000
      2     -23.6340      1.00000
      3     -23.6193      1.00000
      4     -23.6174      1.00000
      5     -23.5728      1.00000
      6     -23.5714      1.00000
      7     -10.8529      1.00000
      8     -10.8218      1.00000
      9     -10.6286      1.00000
     10     -10.6213      1.00000
     11     -10.1642      1.00000
     12     -10.1288      1.00000
     13     -10.0754      1.00000
     14     -10.0607      1.00000
     15      -9.9132      1.00000
     16      -9.8913      1.00000
     17      -9.7735      1.00000
     18      -9.7242      1.00000
     19      -9.6234      1.00000
     20      -9.6148      1.00000
     21      -9.5149      1.00000
     22      -9.4577      1.00000
     23      -9.4342      1.00000
     24      -9.2940      1.00000
     25      -7.6029      1.00000
     26      -7.5678      1.00000
     27      -7.4617      1.00000
     28      -7.4408      1.00000
     29      -7.2189      1.00000
     30      -7.2134      1.00000
     31      -7.1140      1.00000
     32      -7.0983      1.00000
     33      -7.0599      1.00000
     34      -7.0458      1.00000
     35      -6.9348      1.00000
     36      -6.8913      1.00000
     37      -6.8440      1.00000
     38      -6.8251      1.00000
     39      -6.7100      1.00000
     40      -6.7058      1.00000
     41      -6.6398      1.00000
     42      -6.5403      1.00000
     43       1.2502      1.00000
     44       1.3256      1.00000
     45       1.8420      1.00000
     46       1.9474      1.00000
     47       2.0406      1.00000
     48       2.0713      1.00000
     49       2.2046      1.00000
     50       2.2300      1.00000
     51       2.3153      1.00000
     52       2.3898      1.00000
     53       2.4895      1.00000
     54       2.5485      1.00000
     55       2.6142      1.00000
     56       2.6427      1.00000
     57       2.6766      1.00000
     58       2.7512      1.00000
     59       2.7650      1.00000
     60       2.8543      1.00000
[...]
    132      11.2891      0.00000
    133      11.2984      0.00000
    134      11.3066      0.00000
    135      11.3107      0.00000
    136      11.3220      0.00000
    137      11.3304      0.00000
    138      11.3515      0.00000
    139      11.3557      0.00000
    140      11.3596      0.00000
    141      11.3744      0.00000
    142      11.3964      0.00000
    143      11.3988      0.00000
    144      11.4214      0.00000
    145      11.4455      0.00000
    146      11.4753      0.00000

 soft charge-density along one line, spin component           1
         0         1         2         3         4         5         6         7         8         9
 total charge-density along one line

 soft charge-density along one line, spin component           2
         0         1         2         3         4         5         6         7         8         9
 total charge-density along one line

------------------------ aborting loop because EDIFF is reached ----------------------------------------

 total charge

# of ion       s       p       d       f       tot
    1        2.000   5.700   0.492   0.191   8.383
    2        2.000   5.700   0.492   0.191   8.383
    3        2.000   5.700   0.493   0.191   8.383
    4        2.001   5.701   0.498   0.193   8.393
    5        2.001   5.701   0.498   0.193   8.393
    6        2.000   5.700   0.493   0.191   8.384
    7        0.347   0.546   4.860   0.000   5.753
    8        0.347   0.546   4.860   0.000   5.753
    9        0.410   0.605   8.316   0.000   9.331
   10        0.420   0.629   8.320   0.000   9.370
   11        0.415   0.615   8.310   0.000   9.340
   12        0.420   0.629   8.320   0.000   9.370
   13        1.562   3.455   0.000   0.000   5.017
   14        1.563   3.454   0.000   0.000   5.016
   15        1.563   3.454   0.000   0.000   5.016
   16        1.562   3.455   0.000   0.000   5.017
   17        1.561   3.439   0.000   0.000   5.000
   18        1.561   3.439   0.000   0.000   5.000
   19        1.562   3.466   0.000   0.000   5.027
   20        1.561   3.443   0.000   0.000   5.004
   21        1.564   3.450   0.000   0.000   5.014
   22        1.561   3.442   0.000   0.000   5.002
   23        1.564   3.450   0.000   0.000   5.014
   24        1.561   3.443   0.000   0.000   5.004
   25        1.565   3.455   0.000   0.000   5.020
   26        1.559   3.447   0.000   0.000   5.006
   27        1.565   3.455   0.000   0.000   5.020
   28        1.560   3.447   0.000   0.000   5.008
   29        1.560   3.438   0.000   0.000   4.997
   30        1.560   3.447   0.000   0.000   5.008
tot         42.476  99.848  45.954   1.149 189.426

 magnetization (x)

[...]

  FORCE on cell =-STRESS in cart. coord.  units (eV):
  Direction    XX          YY          ZZ          XY          YZ          ZX
  Alpha Z   988.18435   988.18435   988.18435
  Ewald   -5232.67512 -5292.47824 -5389.68298     0.00000     5.25111     0.00000
  Hartree  1311.93112  1250.40930  1175.22724     0.00000     5.31030    -0.00000
  E(xc)   -1066.52911 -1066.66906 -1066.79245    -0.00000    -0.00034    -0.00000
  Local    -923.28198  -799.65790  -633.52552    -0.00000   -10.48103    -0.00000
  n-local   429.53423   429.61568   428.93315    -0.00059     0.00331    -0.00010
  augment   634.12502   633.02140   635.45225     0.00000    -0.02253    -0.00000
  Kinetic  3857.85662  3856.68380  3861.65327     0.00060    -0.08006     0.00084
  Fock        0.00000     0.00000     0.00000     0.00000     0.00000     0.00000
  Total      -0.85488    -0.89067    -0.55069     0.00000    -0.01925     0.00000
  in kB      -3.93935    -4.10427    -2.53763     0.00000    -0.08871     0.00000

 VOLUME and BASIS-vectors are now :
  energy-cutoff  :      520.00
  volume of cell :      347.69
      direct lattice vectors                 reciprocal lattice vectors
    -3.867541596  0.000000000  0.000000000    -0.258562184  0.000000000  0.000000000
     0.000000000  3.863625593  7.754571181     0.000000000  0.086268194  0.085974064
     0.000000000  7.729018328 -7.755460520     0.000000000  0.086258302 -0.042977203

  length of vectors
     3.867541596  8.663773827 10.949195960     0.258562184  0.121793846  0.096371856

 FORCES acting on ions
    electron-ion (+dipol)            ewald-force                    non-local-force                 convergence-correction
   -.810E-14 0.687E+02 -.661E+02   0.512E-13 -.681E+02 0.657E+02   0.000E+00 -.571E+00 0.367E+00   0.190E-14 -.151E-02 0.106E-02
   -.398E-14 -.687E+02 0.661E+02   -.474E-13 0.681E+02 -.657E+02   0.000E+00 0.571E+00 -.367E+00   -.147E-13 0.151E-02 -.106E-02
   -.373E-14 -.761E+02 -.545E+02   -.951E-14 0.755E+02 0.542E+02   0.000E+00 0.527E+00 0.374E+00   -.984E-14 0.379E-02 -.222E-02
   -.948E-14 -.820E+01 0.126E+03   0.251E-13 0.823E+01 -.126E+03   0.000E+00 -.195E-01 -.841E+00   -.591E-14 0.248E-02 -.112E-02
   -.913E-14 0.820E+01 -.126E+03   -.953E-14 -.823E+01 0.126E+03   0.000E+00 0.195E-01 0.841E+00   -.639E-15 -.248E-02 0.112E-02
   -.754E-14 0.761E+02 0.545E+02   0.115E-13 -.755E+02 -.542E+02   0.000E+00 -.527E+00 -.374E+00   0.497E-14 -.379E-02 0.222E-02
   -.357E-13 0.363E+02 -.148E+01   0.145E-13 -.359E+02 0.152E+01   0.000E+00 -.358E+00 -.594E-01   -.586E-14 -.198E-02 0.140E-02
   -.349E-13 -.363E+02 0.148E+01   -.300E-13 0.359E+02 -.152E+01   0.000E+00 0.358E+00 0.594E-01   -.752E-14 0.198E-02 -.140E-02
   -.290E-12 0.502E-11 -.508E-11   -.509E-14 0.142E-13 -.453E-13   0.000E+00 0.339E-20 -.339E-20   -.409E-13 -.397E-12 0.158E-12
   -.292E-12 -.721E+01 0.407E+02   0.180E-14 0.719E+01 -.405E+02   0.000E+00 0.152E-01 -.183E+00   -.182E-13 0.206E-02 -.826E-03
   -.291E-12 0.106E-11 -.121E-11   0.178E-13 -.284E-13 -.995E-13   0.000E+00 0.000E+00 0.000E+00   -.293E-13 0.171E-12 -.899E-13
   -.289E-12 0.721E+01 -.407E+02   -.310E-13 -.719E+01 0.405E+02   0.000E+00 -.152E-01 0.183E+00   -.490E-13 -.206E-02 0.826E-03
   -.104E-12 0.148E+02 -.805E+02   -.123E-13 -.147E+02 0.764E+02   0.000E+00 -.159E+00 0.421E+01   -.145E-13 -.313E-02 -.299E-02
   -.120E-12 0.120E+02 0.662E+02   -.229E-13 -.117E+02 -.612E+02   0.000E+00 -.319E+00 -.500E+01   -.220E-13 -.200E-02 0.598E-02
   -.103E-12 -.120E+02 -.662E+02   0.101E-13 0.117E+02 0.612E+02   0.000E+00 0.319E+00 0.500E+01   0.299E-14 0.200E-02 -.598E-02
   -.117E-12 -.148E+02 0.805E+02   -.134E-14 0.147E+02 -.764E+02   0.000E+00 0.159E+00 -.421E+01   -.157E-13 0.313E-02 0.299E-02
   -.111E-12 -.319E+01 -.852E+01   -.389E-14 0.326E+01 0.769E+01   0.000E+00 -.883E-01 0.874E+00   -.481E-14 0.161E-02 0.221E-02
   -.117E-12 0.319E+01 0.852E+01   -.151E-13 -.326E+01 -.769E+01   0.000E+00 0.883E-01 -.874E+00   -.117E-13 -.161E-02 -.221E-02
   -.116E-12 -.168E-11 -.106E-11   0.409E-14 0.497E-13 -.711E-14   0.000E+00 0.000E+00 0.678E-20   -.229E-13 -.185E-12 0.423E-13
   -.115E-12 -.197E+02 0.101E+02   -.105E-13 0.203E+02 -.962E+01   0.000E+00 -.568E+00 -.454E+00   -.161E-13 0.275E-02 -.158E-02
   -.129E-12 -.663E+02 0.209E+01   -.203E-13 0.605E+02 -.204E+01   0.000E+00 0.587E+01 -.483E-01   -.675E-14 -.355E-02 -.981E-03
   -.119E-12 -.818E-13 0.196E-11   -.107E-13 0.000E+00 0.542E-13   0.000E+00 0.678E-20 0.000E+00   -.200E-13 0.620E-13 -.156E-12
   -.123E-12 0.663E+02 -.209E+01   0.235E-13 -.605E+02 0.204E+01   0.000E+00 -.587E+01 0.483E-01   -.204E-13 0.355E-02 0.981E-03
   -.122E-12 0.197E+02 -.101E+02   0.183E-13 -.203E+02 0.962E+01   0.000E+00 0.568E+00 0.454E+00   -.147E-13 -.275E-02 0.158E-02
   -.906E-15 0.255E+02 -.204E+01   -.203E-13 -.258E+02 0.199E+01   0.000E+00 0.330E+00 0.378E-01   -.142E-13 -.338E-02 0.859E-03
   0.814E-15 -.107E-11 -.147E-11   -.165E-13 0.284E-13 -.164E-13   0.000E+00 -.136E-19 0.136E-19   -.576E-15 -.202E-12 0.988E-13
   -.690E-14 -.255E+02 0.204E+01   0.326E-13 0.258E+02 -.199E+01   0.000E+00 -.330E+00 -.378E-01   -.233E-14 0.338E-02 -.859E-03
   -.193E-15 -.381E+01 0.242E+02   0.709E-14 0.359E+01 -.245E+02   0.000E+00 0.225E+00 0.317E+00   -.197E-13 0.220E-02 -.110E-02
   -.397E-15 -.151E-11 -.107E-11   -.729E-14 -.426E-13 -.249E-13   0.000E+00 -.271E-19 0.271E-19   -.548E-14 0.144E-12 -.479E-13
   -.167E-14 0.381E+01 -.242E+02   -.145E-14 -.359E+01 0.245E+02   0.000E+00 -.225E+00 -.317E+00   0.748E-14 -.220E-02 0.110E-02
   -.268E-11 -.256E-10 -.317E-10   -.577E-13 -.178E-13 -.497E-13   0.000E+00 -.167E-15 0.944E-15   -.376E-12 -.178E-12 -.140E-12

 POSITION                                       TOTAL-FORCE (eV/Angst)
      0.00000      3.91787      3.83710         0.000000      0.047533     -0.013756
      0.00000      3.81026      0.03974         0.000000     -0.047533      0.013756
      0.00000      7.67701      3.84116         0.000000     -0.029903     -0.007675
      0.00000      7.73094      0.09084         0.000000      0.021354      0.074243
      0.00000      7.72621     -3.96946         0.000000     -0.021354     -0.074243
      0.00000      0.05113      0.03568         0.000000      0.029903      0.007675
     -1.93377      9.66615     -1.93964         0.000000     -0.031508     -0.020950
     -1.93377      5.79101     -1.93898         0.000000      0.031508      0.020950
     -1.93377      5.79676     -5.81660         0.000000      0.000000      0.000000
     -1.93377      5.79030      1.93153         0.000000      0.002762     -0.027354
     -1.93377      1.93225     -1.93887         0.000000      0.000000      0.000000
     -1.93377      1.93783      1.94531         0.000000     -0.002762      0.027354
     -1.93377      9.64850     -3.84393         0.000000     -0.009096      0.036405
     -1.93377      9.65173     -0.04388         0.000000     -0.016040     -0.017940
     -1.93377      5.80542     -3.83474         0.000000      0.016040      0.017940
     -1.93377      5.80866     -0.03469         0.000000      0.009096     -0.036405
     -1.93377      5.79393      3.88984         0.000000     -0.012423      0.048088
     -1.93377      1.93421     -0.01300         0.000000      0.012423     -0.048088
     -1.93377      7.72858     -1.93931         0.000000      0.000000      0.000000
     -1.93377      7.71850      1.93208         0.000000      0.006375      0.011986
     -1.93377      3.91155     -1.93815         0.000000      0.063657     -0.000245
     -1.93377      3.86407      1.93842         0.000000      0.000000      0.000000
     -1.93377      3.81658      5.81499         0.000000     -0.063657      0.000245
     -1.93377      7.73865     -5.81070         0.000000     -0.006375     -0.011986
      0.00000      9.64707     -1.94123         0.000000     -0.021908     -0.004566
      0.00000      5.79676     -5.81660         0.000000      0.000000      0.000000
      0.00000      5.81009     -1.93739         0.000000      0.021908      0.004566
      0.00000      5.80225      1.94305         0.000000      0.005888      0.044727
      0.00000      1.93225     -1.93887         0.000000      0.000000      0.000000
      0.00000      1.92589      1.93379         0.000000     -0.005888     -0.044727
    total drift:                               -0.000000     -0.000000     -0.000000

  FREE ENERGIE OF THE ION-ELECTRON SYSTEM (eV)
  free  energy   TOTEN  =      -213.76731708 eV

  energy  without entropy=     -213.76731708  energy(sigma->0) =     -213.76731708

 total charge

[...]

 magnetization (x)

# of ion       s       p       d       f       tot
    1        0.000   0.000   0.006   0.003   0.009
    2        0.000   0.000   0.006   0.003   0.009
    3        0.000   0.000   0.006   0.003   0.009
    4        0.001   0.001   0.008   0.004   0.013
    5        0.001   0.001   0.008   0.004   0.013
    6        0.000   0.000   0.006   0.003   0.009
    7        0.022   0.024   3.307   0.000   3.354
    8        0.022   0.024   3.307   0.000   3.354
    9        0.014   0.007   1.524   0.000   1.545
   10        0.016   0.011   1.453   0.000   1.480
   11        0.014   0.007   1.468   0.000   1.489
   12        0.016   0.011   1.453   0.000   1.480
   13        0.005  -0.022   0.000   0.000  -0.017
   14        0.005  -0.026   0.000   0.000  -0.021
   15        0.005  -0.026   0.000   0.000  -0.021
   16        0.005  -0.022   0.000   0.000  -0.017
   17        0.006  -0.071   0.000   0.000  -0.065
   18        0.006  -0.071   0.000   0.000  -0.065
   19        0.001  -0.018   0.000   0.000  -0.017
   20        0.006  -0.072   0.000   0.000  -0.066
   21        0.005  -0.043   0.000   0.000  -0.038
   22        0.006  -0.075   0.000   0.000  -0.069
   23        0.005  -0.043   0.000   0.000  -0.038
   24        0.006  -0.072   0.000   0.000  -0.067
   25        0.003  -0.059   0.000   0.000  -0.056
   26        0.006  -0.046   0.000   0.000  -0.041
   27        0.003  -0.059   0.000   0.000  -0.056
   28        0.006  -0.055   0.000   0.000  -0.049
   29        0.005  -0.067   0.000   0.000  -0.062
   30        0.006  -0.055   0.000   0.000  -0.049
tot          0.196  -0.816  12.552   0.018  11.951

 BZINTS: Fermi energy:  7.521110;228.000000 electrons
         Band energy:-294.169580;  BLOECHL correction: -0.135638