 vasp.5.4.4.18Apr17-6-g9f103f2a35 (build Oct 03 2018 13:58:34) complex

 executed on             LinuxIFC date 2019.06.04  01:46:16

 INCAR:
 POTCAR:    PAW_PBE La 06Sep2000
 POTCAR:    PAW_PBE Mn 06Sep2000
 POTCAR:    PAW_PBE Ni 02Aug2007
 POTCAR:    PAW_PBE O 08Apr2002

 POTCAR:    PAW_PBE La 06Sep2000
   VRHFIN =La : [core=Kr4d]

   TITEL  = PAW_PBE La 06Sep2000
   POMASS =  138.900; ZVAL   =   11.000    mass and valenz
   ENMAX  =  219.292; ENMIN  =  164.469 eV

 POTCAR:    PAW_PBE Mn 06Sep2000
   VRHFIN =Mn: d6 s1

   TITEL  = PAW_PBE Mn 06Sep2000
   POMASS =   54.938; ZVAL   =    7.000    mass and valenz
   ENMAX  =  269.864; ENMIN  =  202.398 eV

 POTCAR:    PAW_PBE Ni 02Aug2007
   VRHFIN =Ni:

   TITEL  = PAW_PBE Ni 02Aug2007
   POMASS =   58.690; ZVAL   =   10.000    mass and valenz
   ENMAX  =  269.532; ENMIN  =  202.149 eV

 POTCAR:    PAW_PBE O 08Apr2002
   VRHFIN =O: s2p4

   TITEL  = PAW_PBE O 08Apr2002
   POMASS =   16.000; ZVAL   =    6.000    mass and valenz
   ENMAX  =  400.000; ENMIN  =  300.000 eV

 Optimization of the real space projectors (new method)

 maximal supplied QI-value         = 13.42
 optimisation between [QCUT,QGAM] = [ 11.67, 23.35] = [ 38.16,152.62] Ry
 Optimized for a Real-space Cutoff    1.63 Angstroem

   l    n(q)    QCUT    max X(q) W(low)/X(q) W(high)/X(q)  e(spline)
   0     11    11.673    13.882    0.27E-04    0.79E-05    0.11E-06
   0     11    11.673    12.184    0.39E-04    0.13E-04    0.19E-06
   1     11    11.673     4.523    0.73E-05    0.76E-05    0.12E-06
   1     11    11.673     4.424    0.87E-05    0.13E-04    0.19E-06
   2     10    11.673    52.481    0.65E-04    0.36E-04    0.18E-06
   2     10    11.673    38.501    0.61E-04    0.33E-04    0.17E-06
   3     10    11.673    65.631    0.17E-03    0.14E-03    0.37E-06
   3     10    11.673    56.854    0.17E-03    0.14E-03    0.37E-06
 Optimization of the real space projectors (new method)

[...]

   l    n(q)    QCUT    max X(q) W(low)/X(q) W(high)/X(q)  e(spline)
   2      9    11.539    60.317    0.19E-03    0.47E-04    0.16E-06
   2      9    11.539    55.921    0.19E-03    0.48E-04    0.16E-06
   0     10    11.539    51.690    0.80E-04    0.50E-04    0.24E-06
   0     10    11.539    30.015    0.73E-04    0.45E-04    0.22E-06
   1     10    11.539    18.849    0.87E-04    0.16E-03    0.71E-07
   1     10    11.539    14.624    0.73E-04    0.13E-03    0.64E-07
 Optimization of the real space projectors (new method)

 maximal supplied QI-value         = 24.76
 optimisation between [QCUT,QGAM] = [ 11.64, 23.27] = [ 37.91,151.63] Ry
 Optimized for a Real-space Cutoff    1.14 Angstroem

   l    n(q)    QCUT    max X(q) W(low)/X(q) W(high)/X(q)  e(spline)
   0      8    11.635    20.381    0.10E-03    0.33E-03    0.24E-06
   0      8    11.635    15.268    0.11E-03    0.35E-03    0.26E-06
   1      7    11.635     5.964    0.24E-03    0.31E-03    0.30E-06
   1      7    11.635     5.382    0.22E-03    0.25E-03    0.26E-06
  PAW_PBE La 06Sep2000                  :
  PAW_PBE Mn 06Sep2000                  :
  PAW_PBE Ni 02Aug2007                  :
  PAW_PBE O 08Apr2002                   :

 POSCAR: SCEL6_6_1_1_0_5_5/4
  positions in direct lattice
  velocities in cartesian coordinates
 exchange correlation table for  LEXCH =        8
   RHO(1)=    0.500       N(1)  =     2000
   RHO(2)=  100.500       N(2)  =     4000

 ion  position               nearest neighbor table
   1  0.667  0.333  0.839-  17 2.67  23 2.67  29 2.67  22 2.75  22 2.75  28 2.75  16 2.75  16 2.75
                            28 2.75  11 3.27   9 3.33   9 3.33   9 3.33
   2  0.333  0.667  0.673-  28 2.64  16 2.64  22 2.64  21 2.75  27 2.75  15 2.75  15 2.75  27 2.75
                            21 2.75  20 2.80  14 2.80  26 2.80   9 3.26  10 3.33  10 3.33  10 3.33
   3  0.000  0.000  0.498-  13 2.70  19 2.70  25 2.70  20 2.74  14 2.74  26 2.74  26 2.74  20 2.74
                            14 2.74  21 2.75  15 2.75  27 2.75  12 3.32   8 3.35   8 3.35   8 3.35
   4  0.667  0.333  0.315-  30 2.54  24 2.54  18 2.54  13 2.76  19 2.76  25 2.76  25 2.76  13 2.76
                            19 2.76  11 3.14  12 3.28  12 3.28  12 3.28
   5  0.333  0.667  0.163-  23 2.73  17 2.73  29 2.73  24 2.74  18 2.74  30 2.74  24 2.74  18 2.74
                            30 2.74  25 2.81  13 2.81  19 2.81   9 3.34  11 3.35  11 3.35  11 3.35
   6  0.000  0.000  0.012-  18 2.63  24 2.63  30 2.63  17 2.75  29 2.75  17 2.75  23 2.75  29 2.75
                            23 2.75  12 3.24  11 3.31  11 3.31  11 3.31   9 3.42   9 3.42   9 3.42
   7  0.667  0.333  0.584-  27 1.89  15 1.89  21 1.89  14 1.93  20 1.93  26 1.93   3 3.37   3 3.37
                             3 3.37   2 3.39   2 3.39   2 3.39
   8  0.333  0.667  0.417-  25 1.88  19 1.88  13 1.88  20 1.95  14 1.95  26 1.95   3 3.35   3 3.35
                             3 3.35   5 3.42
   9  0.333  0.667  0.915-  17 1.90  23 1.90  29 1.90  28 1.91  22 1.91  16 1.91   2 3.26   1 3.33
                             1 3.33   1 3.33   5 3.34   6 3.42   6 3.42   6 3.42
  10  0.000  0.000  0.750-  16 1.97  22 1.97  28 1.97  21 1.99  15 1.99  27 1.99   2 3.33   2 3.33
                             2 3.33
  11  0.667  0.333  0.082-  30 1.96  24 1.96  18 1.96  17 1.98  23 1.98  29 1.98   4 3.14   1 3.27
                             6 3.31   6 3.31   6 3.31   5 3.35   5 3.35   5 3.35
  12  0.000  0.000  0.252-  18 1.95  24 1.95  30 1.95  13 1.99  19 1.99  25 1.99   6 3.24   4 3.28
                             4 3.28   4 3.28   3 3.32
  13  0.660  0.830  0.338-   8 1.88  12 1.99   3 2.70   4 2.76   4 2.76   5 2.81
  14  0.001  0.501  0.502-   7 1.93   8 1.95   3 2.74   3 2.74   2 2.80
  15  0.340  0.170  0.664-   7 1.89  10 1.99   2 2.75   2 2.75   3 2.75
  16  0.659  0.829  0.833-   9 1.91  10 1.97   2 2.64   1 2.75   1 2.75
  17  0.007  0.504  0.997-   9 1.90  11 1.98   1 2.67   5 2.73   6 2.75   6 2.75
  18  0.333  0.167  0.167-  12 1.95  11 1.96   4 2.54   6 2.63   5 2.74   5 2.74
  19  0.170  0.340  0.338-   8 1.88  12 1.99   3 2.70   4 2.76   4 2.76   5 2.81
  20  0.499  0.999  0.502-   7 1.93   8 1.95   3 2.74   3 2.74   2 2.80
  21  0.830  0.660  0.664-   7 1.89  10 1.99   2 2.75   2 2.75   3 2.75
  22  0.171  0.341  0.833-   9 1.91  10 1.97   2 2.64   1 2.75   1 2.75
  23  0.496  0.993  0.997-   9 1.90  11 1.98   1 2.67   5 2.73   6 2.75   6 2.75
  24  0.833  0.667  0.167-  12 1.95  11 1.96   4 2.54   6 2.63   5 2.74   5 2.74
  25  0.170  0.830  0.338-   8 1.88  12 1.99   3 2.70   4 2.76   4 2.76   5 2.81
  26  0.499  0.501  0.502-   7 1.93   8 1.95   3 2.74   3 2.74   2 2.80
  27  0.830  0.170  0.664-   7 1.89  10 1.99   2 2.75   2 2.75   3 2.75
  28  0.171  0.829  0.833-   9 1.91  10 1.97   2 2.64   1 2.75   1 2.75
  29  0.496  0.504  0.997-   9 1.90  11 1.98   1 2.67   5 2.73   6 2.75   6 2.75
  30  0.833  0.167  0.167-  12 1.95  11 1.96   4 2.54   6 2.63   5 2.74   5 2.74

  LATTYP: Found a hexagonal cell.
 ALAT       =     5.4873171792
 C/A-ratio  =     2.4551654258

  Lattice vectors:

 A1 = (   3.8801191879,   0.0000000000,  -3.8801191879)
 A2 = (  -3.8801191879,   3.8801191879,   0.0000000000)
 A3 = (   7.7782195302,   7.7782195302,   7.7782195302)

Analysis of symmetry for initial positions (statically):
 Subroutine PRICEL returns:
 Original cell was already a primitive cell.

 Routine SETGRP: Setting up the symmetry group for a
 hexagonal supercell.

 Subroutine GETGRP returns: Found  6 space group operations
 (whereof  6 operations were pure point group operations)
 out of a pool of 24 trial point group operations.

The static configuration has the point symmetry C_3v.

Analysis of symmetry for dynamics (positions and initial velocities):
 Subroutine PRICEL returns:
 Original cell was already a primitive cell.

[...]

The dynamic configuration has the point symmetry C_3v.

Analysis of structural, dynamic, and magnetic symmetry:
 Subroutine PRICEL returns:
 Original cell was already a primitive cell.

 Routine SETGRP: Setting up the symmetry group for a
 hexagonal supercell.

 Subroutine GETGRP returns: Found  6 space group operations
 (whereof  6 operations were pure point group operations)
 out of a pool of 24 trial point group operations.

The magnetic configuration has the point symmetry C_3v.

 Subroutine INISYM returns: Found  6 space group operations
 (whereof  6 operations are pure point group operations),
 and found     1 'primitive' translations

 KPOINTS: Automatic mesh

Automatic generation of k-mesh.
 generate k-points for:    4    4    1
Space group operators:
 irot       det(A)        alpha          n_x          n_y          n_z        tau_x        tau_y        tau_z
    1     1.000000     0.000001     1.000000     0.000000     0.000000     0.000000     0.000000     0.000000
    2     1.000000   120.000000    -0.577350    -0.577350    -0.577350     0.000000     0.000000     0.000000
    3     1.000000   120.000000     0.577350     0.577350     0.577350     0.000000     0.000000     0.000000
    4    -1.000000   179.999999     0.707107     0.000000    -0.707107     0.000000     0.000000     0.000000
    5    -1.000000   179.999999     0.707107    -0.707107     0.000000     0.000000     0.000000     0.000000
    6    -1.000000   179.999999     0.000000    -0.707107     0.707107     0.000000     0.000000     0.000000

 Subroutine IBZKPT returns following result:

 Found      4 irreducible k-points:

 Following reciprocal coordinates:
            Coordinates               Weight
  0.000000  0.000000  0.000000      1.000000
  0.250000  0.000000  0.000000      6.000000
  0.500000  0.000000  0.000000      3.000000
  0.250000  0.250000  0.000000      6.000000

 Following cartesian coordinates:
            Coordinates               Weight
  0.000000  0.000000  0.000000      1.000000
  0.021477  0.021477 -0.042954      6.000000
  0.042954  0.042954 -0.085908      3.000000
  0.000000  0.064431 -0.064431      6.000000

 TETIRR: Found     10 inequivalent tetrahedra from       96

 SYSTEM =  final
 POSCAR =  SCEL6_6_1_1_0_5_5/4

 Startparameter for this run:
   NWRITE =      2    write-flag & timer
   PREC   = accura    normal or accurate (medium, high low for compatibility)
   ISTART =      0    job   : 0-new  1-cont  2-samecut
   ICHARG =      1    charge: 1-file 2-atom 10-const
   ISPIN  =      2    spin polarized calculation?
   LNONCOLLINEAR =      F non collinear calculations
   LSORBIT =      F    spin-orbit coupling
   INIWAV =      1    electr: 0-lowe 1-rand  2-diag
   LASPH  =      F    aspherical Exc in radial PAW
   METAGGA=      F    non-selfconsistent MetaGGA calc.

 Electronic Relaxation 1
   ENCUT  =  520.0 eV  38.22 Ry    6.18 a.u.  10.20 10.20 25.05*2*pi/ulx,y,z
   ENINI  =  520.0     initial cutoff
   ENAUG  =  605.4 eV  augmentation charge cutoff
   NELM   =    100;   NELMIN=  2; NELMDL= -5     # of ELM steps
   EDIFF  = 0.1E-02   stopping-criterion for ELM
   LREAL  =      T    real-space projection
   NLSPLINE    = F    spline interpolate recip. space projectors
   LCOMPAT=      F    compatible to vasp.4.4
   GGA_COMPAT  = T    GGA compatible to vasp.4.4-vasp.4.6
   LMAXPAW     = -100 max onsite density
   LMAXMIX     =    6 max onsite mixed and CHGCAR
[...]
     30      -7.5754      1.00000
     31      -7.5754      1.00000
     32      -7.4770      1.00000
     33      -7.4359      1.00000
     34      -7.4359      1.00000
     35      -7.3342      1.00000
     36      -7.3342      1.00000
     37      -7.2197      1.00000
     38      -7.2197      1.00000
     39      -7.1682      1.00000
     40      -7.1331      1.00000
     41      -6.9985      1.00000
     42      -6.6987      1.00000
     43       0.3687      1.00000
     44       0.3687      1.00000
     45       0.5379      1.00000
     46       0.5379      1.00000
     47       0.7664      1.00000
     48       1.1652      1.00000
     49       1.1653      1.00000
     50       1.1794      1.00000
     51       1.3221      1.00000
     52       1.5603      1.00000
     53       1.5603      1.00000
     54       1.6351      1.00000
     55       1.7416      1.00000
     56       1.7681      1.00000
     57       1.7681      1.00000
     58       1.7755      1.00000
     59       1.9350      1.00000
     60       1.9350      1.00000
[...]
    132      10.8757      0.00000
    133      10.8946      0.00000
    134      10.9384      0.00000
    135      10.9608      0.00000
    136      10.9753      0.00000
    137      10.9836      0.00000
    138      11.0091      0.00000
    139      11.0369      0.00000
    140      11.0579      0.00000
    141      11.0816      0.00000
    142      11.1155      0.00000
    143      11.1753      0.00000
    144      11.1876      0.00000
    145      11.2025      0.00000
    146      11.2306      0.00000

[...]

 spin component 2

[...]

 k-point     4 :       0.2500    0.2500    0.0000
  band No.  band energies     occupation
      1     -23.9413      1.00000
      2     -23.8988      1.00000
      3     -23.8783      1.00000
      4     -23.8265      1.00000
      5     -23.8087      1.00000
      6     -23.7333      1.00000
      7     -11.1594      1.00000
      8     -11.0495      1.00000
      9     -10.9512      1.00000
     10     -10.7266      1.00000
     11     -10.6853      1.00000
     12     -10.6501      1.00000
     13     -10.1978      1.00000
     14     -10.1414      1.00000
     15     -10.0483      1.00000
     16      -9.9608      1.00000
     17      -9.9107      1.00000
     18      -9.8712      1.00000
     19      -9.7456      1.00000
     20      -9.6710      1.00000
     21      -9.6128      1.00000
     22      -9.4975      1.00000
     23      -9.4347      1.00000
     24      -9.1786      1.00000
     25      -7.6730      1.00000
     26      -7.4407      1.00000
     27      -7.4305      1.00000
     28      -7.3459      1.00000
     29      -7.3268      1.00000
     30      -7.3200      1.00000
     31      -7.1913      1.00000
     32      -7.1707      1.00000
     33      -7.1337      1.00000
     34      -7.1216      1.00000
     35      -7.1134      1.00000
     36      -7.0471      1.00000
     37      -7.0148      1.00000
     38      -6.9114      1.00000
     39      -6.8783      1.00000
     40      -6.8361      1.00000
     41      -6.6815      1.00000
     42      -6.5696      1.00000
     43       1.7192      1.00000
     44       1.8000      1.00000
     45       1.9631      1.00000
     46       2.1496      1.00000
     47       2.2486      1.00000
     48       2.2771      1.00000
     49       2.2831      1.00000
     50       2.4240      1.00000
     51       2.5134      1.00000
     52       2.7626      1.00000
     53       2.8335      1.00000
     54       2.8858      1.00000
     55       2.9377      1.00000
     56       3.0041      1.00000
     57       3.0499      1.00000
     58       3.0700      1.00000
     59       3.1341      1.00000
     60       3.1638      1.00000
[...]
    132      11.0733      0.00000
    133      11.0795      0.00000
    134      11.0932      0.00000
    135      11.1016      0.00000
    136      11.1101      0.00000
    137      11.1210      0.00000
    138      11.1308      0.00000
    139      11.1507      0.00000
    140      11.1649      0.00000
    141      11.1816      0.00000
    142      11.2032      0.00000
    143      11.2179      0.00000
    144      11.2266      0.00000
    145      11.2482      0.00000
    146      11.2802      0.00000

 soft charge-density along one line, spin component           1
         0         1         2         3         4         5         6         7         8         9
 total charge-density along one line

 soft charge-density along one line, spin component           2
         0         1         2         3         4         5         6         7         8         9
 total charge-density along one line

------------------------ aborting loop because EDIFF is reached ----------------------------------------

 total charge

# of ion       s       p       d       f       tot
    1        1.999   5.699   0.489   0.191   8.378
    2        2.000   5.700   0.501   0.195   8.397
    3        1.999   5.701   0.488   0.192   8.380
    4        2.003   5.696   0.519   0.200   8.418
    5        2.000   5.696   0.490   0.189   8.375
    6        2.001   5.697   0.495   0.191   8.383
    7        0.350   0.555   4.844   0.000   5.749
    8        0.348   0.543   4.856   0.000   5.747
    9        0.362   0.587   4.859   0.000   5.807
   10        0.379   0.542   8.309   0.000   9.229
   11        0.396   0.574   8.346   0.000   9.315
   12        0.399   0.580   8.332   0.000   9.311
   13        1.563   3.487   0.000   0.000   5.049
   14        1.561   3.488   0.000   0.000   5.048
   15        1.562   3.488   0.000   0.000   5.050
   16        1.560   3.501   0.000   0.000   5.060
   17        1.560   3.505   0.000   0.000   5.066
   18        1.556   3.521   0.000   0.000   5.077
   19        1.564   3.437   0.000   0.000   5.001
   20        1.562   3.453   0.000   0.000   5.015
   21        1.562   3.438   0.000   0.000   5.000
   22        1.560   3.451   0.000   0.000   5.011
   23        1.561   3.453   0.000   0.000   5.014
   24        1.556   3.455   0.000   0.000   5.012
   25        1.563   3.420   0.000   0.000   4.984
   26        1.562   3.442   0.000   0.000   5.004
   27        1.562   3.418   0.000   0.000   4.980
   28        1.560   3.429   0.000   0.000   4.989
   29        1.561   3.428   0.000   0.000   4.989
   30        1.556   3.429   0.000   0.000   4.985
tot         42.327  99.812  42.527   1.160 185.826

 magnetization (x)

[...]

  FORCE on cell =-STRESS in cart. coord.  units (eV):
  Direction    XX          YY          ZZ          XY          YZ          ZX
  Alpha Z   982.97873   982.97873   982.97873
  Ewald   -5157.04154 -5157.04151 -5157.04151   -29.77200   -29.77194   -29.77200
  Hartree  1170.04169  1170.04170  1170.04170   -32.78013   -32.78013   -32.78013
  E(xc)   -1046.22861 -1046.22862 -1046.22862     0.02976     0.02977     0.02976
  Local    -703.46291  -703.46359  -703.46359    62.93332    62.93392    62.93332
  n-local   414.04486   415.25262   417.32439    -2.23680     0.98853    -0.14235
  augment   489.75707   489.75766   489.75766    -0.00121    -0.00181    -0.00121
  Kinetic  3862.88205  3852.55832  3828.80901   -10.51685     7.87213     2.76802
  Fock        0.00000     0.00000     0.00000     0.00000     0.00000     0.00000
  Total      -0.33186    -0.33186    -0.33186    -0.01259    -0.01259    -0.01259
  in kB      -1.51347    -1.51347    -1.51347    -0.05744    -0.05744    -0.05744

 VOLUME and BASIS-vectors are now :
  energy-cutoff  :      520.00
  volume of cell :      351.31
      direct lattice vectors                 reciprocal lattice vectors
     3.880119188  0.000000000 -3.880119188     0.085908014  0.085908014 -0.171816028
    -3.880119188  3.880119188  0.000000000    -0.085908014  0.171816028 -0.085908014
     7.778219530  7.778219530  7.778219530     0.042854709  0.042854709  0.042854709

  length of vectors
     5.487317179  5.487317179 13.472271419     0.210430799  0.210430799  0.074226533

 FORCES acting on ions
    electron-ion (+dipol)            ewald-force                    non-local-force                 convergence-correction
   0.471E+02 0.471E+02 0.471E+02   -.467E+02 -.467E+02 -.467E+02   -.451E+00 -.451E+00 -.451E+00   -.174E-02 -.174E-02 -.174E-02
   0.507E+02 0.507E+02 0.507E+02   -.502E+02 -.502E+02 -.502E+02   -.529E+00 -.529E+00 -.529E+00   -.648E-02 -.648E-02 -.648E-02
   -.170E+02 -.170E+02 -.170E+02   0.169E+02 0.169E+02 0.169E+02   0.116E+00 0.116E+00 0.116E+00   -.692E-02 -.692E-02 -.692E-02
   -.118E+03 -.118E+03 -.118E+03   0.117E+03 0.117E+03 0.117E+03   0.138E+01 0.138E+01 0.138E+01   0.408E-02 0.408E-02 0.408E-02
   -.250E+02 -.250E+02 -.250E+02   0.247E+02 0.247E+02 0.247E+02   0.241E+00 0.241E+00 0.241E+00   0.843E-02 0.843E-02 0.843E-02
   0.653E+02 0.653E+02 0.653E+02   -.644E+02 -.644E+02 -.644E+02   -.832E+00 -.832E+00 -.832E+00   0.667E-02 0.667E-02 0.667E-02
   0.230E+02 0.230E+02 0.230E+02   -.226E+02 -.226E+02 -.226E+02   -.307E+00 -.307E+00 -.307E+00   -.634E-02 -.634E-02 -.634E-02
   -.378E+02 -.378E+02 -.378E+02   0.373E+02 0.373E+02 0.373E+02   0.468E+00 0.468E+00 0.468E+00   -.282E-02 -.282E-02 -.282E-02
   0.183E+02 0.183E+02 0.183E+02   -.183E+02 -.183E+02 -.183E+02   -.756E-01 -.756E-01 -.756E-01   0.582E-02 0.583E-02 0.583E-02
   0.253E+02 0.253E+02 0.253E+02   -.245E+02 -.245E+02 -.245E+02   -.829E+00 -.829E+00 -.829E+00   -.139E-01 -.139E-01 -.139E-01
   0.298E+02 0.298E+02 0.298E+02   -.284E+02 -.284E+02 -.284E+02   -.144E+01 -.144E+01 -.144E+01   -.234E-02 -.235E-02 -.235E-02
   -.620E+02 -.620E+02 -.620E+02   0.599E+02 0.599E+02 0.599E+02   0.208E+01 0.208E+01 0.208E+01   0.191E-01 0.191E-01 0.191E-01
   -.329E+02 -.329E+02 -.660E+02   0.326E+02 0.326E+02 0.603E+02   0.367E+00 0.367E+00 0.574E+01   0.103E-02 0.103E-02 -.428E-01
   0.101E+01 0.101E+01 -.649E+01   -.131E+01 -.131E+01 0.600E+01   0.342E+00 0.342E+00 0.495E+00   -.433E-02 -.433E-02 -.788E-02
   0.146E+02 0.146E+02 0.430E+02   -.144E+02 -.144E+02 -.372E+02   -.148E+00 -.148E+00 -.578E+01   -.523E-02 -.523E-02 0.449E-01
   0.628E+01 0.628E+01 -.695E+01   -.530E+01 -.530E+01 0.224E+01   -.102E+01 -.102E+01 0.474E+01   0.151E-02 0.151E-02 -.266E-01
   0.167E+02 0.167E+02 0.480E+02   -.165E+02 -.165E+02 -.429E+02   -.178E+00 -.178E+00 -.513E+01   0.466E-02 0.466E-02 0.204E-01
   -.568E+01 -.568E+01 -.106E+02   0.525E+01 0.525E+01 0.104E+02   0.404E+00 0.404E+00 0.165E+00   0.280E-02 0.280E-02 0.124E-01
   -.329E+02 -.660E+02 -.329E+02   0.326E+02 0.603E+02 0.326E+02   0.367E+00 0.574E+01 0.367E+00   0.103E-02 -.428E-01 0.103E-02
   0.101E+01 -.649E+01 0.101E+01   -.131E+01 0.600E+01 -.131E+01   0.342E+00 0.495E+00 0.342E+00   -.433E-02 -.788E-02 -.433E-02
   0.146E+02 0.430E+02 0.146E+02   -.144E+02 -.372E+02 -.144E+02   -.148E+00 -.578E+01 -.148E+00   -.523E-02 0.449E-01 -.523E-02
   0.628E+01 -.695E+01 0.628E+01   -.530E+01 0.224E+01 -.530E+01   -.102E+01 0.474E+01 -.102E+01   0.151E-02 -.266E-01 0.151E-02
   0.167E+02 0.480E+02 0.167E+02   -.165E+02 -.429E+02 -.165E+02   -.178E+00 -.513E+01 -.178E+00   0.466E-02 0.204E-01 0.466E-02
   -.568E+01 -.106E+02 -.568E+01   0.525E+01 0.104E+02 0.525E+01   0.404E+00 0.165E+00 0.404E+00   0.280E-02 0.124E-01 0.280E-02
   -.660E+02 -.329E+02 -.329E+02   0.603E+02 0.326E+02 0.326E+02   0.574E+01 0.367E+00 0.367E+00   -.428E-01 0.103E-02 0.103E-02
   -.649E+01 0.101E+01 0.101E+01   0.600E+01 -.131E+01 -.131E+01   0.495E+00 0.342E+00 0.342E+00   -.788E-02 -.433E-02 -.433E-02
   0.430E+02 0.146E+02 0.146E+02   -.372E+02 -.144E+02 -.144E+02   -.578E+01 -.148E+00 -.148E+00   0.449E-01 -.523E-02 -.523E-02
   -.695E+01 0.628E+01 0.628E+01   0.224E+01 -.530E+01 -.530E+01   0.474E+01 -.102E+01 -.102E+01   -.266E-01 0.151E-02 0.151E-02
   0.480E+02 0.167E+02 0.167E+02   -.429E+02 -.165E+02 -.165E+02   -.513E+01 -.178E+00 -.178E+00   0.204E-01 0.466E-02 0.466E-02
   -.106E+02 -.568E+01 -.568E+01   0.104E+02 0.525E+01 0.525E+01   0.165E+00 0.404E+00 0.404E+00   0.124E-01 0.280E-02 0.280E-02
   0.414E+00 0.414E+00 0.414E+00   0.320E-13 0.231E-12 0.103E-12   -.413E+00 -.413E+00 -.413E+00   0.503E-02 0.503E-02 0.503E-02

 POSITION                                       TOTAL-FORCE (eV/Angst)
      7.82035      7.82035      3.94023        -0.053211     -0.053211     -0.053211
      3.94426      7.82438      3.94426        -0.062092     -0.062092     -0.062092
      3.87667      3.87667      3.87667         0.037008      0.037008      0.037008
      3.74277      3.74277     -0.13735         0.053782      0.053782      0.053782
     -0.02415      3.85597     -0.02415         0.027279      0.027279      0.027279
      0.09075      0.09075      0.09075         0.031850      0.031850      0.031850
      5.83335      5.83335      1.95323         0.040922      0.040922      0.040922
      1.94935      5.82947      1.94935         0.003619      0.003619      0.003619
      5.82687      9.70699      5.82687        -0.071309     -0.071309     -0.071309
      5.83483      5.83483      5.83483        -0.006780     -0.006780     -0.006780
      1.93038      1.93038     -1.94974        -0.011232     -0.011232     -0.011232
      1.95850      1.95850      1.95850         0.005495      0.005495      0.005495
      1.96530      5.84541      0.06535        -0.015089     -0.015089      0.013204
      1.96676      5.84688      3.89903         0.036983      0.036983      0.003389
      5.82100      5.82100      3.84339        -0.004128     -0.004128     -0.019325
      5.81407      9.69419      3.92100        -0.031126     -0.031126     -0.000677
      5.82547      9.70559      7.72474         0.025110      0.025110      0.020186
      1.94917      1.94917      0.01006        -0.017795     -0.017795     -0.000017
      1.96530      3.94547      1.96529        -0.015089      0.013204     -0.015089
      1.96676      7.77915      1.96676         0.036983      0.003389      0.036983
      5.82100      7.72351      1.94088        -0.004128     -0.019325     -0.004128
      5.81407      7.80112      5.81407        -0.031126     -0.000677     -0.031126
      5.82547     11.60486      5.82547         0.025110      0.020186      0.025110
      1.94917      3.89018     -1.93095        -0.017795     -0.000017     -0.017795
      0.06535      5.84541      1.96529         0.013204     -0.015089     -0.015089
      3.89903      5.84688      1.96676         0.003389      0.036983      0.036983
      7.72351      5.82100      1.94088        -0.019325     -0.004128     -0.004128
      3.92100      9.69419      5.81407        -0.000677     -0.031126     -0.031126
      7.72474      9.70559      5.82547         0.020186      0.025110      0.025110
      3.89017      1.94917     -1.93095        -0.000017     -0.017795     -0.017795
    total drift:                                0.005804      0.005849      0.005849

  FREE ENERGIE OF THE ION-ELECTRON SYSTEM (eV)
  free  energy   TOTEN  =      -220.73741887 eV

  energy  without entropy=     -220.73741887  energy(sigma->0) =     -220.73741887

 total charge

[...]

 magnetization (x)

# of ion       s       p       d       f       tot
    1        0.001   0.001   0.009   0.003   0.014
    2        0.001   0.001   0.010   0.004   0.016
    3        0.001   0.001   0.012   0.005   0.019
    4        0.000   0.001   0.006   0.003   0.010
    5        0.000   0.000   0.003   0.001   0.005
    6        0.000   0.001   0.005   0.002   0.007
    7        0.021   0.025   3.201   0.000   3.247
    8        0.022   0.022   3.277   0.000   3.321
    9        0.025   0.040   3.180   0.000   3.245
   10        0.002  -0.008   1.681   0.000   1.675
   11        0.011   0.007   1.702   0.000   1.720
   12        0.012   0.008   1.651   0.000   1.671
   13        0.005  -0.043   0.000   0.000  -0.038
   14        0.002  -0.008   0.000   0.000  -0.006
   15        0.004  -0.032   0.000   0.000  -0.027
   16        0.005  -0.001   0.000   0.000   0.004
   17        0.005  -0.006   0.000   0.000  -0.001
   18        0.008   0.042   0.000   0.000   0.051
   19        0.005  -0.053   0.000   0.000  -0.048
   20        0.002  -0.014   0.000   0.000  -0.012
   21        0.004  -0.038   0.000   0.000  -0.034
   22        0.004  -0.006   0.000   0.000  -0.002
   23        0.005  -0.013   0.000   0.000  -0.009
   24        0.007   0.038   0.000   0.000   0.045
   25        0.004  -0.053   0.000   0.000  -0.049
   26        0.002  -0.012   0.000   0.000  -0.010
   27        0.003  -0.041   0.000   0.000  -0.037
   28        0.004  -0.010   0.000   0.000  -0.006
   29        0.004  -0.020   0.000   0.000  -0.016
   30        0.007   0.035   0.000   0.000   0.042
tot          0.176  -0.134  14.738   0.019  14.798

 BZINTS: Fermi energy:  7.623458;225.000000 electrons
         Band energy:-331.394954;  BLOECHL correction:  0.000000