 vasp.5.4.4.18Apr17-6-g9f103f2a35 (build Oct 03 2018 13:58:34) complex

 executed on             LinuxIFC date 2019.06.04  01:29:29

 INCAR:
 POTCAR:    PAW_PBE La 06Sep2000
 POTCAR:    PAW_PBE Mn 06Sep2000
 POTCAR:    PAW_PBE Ni 02Aug2007
 POTCAR:    PAW_PBE O 08Apr2002

 POTCAR:    PAW_PBE La 06Sep2000
   VRHFIN =La : [core=Kr4d]

   TITEL  = PAW_PBE La 06Sep2000
   POMASS =  138.900; ZVAL   =   11.000    mass and valenz
   ENMAX  =  219.292; ENMIN  =  164.469 eV

 POTCAR:    PAW_PBE Mn 06Sep2000
   VRHFIN =Mn: d6 s1

   TITEL  = PAW_PBE Mn 06Sep2000
   POMASS =   54.938; ZVAL   =    7.000    mass and valenz
   ENMAX  =  269.864; ENMIN  =  202.398 eV

 POTCAR:    PAW_PBE Ni 02Aug2007
   VRHFIN =Ni:

   TITEL  = PAW_PBE Ni 02Aug2007
   POMASS =   58.690; ZVAL   =   10.000    mass and valenz
   ENMAX  =  269.532; ENMIN  =  202.149 eV

 POTCAR:    PAW_PBE O 08Apr2002
   VRHFIN =O: s2p4

   TITEL  = PAW_PBE O 08Apr2002
   POMASS =   16.000; ZVAL   =    6.000    mass and valenz
   ENMAX  =  400.000; ENMIN  =  300.000 eV

 Optimization of the real space projectors (new method)

 maximal supplied QI-value         = 13.42
 optimisation between [QCUT,QGAM] = [ 11.67, 23.35] = [ 38.16,152.62] Ry
 Optimized for a Real-space Cutoff    1.63 Angstroem

   l    n(q)    QCUT    max X(q) W(low)/X(q) W(high)/X(q)  e(spline)
   0     11    11.673    13.882    0.27E-04    0.79E-05    0.11E-06
   0     11    11.673    12.184    0.39E-04    0.13E-04    0.19E-06
   1     11    11.673     4.523    0.73E-05    0.76E-05    0.12E-06
   1     11    11.673     4.424    0.87E-05    0.13E-04    0.19E-06
   2     10    11.673    52.481    0.65E-04    0.36E-04    0.18E-06
   2     10    11.673    38.501    0.61E-04    0.33E-04    0.17E-06
   3     10    11.673    65.631    0.17E-03    0.14E-03    0.37E-06
   3     10    11.673    56.854    0.17E-03    0.14E-03    0.37E-06
 Optimization of the real space projectors (new method)

[...]

   l    n(q)    QCUT    max X(q) W(low)/X(q) W(high)/X(q)  e(spline)
   2      9    11.539    60.317    0.19E-03    0.47E-04    0.16E-06
   2      9    11.539    55.921    0.19E-03    0.48E-04    0.16E-06
   0     10    11.539    51.690    0.80E-04    0.50E-04    0.24E-06
   0     10    11.539    30.015    0.73E-04    0.45E-04    0.22E-06
   1     10    11.539    18.849    0.87E-04    0.16E-03    0.71E-07
   1     10    11.539    14.624    0.73E-04    0.13E-03    0.64E-07
 Optimization of the real space projectors (new method)

 maximal supplied QI-value         = 24.76
 optimisation between [QCUT,QGAM] = [ 11.64, 23.27] = [ 37.91,151.63] Ry
 Optimized for a Real-space Cutoff    1.14 Angstroem

   l    n(q)    QCUT    max X(q) W(low)/X(q) W(high)/X(q)  e(spline)
   0      8    11.635    20.381    0.10E-03    0.33E-03    0.24E-06
   0      8    11.635    15.268    0.11E-03    0.35E-03    0.26E-06
   1      7    11.635     5.964    0.24E-03    0.31E-03    0.30E-06
   1      7    11.635     5.382    0.22E-03    0.25E-03    0.26E-06
  PAW_PBE La 06Sep2000                  :
  PAW_PBE Mn 06Sep2000                  :
  PAW_PBE Ni 02Aug2007                  :
  PAW_PBE O 08Apr2002                   :

 POSCAR: SCEL6_1_2_3_0_0_0/5
  positions in direct lattice
  velocities in cartesian coordinates
 exchange correlation table for  LEXCH =        8
   RHO(1)=    0.500       N(1)  =     2000
   RHO(2)=  100.500       N(2)  =     4000

 ion  position               nearest neighbor table
   1  0.000  0.508  0.329-  27 2.64  17 2.69  17 2.69  21 2.70  21 2.70  29 2.72  30 2.76  23 2.77
                            23 2.77  14 2.78  14 2.78  26 2.82  10 3.29  10 3.29  11 3.34  11 3.34
   2  0.000  0.000  0.667-  25 2.72  26 2.72  22 2.72  22 2.72  20 2.72  20 2.72  28 2.73  29 2.73
                            13 2.73  16 2.73  13 2.73  16 2.73   9 3.34   9 3.34  11 3.34  11 3.34
   3  0.000  0.492  0.004-  30 2.64  18 2.69  18 2.69  21 2.70  21 2.70  28 2.72  27 2.76  19 2.77
                            19 2.77  15 2.78  15 2.78  25 2.82  12 3.29  12 3.29   9 3.34   9 3.34
   4  0.000  0.992  0.329-  27 2.64  17 2.69  17 2.69  24 2.70  24 2.70  29 2.72  30 2.76  20 2.77
                            20 2.77  14 2.78  14 2.78  26 2.82  10 3.29  10 3.29  11 3.34  11 3.34
   5  0.000  0.500  0.667-  25 2.72  26 2.72  19 2.72  19 2.72  23 2.72  23 2.72  28 2.73  29 2.73
                            13 2.73  16 2.73  13 2.73  16 2.73   9 3.34   9 3.34  11 3.34  11 3.34
   6  0.000  0.008  0.004-  30 2.64  18 2.69  18 2.69  24 2.70  24 2.70  28 2.72  27 2.76  22 2.77
                            22 2.77  15 2.78  15 2.78  25 2.82  12 3.29  12 3.29   9 3.34   9 3.34
   7  0.500  0.250  0.499-  14 1.89  20 1.89  23 1.89  16 1.90  26 1.93  26 1.93   2 3.35   2 3.35
                             5 3.35   5 3.35   1 3.40   4 3.40   4 3.40   1 3.40
   8  0.500  0.750  0.834-  15 1.89  19 1.89  22 1.89  13 1.90  25 1.93  25 1.93   2 3.35   2 3.35
                             5 3.35   5 3.35   3 3.40   3 3.40   6 3.40   6 3.40
   9  0.500  0.250  0.833-  28 1.93  28 1.93  18 1.94  16 1.96  19 1.97  22 1.97   3 3.34   3 3.34
                             6 3.34   6 3.34   2 3.34   5 3.34   5 3.34   2 3.34
  10  0.500  0.750  0.165-  27 1.93  27 1.93  21 1.93  24 1.93  17 1.94  15 1.94   1 3.29   1 3.29
                             4 3.29   4 3.29   3 3.35   3 3.35   6 3.35   6 3.35
  11  0.500  0.750  0.500-  29 1.93  29 1.93  17 1.94  13 1.96  20 1.97  23 1.97   1 3.34   1 3.34
                             4 3.34   4 3.34   2 3.34   2 3.34   5 3.34   5 3.34
  12  0.500  0.250  0.168-  30 1.93  30 1.93  21 1.93  24 1.93  18 1.94  14 1.94   3 3.29   3 3.29
                             6 3.29   6 3.29   1 3.35   4 3.35   4 3.35   1 3.35
  13  0.500  0.750  0.670-   8 1.90  11 1.96   2 2.73   5 2.73   2 2.73   5 2.73
  14  0.500  0.250  0.336-   7 1.89  12 1.94   1 2.78   4 2.78   1 2.78   4 2.78
  15  0.500  0.750  0.997-   8 1.89  10 1.94   3 2.78   6 2.78   3 2.78   6 2.78
  16  0.500  0.250  0.664-   7 1.90   9 1.96   2 2.73   5 2.73   2 2.73   5 2.73
  17  0.500  0.750  0.333-  10 1.94  11 1.94   1 2.69   4 2.69   1 2.69   4 2.69
  18  0.500  0.250  0.001-  12 1.94   9 1.94   3 2.69   6 2.69   3 2.69   6 2.69
  19  0.500  0.505  0.832-   8 1.89   9 1.97   5 2.72   5 2.72   3 2.77   3 2.77
  20  0.500  0.005  0.501-   7 1.89  11 1.97   2 2.72   2 2.72   4 2.77   4 2.77
  21  0.500  0.500  0.167-  10 1.93  12 1.93   1 2.70   1 2.70   3 2.70   3 2.70
  22  0.500  0.995  0.832-   8 1.89   9 1.97   2 2.72   2 2.72   6 2.77   6 2.77
  23  0.500  0.495  0.501-   7 1.89  11 1.97   5 2.72   5 2.72   1 2.77   1 2.77
  24  0.500  0.000  0.167-  10 1.93  12 1.93   4 2.70   4 2.70   6 2.70   6 2.70
  25  0.000  0.750  0.832-   8 1.93   8 1.93   2 2.72   5 2.72   3 2.82   6 2.82
  26  0.000  0.250  0.502-   7 1.93   7 1.93   2 2.72   5 2.72   4 2.82   1 2.82
  27  0.000  0.750  0.168-  10 1.93  10 1.93   1 2.64   4 2.64   3 2.76   6 2.76
  28  0.000  0.250  0.833-   9 1.93   9 1.93   3 2.72   6 2.72   5 2.73   2 2.73
  29  0.000  0.750  0.500-  11 1.93  11 1.93   1 2.72   4 2.72   2 2.73   5 2.73
  30  0.000  0.250  0.165-  12 1.93  12 1.93   3 2.64   6 2.64   4 2.76   1 2.76

  LATTYP: Found a simple orthorhombic cell.
 ALAT       =     3.8618291861
 B/A-ratio  =     2.0027829612
 C/A-ratio  =     2.9975847094

  Lattice vectors:

 A1 = (   3.8618291861,   0.0000000000,   0.0000000000)
 A2 = (   0.0000000000,   7.7344056930,   0.0000000000)
 A3 = (   0.0000000000,   0.0000000000,  11.5761601186)

Analysis of symmetry for initial positions (statically):
 Subroutine PRICEL returns:
 Original cell was already a primitive cell.

 Routine SETGRP: Setting up the symmetry group for a
 simple orthorhombic supercell.

 Subroutine GETGRP returns: Found  8 space group operations
 (whereof  2 operations were pure point group operations)
 out of a pool of  8 trial point group operations.

The static configuration has the point symmetry C_1h.
 The point group associated with its full space group is D_2h.

Analysis of symmetry for dynamics (positions and initial velocities):
 Subroutine PRICEL returns:
 Original cell was already a primitive cell.

[...]

The dynamic configuration has the point symmetry C_1h.
 The point group associated with its full space group is D_2h.

Analysis of structural, dynamic, and magnetic symmetry:
 Subroutine PRICEL returns:
 Original cell was already a primitive cell.

 Routine SETGRP: Setting up the symmetry group for a
 simple orthorhombic supercell.

 Subroutine GETGRP returns: Found  8 space group operations
 (whereof  2 operations were pure point group operations)
 out of a pool of  8 trial point group operations.

The magnetic configuration has the point symmetry C_1h.
 The point group associated with its full space group is D_2h.

 Subroutine INISYM returns: Found  8 space group operations
 (whereof  2 operations are pure point group operations),
 and found     1 'primitive' translations

 KPOINTS: Automatic mesh

Automatic generation of k-mesh.
 generate k-points for:    5    3    2
Space group operators:
 irot       det(A)        alpha          n_x          n_y          n_z        tau_x        tau_y        tau_z
    1     1.000000     0.000001     1.000000     0.000000     0.000000     0.000000     0.000000     0.000000
    2    -1.000000   180.000000     1.000000     0.000000     0.000000     0.000000     0.000000     0.000000
    3    -1.000000     0.000001     1.000000     0.000000     0.000000     0.000000     0.000000     0.333333
    4     1.000000   179.999999     0.000000     0.000000     1.000000     0.000000     0.500000     0.000000
    5    -1.000000   179.999999     0.000000     0.000000     1.000000     0.000000     0.500000     0.333333
    6     1.000000   180.000000     0.000000     1.000000     0.000000     0.000000     0.500000     0.333333
    7    -1.000000   180.000000     0.000000     1.000000     0.000000     0.000000     0.500000     0.000000
    8     1.000000   180.000000     1.000000     0.000000     0.000000     0.000000     0.000000     0.333333

 Subroutine IBZKPT returns following result:

 Found     12 irreducible k-points:

 Following reciprocal coordinates:
            Coordinates               Weight
  0.000000  0.000000  0.000000      1.000000
  0.200000  0.000000  0.000000      2.000000
  0.400000  0.000000  0.000000      2.000000
  0.000000  0.333333  0.000000      2.000000
  0.200000  0.333333  0.000000      4.000000
  0.400000  0.333333  0.000000      4.000000
  0.000000  0.000000  0.500000      1.000000
  0.200000  0.000000  0.500000      2.000000
  0.400000  0.000000  0.500000      2.000000
  0.000000  0.333333  0.500000      2.000000
  0.200000  0.333333  0.500000      4.000000
  0.400000  0.333333  0.500000      4.000000

 Following cartesian coordinates:
            Coordinates               Weight
  0.000000  0.000000  0.000000      1.000000
  0.051789  0.000000  0.000000      2.000000
  0.103578  0.000000  0.000000      2.000000
  0.000000  0.043097  0.000000      2.000000
  0.051789  0.043097  0.000000      4.000000
  0.103578  0.043097  0.000000      4.000000
  0.000000  0.000000  0.043192      1.000000
  0.051789  0.000000  0.043192      2.000000
[...]
     30      -7.0607      1.00000
     31      -7.0507      1.00000
     32      -7.0436      1.00000
     33      -7.0251      1.00000
     34      -6.9728      1.00000
     35      -6.9228      1.00000
     36      -6.7628      1.00000
     37      -6.7390      1.00000
     38      -6.6186      1.00000
     39      -6.6010      1.00000
     40      -6.4802      1.00000
     41      -6.4229      1.00000
     42      -6.2742      1.00000
     43       0.3768      1.00000
     44       0.5226      1.00000
     45       0.5377      1.00000
     46       0.8633      1.00000
     47       0.8638      1.00000
     48       1.2601      1.00000
     49       1.2906      1.00000
     50       1.3348      1.00000
     51       1.3686      1.00000
     52       2.0086      1.00000
     53       2.0630      1.00000
     54       2.0646      1.00000
     55       2.0760      1.00000
     56       2.2431      1.00000
     57       2.2954      1.00000
     58       2.3215      1.00000
     59       2.3271      1.00000
     60       2.3827      1.00000
[...]
    132      11.1040      0.00000
    133      11.1574      0.00000
    134      11.1913      0.00000
    135      11.2244      0.00000
    136      11.2819      0.00000
    137      11.3104      0.00000
    138      11.3680      0.00000
    139      11.3769      0.00000
    140      11.3817      0.00000
    141      11.4130      0.00000
    142      11.4396      0.00000
    143      11.4565      0.00000
    144      11.4668      0.00000
    145      11.4856      0.00000
    146      11.5241      0.00000

[...]

 spin component 2

[...]

 k-point    12 :       0.4000    0.3333    0.5000
  band No.  band energies     occupation
      1     -23.5837      1.00000
      2     -23.5557      1.00000
      3     -23.5450      1.00000
      4     -23.5184      1.00000
      5     -23.4983      1.00000
      6     -23.4742      1.00000
      7     -10.8423      1.00000
      8     -10.8160      1.00000
      9     -10.5580      1.00000
     10     -10.5048      1.00000
     11     -10.2961      1.00000
     12     -10.1158      1.00000
     13     -10.0170      1.00000
     14      -9.9953      1.00000
     15      -9.9142      1.00000
     16      -9.7934      1.00000
     17      -9.7317      1.00000
     18      -9.7195      1.00000
     19      -9.5679      1.00000
     20      -9.4670      1.00000
     21      -9.4660      1.00000
     22      -9.4233      1.00000
     23      -9.3185      1.00000
     24      -9.2607      1.00000
     25      -7.5542      1.00000
     26      -7.3408      1.00000
     27      -7.2440      1.00000
     28      -7.2439      1.00000
     29      -7.2143      1.00000
     30      -7.2018      1.00000
     31      -7.1536      1.00000
     32      -7.1432      1.00000
     33      -6.9735      1.00000
     34      -6.8706      1.00000
     35      -6.8565      1.00000
     36      -6.8285      1.00000
     37      -6.8007      1.00000
     38      -6.7639      1.00000
     39      -6.6771      1.00000
     40      -6.6334      1.00000
     41      -6.5475      1.00000
     42      -6.4727      1.00000
     43       1.2643      1.00000
     44       1.6880      1.00000
     45       1.8150      1.00000
     46       1.8763      1.00000
     47       2.0479      1.00000
     48       2.1543      1.00000
     49       2.1644      1.00000
     50       2.1763      1.00000
     51       2.3789      1.00000
     52       2.4619      1.00000
     53       2.5866      1.00000
     54       2.6196      1.00000
     55       2.6258      1.00000
     56       2.7347      1.00000
     57       2.7784      1.00000
     58       2.8076      1.00000
     59       2.9846      1.00000
     60       2.9965      1.00000
[...]
    132      11.3678      0.00000
    133      11.3743      0.00000
    134      11.3843      0.00000
    135      11.3914      0.00000
    136      11.3988      0.00000
    137      11.4068      0.00000
    138      11.4180      0.00000
    139      11.4291      0.00000
    140      11.4448      0.00000
    141      11.4667      0.00000
    142      11.4760      0.00000
    143      11.4936      0.00000
    144      11.5261      0.00000
    145      11.5476      0.00000
    146      11.5805      0.00000

 soft charge-density along one line, spin component           1
         0         1         2         3         4         5         6         7         8         9
 total charge-density along one line

 soft charge-density along one line, spin component           2
         0         1         2         3         4         5         6         7         8         9
 total charge-density along one line

------------------------ aborting loop because EDIFF is reached ----------------------------------------

 total charge

# of ion       s       p       d       f       tot
    1        2.001   5.700   0.497   0.193   8.391
    2        2.000   5.701   0.499   0.195   8.395
    3        2.001   5.700   0.497   0.193   8.391
    4        2.001   5.700   0.497   0.193   8.391
    5        2.000   5.701   0.499   0.195   8.395
    6        2.001   5.700   0.497   0.193   8.391
    7        0.352   0.562   4.870   0.000   5.784
    8        0.352   0.562   4.870   0.000   5.784
    9        0.408   0.602   8.319   0.000   9.329
   10        0.424   0.638   8.322   0.000   9.385
   11        0.408   0.602   8.319   0.000   9.329
   12        0.424   0.638   8.322   0.000   9.385
   13        1.562   3.461   0.000   0.000   5.023
   14        1.562   3.457   0.000   0.000   5.019
   15        1.562   3.457   0.000   0.000   5.019
   16        1.562   3.461   0.000   0.000   5.023
   17        1.563   3.437   0.000   0.000   4.999
   18        1.563   3.437   0.000   0.000   4.999
   19        1.562   3.459   0.000   0.000   5.021
   20        1.562   3.459   0.000   0.000   5.021
   21        1.562   3.439   0.000   0.000   5.001
   22        1.562   3.459   0.000   0.000   5.021
   23        1.562   3.459   0.000   0.000   5.021
   24        1.562   3.439   0.000   0.000   5.001
   25        1.565   3.464   0.000   0.000   5.029
   26        1.565   3.464   0.000   0.000   5.029
   27        1.561   3.445   0.000   0.000   5.006
   28        1.559   3.443   0.000   0.000   5.002
   29        1.559   3.443   0.000   0.000   5.002
   30        1.561   3.445   0.000   0.000   5.006
tot         42.487  99.936  46.010   1.160 189.592

 magnetization (x)

[...]

  FORCE on cell =-STRESS in cart. coord.  units (eV):
  Direction    XX          YY          ZZ          XY          YZ          ZX
  Alpha Z   993.67717   993.67717   993.67717
  Ewald   -5267.18998 -5339.22744 -5356.28078     0.00000    -0.00000    -0.00000
  Hartree  1286.86933  1224.15484  1197.72685    -0.00000    -0.00000    -0.00000
  E(xc)   -1066.96053 -1067.26730 -1067.19218     0.00000     0.00000    -0.00000
  Local    -868.32387  -737.70833  -690.20428    -0.00000    -0.00000     0.00000
  n-local   430.07966   429.22677   429.43393     0.89542     0.00048     0.00045
  augment   633.71762   635.00946   633.78591     0.00000    -0.00000    -0.00000
  Kinetic  3859.04486  3863.84519  3860.31446    -2.43216    -0.00000    -0.00062
  Fock        0.00000     0.00000     0.00000     0.00000     0.00000     0.00000
  Total       0.91427     1.71036     1.26108     0.00000    -0.00000     0.00000
  in kB       4.23644     7.92527     5.84343     0.00000    -0.00000     0.00000

 VOLUME and BASIS-vectors are now :
  energy-cutoff  :      520.00
  volume of cell :      345.77
      direct lattice vectors                 reciprocal lattice vectors
     3.861829186  0.000000000  0.000000000     0.258944648  0.000000000  0.000000000
     0.000000000  7.734405693  0.000000000     0.000000000  0.129292416  0.000000000
     0.000000000  0.000000000 11.576160119     0.000000000  0.000000000  0.086384431

  length of vectors
     3.861829186  7.734405693 11.576160119     0.258944648  0.129292416  0.086384431

 FORCES acting on ions
    electron-ion (+dipol)            ewald-force                    non-local-force                 convergence-correction
   -.859E-14 0.617E+02 -.825E+02   -.207E-13 -.610E+02 0.820E+02   0.434E-18 -.674E+00 0.471E+00   0.449E-15 0.947E-02 -.125E-02
   -.144E-13 0.222E-04 -.669E-03   0.257E-13 -.239E-04 -.313E-03   -.271E-19 0.000E+00 0.000E+00   0.977E-14 0.228E-07 0.102E-04
   -.104E-13 -.617E+02 0.825E+02   0.404E-13 0.610E+02 -.820E+02   -.271E-19 0.674E+00 -.471E+00   0.890E-14 -.947E-02 0.124E-02
   -.693E-14 -.617E+02 -.825E+02   0.688E-14 0.610E+02 0.820E+02   0.000E+00 0.674E+00 0.471E+00   0.332E-14 -.947E-02 -.125E-02
   -.594E-14 -.222E-04 -.669E-03   -.312E-13 0.239E-04 -.313E-03   0.000E+00 0.000E+00 0.000E+00   0.360E-14 -.228E-07 0.102E-04
   -.281E-14 0.617E+02 0.825E+02   -.322E-13 -.610E+02 -.820E+02   0.000E+00 -.674E+00 -.471E+00   0.419E-14 0.947E-02 0.124E-02
   0.587E-13 0.699E-13 -.891E+01   -.423E-13 -.237E-13 0.867E+01   0.169E-20 0.339E-20 0.131E+00   0.183E-13 0.137E-12 0.103E-02
   0.491E-13 0.953E-12 0.891E+01   0.260E-13 -.231E-13 -.867E+01   0.169E-20 0.339E-20 -.131E+00   0.204E-13 -.702E-13 -.103E-02
   0.317E-12 0.744E-14 0.518E+02   0.106E-13 -.420E-13 -.514E+02   0.000E+00 -.339E-20 -.410E+00   0.383E-13 0.145E-12 0.128E-01
   0.264E-12 0.261E-11 0.403E+02   -.169E-13 -.252E-13 -.402E+02   -.635E-21 0.000E+00 -.337E-01   0.446E-13 -.489E-13 0.140E-01
   0.273E-12 0.239E-11 -.518E+02   -.141E-13 0.337E-13 0.514E+02   0.000E+00 0.000E+00 0.410E+00   0.686E-13 -.177E-12 -.128E-01
   0.317E-12 0.129E-11 -.403E+02   0.382E-13 -.614E-13 0.402E+02   -.847E-21 0.000E+00 0.337E-01   0.574E-13 0.144E-12 -.140E-01
   0.114E-12 0.794E-12 -.456E+02   0.598E-14 0.154E-13 0.412E+02   -.678E-20 -.169E-19 0.442E+01   0.130E-13 -.626E-13 -.157E-01
   0.115E-12 0.103E-12 -.796E+02   -.731E-14 0.272E-13 0.755E+02   -.212E-21 0.000E+00 0.416E+01   0.806E-14 0.107E-12 -.154E-01
   0.115E-12 0.203E-11 0.796E+02   0.326E-13 0.297E-13 -.755E+02   0.000E+00 0.169E-20 -.416E+01   0.197E-13 -.258E-13 0.154E-01
   0.129E-12 0.154E-11 0.456E+02   -.247E-14 -.121E-13 -.412E+02   -.136E-19 0.000E+00 -.442E+01   0.226E-13 0.116E-12 0.157E-01
   0.112E-12 0.786E-12 -.324E+02   0.252E-13 -.120E-13 0.328E+02   -.424E-21 0.000E+00 -.361E+00   0.238E-13 -.352E-13 0.126E-03
   0.119E-12 0.500E-12 0.324E+02   -.213E-13 -.683E-14 -.328E+02   0.000E+00 -.339E-20 0.361E+00   0.942E-14 0.106E-12 -.132E-03
   0.109E-12 -.487E+02 0.165E+02   -.128E-15 0.437E+02 -.161E+02   -.867E-18 0.508E+01 -.391E+00   0.140E-13 -.173E-01 0.169E-02
   0.109E-12 -.487E+02 -.165E+02   0.135E-13 0.437E+02 0.161E+02   0.000E+00 0.508E+01 0.391E+00   0.118E-13 -.173E-01 -.169E-02
   0.112E-12 0.107E-04 -.651E-03   0.382E-14 -.120E-04 -.210E-03   0.000E+00 0.000E+00 -.102E-19   -.229E-14 0.942E-08 -.140E-05
   0.121E-12 0.487E+02 0.165E+02   -.859E-14 -.437E+02 -.161E+02   0.434E-18 -.508E+01 -.391E+00   -.138E-13 0.173E-01 0.169E-02
   0.121E-12 0.487E+02 -.165E+02   -.256E-14 -.437E+02 0.161E+02   0.434E-18 -.508E+01 0.391E+00   0.387E-14 0.173E-01 -.169E-02
   0.114E-12 -.107E-04 -.651E-03   -.296E-13 0.120E-04 -.210E-03   0.106E-21 0.339E-20 0.000E+00   0.115E-13 -.942E-08 -.140E-05
   -.116E-13 0.390E-12 0.416E+01   0.551E-15 0.122E-13 -.366E+01   0.000E+00 0.000E+00 -.536E+00   -.299E-14 -.489E-13 -.131E-02
   -.738E-14 0.322E-13 -.416E+01   0.289E-13 0.401E-13 0.366E+01   0.000E+00 0.847E-21 0.536E+00   -.309E-14 0.124E-12 0.132E-02
   -.645E-14 0.279E-12 0.237E+02   -.994E-14 0.475E-13 -.242E+02   0.000E+00 0.000E+00 0.617E+00   0.378E-14 -.559E-15 0.376E-02
   -.668E-14 -.349E-12 0.294E+02   -.994E-14 -.212E-14 -.294E+02   0.000E+00 0.678E-20 0.868E-01   0.317E-15 0.127E-12 0.451E-02
   -.535E-14 0.167E-12 -.294E+02   -.921E-15 -.202E-13 0.294E+02   0.000E+00 0.678E-20 -.868E-01   -.124E-13 -.617E-13 -.451E-02
   -.979E-14 0.220E-13 -.237E+02   0.129E-13 -.330E-13 0.242E+02   0.000E+00 -.847E-21 -.617E+00   -.573E-14 0.867E-13 -.376E-02
   0.257E-11 0.134E-10 -.535E-02   0.210E-13 -.124E-13 0.391E-13   0.361E-18 -.888E-15 0.888E-15   0.379E-12 0.343E-12 -.368E-06

 POSITION                                       TOTAL-FORCE (eV/Angst)
      0.00000      3.92830      3.81356         0.000000      0.023920     -0.006874
      0.00000      0.00000      7.71744         0.000000     -0.000000      0.000000
      0.00000      3.80611      0.04516         0.000000     -0.023920      0.006874
      0.00000      7.67331      3.81356         0.000000     -0.023920     -0.006874
      0.00000      3.86720      7.71744         0.000000     -0.000000      0.000000
      0.00000      0.06109      0.04516        -0.000000      0.023920      0.006874
      1.93091      1.93360      5.78108        -0.000000     -0.000000     -0.110206
      1.93091      5.80080      9.65380        -0.000000     -0.000000      0.110206
      1.93091      1.93360      9.64385         0.000000     -0.000000      0.004907
      1.93091      5.80080      1.91270         0.000000     -0.000000      0.012303
      1.93091      5.80080      5.79103         0.000000     -0.000000     -0.004907
      1.93091      1.93360      1.94602         0.000000     -0.000000     -0.012303
      1.93091      5.80080      7.75178        -0.000000     -0.000000     -0.025287
      1.93091      1.93360      3.88816        -0.000000     -0.000000      0.074709
      1.93091      5.80080     11.54672        -0.000000     -0.000000     -0.074709
      1.93091      1.93360      7.68310        -0.000000     -0.000000      0.025287
      1.93091      5.80080      3.85003         0.000000     -0.000000      0.001846
      1.93091      1.93360      0.00869         0.000000     -0.000000     -0.001846
      1.93091      3.90734      9.63614         0.000000      0.028422     -0.007416
      1.93091      0.04014      5.79874         0.000000      0.028422      0.007416
      1.93091      3.86720      1.92936         0.000000     -0.000000      0.000000
      1.93091      7.69427      9.63614         0.000000     -0.028422     -0.007416
      1.93091      3.82706      5.79874         0.000000     -0.028422      0.007416
      1.93091      0.00000      1.92936         0.000000     -0.000000      0.000000
      0.00000      5.80080      9.62685         0.000000     -0.000000     -0.039395
      0.00000      1.93360      5.80803         0.000000     -0.000000      0.039395
      0.00000      5.80080      1.94742         0.000000     -0.000000      0.042806
      0.00000      1.93360      9.64814        -0.000000     -0.000000      0.044529
      0.00000      5.80080      5.78674        -0.000000     -0.000000     -0.044529
      0.00000      1.93360      1.91130         0.000000     -0.000000     -0.042806
    total drift:                                0.000000      0.000000     -0.005349

  FREE ENERGIE OF THE ION-ELECTRON SYSTEM (eV)
  free  energy   TOTEN  =      -213.77192949 eV

  energy  without entropy=     -213.77192949  energy(sigma->0) =     -213.77192949

 total charge

[...]

 magnetization (x)

# of ion       s       p       d       f       tot
    1        0.000   0.000   0.006   0.003   0.009
    2        0.001   0.001   0.009   0.003   0.014
    3        0.000   0.000   0.006   0.003   0.009
    4        0.000   0.000   0.006   0.003   0.009
    5        0.001   0.001   0.009   0.003   0.014
    6        0.000   0.000   0.006   0.003   0.009
    7        0.022   0.028   3.276   0.000   3.326
    8        0.022   0.028   3.276   0.000   3.326
    9        0.011   0.004   1.539   0.000   1.554
   10        0.016   0.010   1.423   0.000   1.449
   11        0.011   0.004   1.539   0.000   1.554
   12        0.016   0.010   1.423   0.000   1.449
   13        0.004  -0.027   0.000   0.000  -0.023
   14        0.005  -0.022   0.000   0.000  -0.018
   15        0.005  -0.022   0.000   0.000  -0.018
   16        0.004  -0.027   0.000   0.000  -0.023
   17        0.006  -0.093   0.000   0.000  -0.087
   18        0.006  -0.093   0.000   0.000  -0.087
   19        0.005  -0.018   0.000   0.000  -0.013
   20        0.005  -0.018   0.000   0.000  -0.013
   21        0.006  -0.081   0.000   0.000  -0.075
   22        0.005  -0.018   0.000   0.000  -0.013
   23        0.005  -0.018   0.000   0.000  -0.013
   24        0.006  -0.081   0.000   0.000  -0.075
   25        0.002  -0.057   0.000   0.000  -0.055
   26        0.002  -0.057   0.000   0.000  -0.055
   27        0.006  -0.062   0.000   0.000  -0.056
   28        0.005  -0.054   0.000   0.000  -0.049
   29        0.005  -0.054   0.000   0.000  -0.049
   30        0.006  -0.062   0.000   0.000  -0.056
tot          0.192  -0.777  12.516   0.018  11.949

 BZINTS: Fermi energy:  7.565419;228.000000 electrons
         Band energy:-280.587154;  BLOECHL correction: -0.125371