 vasp.5.4.4.18Apr17-6-g9f103f2a35 (build Oct 03 2018 13:58:34) complex

 executed on             LinuxIFC date 2019.06.04  01:12:12

 INCAR:
 POTCAR:    PAW_PBE La 06Sep2000
 POTCAR:    PAW_PBE Mn 06Sep2000
 POTCAR:    PAW_PBE Ni 02Aug2007
 POTCAR:    PAW_PBE O 08Apr2002

 POTCAR:    PAW_PBE La 06Sep2000
   VRHFIN =La : [core=Kr4d]

   TITEL  = PAW_PBE La 06Sep2000
   POMASS =  138.900; ZVAL   =   11.000    mass and valenz
   ENMAX  =  219.292; ENMIN  =  164.469 eV

 POTCAR:    PAW_PBE Mn 06Sep2000
   VRHFIN =Mn: d6 s1

   TITEL  = PAW_PBE Mn 06Sep2000
   POMASS =   54.938; ZVAL   =    7.000    mass and valenz
   ENMAX  =  269.864; ENMIN  =  202.398 eV

 POTCAR:    PAW_PBE Ni 02Aug2007
   VRHFIN =Ni:

   TITEL  = PAW_PBE Ni 02Aug2007
   POMASS =   58.690; ZVAL   =   10.000    mass and valenz
   ENMAX  =  269.532; ENMIN  =  202.149 eV

 POTCAR:    PAW_PBE O 08Apr2002
   VRHFIN =O: s2p4

   TITEL  = PAW_PBE O 08Apr2002
   POMASS =   16.000; ZVAL   =    6.000    mass and valenz
   ENMAX  =  400.000; ENMIN  =  300.000 eV

 Optimization of the real space projectors (new method)

 maximal supplied QI-value         = 13.42
 optimisation between [QCUT,QGAM] = [ 11.67, 23.35] = [ 38.16,152.62] Ry
 Optimized for a Real-space Cutoff    1.63 Angstroem

   l    n(q)    QCUT    max X(q) W(low)/X(q) W(high)/X(q)  e(spline)
   0     11    11.673    13.882    0.27E-04    0.79E-05    0.11E-06
   0     11    11.673    12.184    0.39E-04    0.13E-04    0.19E-06
   1     11    11.673     4.523    0.73E-05    0.76E-05    0.12E-06
   1     11    11.673     4.424    0.87E-05    0.13E-04    0.19E-06
   2     10    11.673    52.481    0.65E-04    0.36E-04    0.18E-06
   2     10    11.673    38.501    0.61E-04    0.33E-04    0.17E-06
   3     10    11.673    65.631    0.17E-03    0.14E-03    0.37E-06
   3     10    11.673    56.854    0.17E-03    0.14E-03    0.37E-06
 Optimization of the real space projectors (new method)

[...]

   l    n(q)    QCUT    max X(q) W(low)/X(q) W(high)/X(q)  e(spline)
   2      9    11.539    60.317    0.19E-03    0.47E-04    0.16E-06
   2      9    11.539    55.921    0.19E-03    0.48E-04    0.16E-06
   0     10    11.539    51.690    0.80E-04    0.50E-04    0.24E-06
   0     10    11.539    30.015    0.73E-04    0.45E-04    0.22E-06
   1     10    11.539    18.849    0.87E-04    0.16E-03    0.71E-07
   1     10    11.539    14.624    0.73E-04    0.13E-03    0.64E-07
 Optimization of the real space projectors (new method)

 maximal supplied QI-value         = 24.76
 optimisation between [QCUT,QGAM] = [ 11.64, 23.27] = [ 37.91,151.63] Ry
 Optimized for a Real-space Cutoff    1.14 Angstroem

   l    n(q)    QCUT    max X(q) W(low)/X(q) W(high)/X(q)  e(spline)
   0      8    11.635    20.381    0.10E-03    0.33E-03    0.24E-06
   0      8    11.635    15.268    0.11E-03    0.35E-03    0.26E-06
   1      7    11.635     5.964    0.24E-03    0.31E-03    0.30E-06
   1      7    11.635     5.382    0.22E-03    0.25E-03    0.26E-06
  PAW_PBE La 06Sep2000                  :
  PAW_PBE Mn 06Sep2000                  :
  PAW_PBE Ni 02Aug2007                  :
  PAW_PBE O 08Apr2002                   :

 POSCAR: SCEL6_3_2_1_0_1_0/0
  positions in direct lattice
  velocities in cartesian coordinates
 exchange correlation table for  LEXCH =        8
   RHO(1)=    0.500       N(1)  =     2000
   RHO(2)=  100.500       N(2)  =     4000

 ion  position               nearest neighbor table
   1  0.335  0.502  0.671-  21 2.73  30 2.74  14 2.74  27 2.77  17 2.77  23 2.77  23 2.77  16 2.78
                            26 2.78  19 2.80  13 2.80  29 2.80  12 3.36   9 3.38   7 3.39   7 3.39
   2  0.665  0.998  0.329-  24 2.73  28 2.74  18 2.74  25 2.77  15 2.77  22 2.77  22 2.77  16 2.78
                            26 2.78  20 2.80  13 2.80  29 2.80  12 3.36   9 3.38  10 3.39  10 3.39
   3  0.000  0.505  0.000-  14 2.75  18 2.75  28 2.75  30 2.75  21 2.77  21 2.77  23 2.77  19 2.77
                            17 2.81  15 2.81  27 2.81  25 2.81   7 3.37  10 3.37  12 3.37  12 3.37
   4  0.335  0.998  0.671-  24 2.73  30 2.74  14 2.74  27 2.77  17 2.77  20 2.77  20 2.77  16 2.78
                            26 2.78  22 2.80  13 2.80  29 2.80  12 3.36   9 3.38   7 3.39   7 3.39
   5  0.665  0.502  0.329-  21 2.73  28 2.74  18 2.74  25 2.77  15 2.77  19 2.77  19 2.77  16 2.78
                            26 2.78  23 2.80  13 2.80  29 2.80  12 3.36   9 3.38  10 3.39  10 3.39
   6  0.000  0.995  0.000-  14 2.75  18 2.75  28 2.75  30 2.75  24 2.77  24 2.77  20 2.77  22 2.77
                            17 2.81  15 2.81  27 2.81  25 2.81   7 3.37  10 3.37  12 3.37  12 3.37
   7  0.833  0.750  0.667-  14 1.94  30 1.94  26 1.96  16 1.96  20 1.97  23 1.97   3 3.37   6 3.37
                             4 3.39   1 3.39   1 3.39   4 3.39   5 3.41   2 3.41
   8  0.167  0.250  0.334-  29 1.95  13 1.95  22 1.96  19 1.96  15 1.96  25 1.96   2 3.41   5 3.41
                             2 3.41   5 3.41   3 3.42   6 3.42   1 3.43   4 3.43
   9  0.500  0.250  0.000-  21 1.93  24 1.93  25 1.96  27 1.96  15 1.96  17 1.96   4 3.38   5 3.38
                             1 3.38   2 3.38   3 3.42   6 3.42   3 3.42   6 3.42
  10  0.167  0.750  0.333-  18 1.94  28 1.94  26 1.96  16 1.96  19 1.97  22 1.97   3 3.37   6 3.37
                             5 3.39   2 3.39   2 3.39   5 3.39   1 3.41   4 3.41
  11  0.833  0.250  0.666-  29 1.95  13 1.95  23 1.96  20 1.96  17 1.96  27 1.96   1 3.41   4 3.41
                             1 3.41   4 3.41   3 3.42   6 3.42   5 3.43   2 3.43
  12  0.500  0.750  0.000-  28 1.97  30 1.97  14 1.97  18 1.97  21 2.00  24 2.00   4 3.36   5 3.36
                             1 3.36   2 3.36   3 3.37   6 3.37   3 3.37   6 3.37
  13  0.000  0.250  0.500-   8 1.95  11 1.95   4 2.80   5 2.80   1 2.80   2 2.80
  14  0.667  0.750  0.832-   7 1.94  12 1.97   1 2.74   4 2.74   3 2.75   6 2.75
  15  0.334  0.250  0.167-   8 1.96   9 1.96   2 2.77   5 2.77   3 2.81   6 2.81
  16  0.000  0.750  0.500-   7 1.96  10 1.96   4 2.78   5 2.78   1 2.78   2 2.78
  17  0.666  0.250  0.833-  11 1.96   9 1.96   1 2.77   4 2.77   3 2.81   6 2.81
  18  0.333  0.750  0.168-  10 1.94  12 1.97   2 2.74   5 2.74   3 2.75   6 2.75
  19  0.167  0.499  0.334-   8 1.96  10 1.97   5 2.77   5 2.77   3 2.77   1 2.80
  20  0.833  0.001  0.666-  11 1.96   7 1.97   4 2.77   4 2.77   6 2.77   2 2.80
  21  0.500  0.495  0.000-   9 1.93  12 2.00   1 2.73   5 2.73   3 2.77   3 2.77
  22  0.167  0.001  0.334-   8 1.96  10 1.97   2 2.77   2 2.77   6 2.77   4 2.80
  23  0.833  0.499  0.666-  11 1.96   7 1.97   1 2.77   1 2.77   3 2.77   5 2.80
  24  0.500  0.005  0.000-   9 1.93  12 2.00   2 2.73   4 2.73   6 2.77   6 2.77
  25  0.834  0.250  0.167-   8 1.96   9 1.96   2 2.77   5 2.77   3 2.81   6 2.81
  26  0.500  0.750  0.500-   7 1.96  10 1.96   4 2.78   5 2.78   1 2.78   2 2.78
  27  0.166  0.250  0.833-  11 1.96   9 1.96   1 2.77   4 2.77   3 2.81   6 2.81
  28  0.835  0.750  0.168-  10 1.94  12 1.97   2 2.74   5 2.74   3 2.75   6 2.75
  29  0.500  0.250  0.500-   8 1.95  11 1.95   4 2.80   5 2.80   1 2.80   2 2.80
  30  0.165  0.750  0.832-   7 1.94  12 1.97   1 2.74   4 2.74   3 2.75   6 2.75

  LATTYP: Found a base centered orthorhombic cell.
 ALAT       =     5.5387263228
 B/A-ratio  =     2.9973553018
 C/A-ratio  =     1.4183267419

  Lattice vectors:

 A1 = (   3.9112920050,   0.0000000000,  -7.8277629371)
 A2 = (  -7.8277629470,   0.0000000000,   3.9112919951)
 A3 = (   0.0000000000,   7.8557236596,   0.0000000000)

Analysis of symmetry for initial positions (statically):
 Subroutine PRICEL returns:
 Original cell was already a primitive cell.

 Routine SETGRP: Setting up the symmetry group for a
 base centered orthorhombic supercell.

 Subroutine GETGRP returns: Found  8 space group operations
 (whereof  4 operations were pure point group operations)
 out of a pool of  8 trial point group operations.

The static configuration has the point symmetry C_2v.
 The point group associated with its full space group is D_2h.

Analysis of symmetry for dynamics (positions and initial velocities):
 Subroutine PRICEL returns:
 Original cell was already a primitive cell.

[...]

The dynamic configuration has the point symmetry C_2v.
 The point group associated with its full space group is D_2h.

Analysis of structural, dynamic, and magnetic symmetry:
 Subroutine PRICEL returns:
 Original cell was already a primitive cell.

 Routine SETGRP: Setting up the symmetry group for a
 base centered orthorhombic supercell.

 Subroutine GETGRP returns: Found  8 space group operations
 (whereof  4 operations were pure point group operations)
 out of a pool of  8 trial point group operations.

The magnetic configuration has the point symmetry C_2v.
 The point group associated with its full space group is D_2h.

 Subroutine INISYM returns: Found  8 space group operations
 (whereof  4 operations are pure point group operations),
 and found     1 'primitive' translations

 KPOINTS: Automatic mesh

Automatic generation of k-mesh.
 generate k-points for:    4    3    2
Space group operators:
 irot       det(A)        alpha          n_x          n_y          n_z        tau_x        tau_y        tau_z
    1     1.000000     0.000000     1.000000     0.000000     0.000000     0.000000     0.000000     0.000000
    2     1.000000   180.000000     0.000000     1.000000     0.000000     0.000000     0.000000     0.000000
    3    -1.000000   180.000000     0.707107     0.000000    -0.707107     0.000000     0.000000     0.000000
    4    -1.000000   180.000000    -0.707107     0.000000    -0.707107     0.000000     0.000000     0.000000
    5    -1.000000     0.000000     1.000000     0.000000     0.000000     0.000000    -0.500000     0.000000
    6    -1.000000   180.000000     0.000000     1.000000     0.000000     0.000000    -0.500000     0.000000
    7     1.000000   180.000000     0.707107     0.000000    -0.707107     0.000000    -0.500000     0.000000
    8     1.000000   180.000000    -0.707107     0.000000    -0.707107     0.000000    -0.500000     0.000000

 Subroutine IBZKPT returns following result:

 Found     10 irreducible k-points:

 Following reciprocal coordinates:
            Coordinates               Weight
  0.000000  0.000000  0.000000      1.000000
  0.250000  0.000000 -0.000000      2.000000
  0.500000  0.000000 -0.000000      2.000000
  0.000000  0.333333  0.000000      2.000000
  0.250000  0.333333 -0.000000      4.000000
  0.500000  0.333333 -0.000000      4.000000
  0.000000  0.000000  0.500000      1.000000
  0.250000  0.000000  0.500000      2.000000
  0.000000  0.333333  0.500000      2.000000
  0.250000  0.333333  0.500000      4.000000

 Following cartesian coordinates:
            Coordinates               Weight
  0.000000  0.000000  0.000000      1.000000
  0.042565  0.000000  0.021268      2.000000
  0.085129  0.000000  0.042537      2.000000
  0.000000 -0.042432  0.000000      2.000000
  0.042565 -0.042432  0.021268      4.000000
  0.085129 -0.042432  0.042537      4.000000
  0.042593  0.000000 -0.042593      1.000000
  0.085158  0.000000 -0.021325      2.000000
  0.042593 -0.042432 -0.042593      2.000000
[...]
     30      -8.0359      1.00000
     31      -8.0017      1.00000
     32      -7.9815      1.00000
     33      -7.9389      1.00000
     34      -7.9360      1.00000
     35      -7.9033      1.00000
     36      -7.8984      1.00000
     37      -7.8710      1.00000
     38      -7.6651      1.00000
     39      -7.6263      1.00000
     40      -7.5343      1.00000
     41      -7.5069      1.00000
     42      -7.2113      1.00000
     43       0.2371      1.00000
     44       0.4304      1.00000
     45       0.9620      1.00000
     46       0.9995      1.00000
     47       1.1327      1.00000
     48       1.1620      1.00000
     49       1.3196      1.00000
     50       1.4317      1.00000
     51       1.4903      1.00000
     52       1.4931      1.00000
     53       1.4980      1.00000
     54       1.5038      1.00000
     55       1.5280      1.00000
     56       1.5782      1.00000
     57       1.6233      1.00000
     58       1.7723      1.00000
     59       1.8354      1.00000
     60       1.8780      1.00000
[...]
    130      10.2551      0.00000
    131      10.2981      0.00000
    132      10.3277      0.00000
    133      10.3395      0.00000
    134      10.3575      0.00000
    135      10.3739      0.00000
    136      10.3967      0.00000
    137      10.4168      0.00000
    138      10.4379      0.00000
    139      10.4620      0.00000
    140      10.4710      0.00000
    141      10.4919      0.00000
    142      10.5114      0.00000
    143      10.5427      0.00000
    144      10.5716      0.00000

[...]

 spin component 2

[...]

 k-point    10 :       0.2500    0.3333    0.5000
  band No.  band energies     occupation
      1     -24.4912      1.00000
      2     -24.4742      1.00000
      3     -24.4655      1.00000
      4     -24.4495      1.00000
      5     -24.4294      1.00000
      6     -24.4068      1.00000
      7     -11.2908      1.00000
      8     -11.2202      1.00000
      9     -11.1800      1.00000
     10     -11.0429      1.00000
     11     -10.8953      1.00000
     12     -10.6208      1.00000
     13     -10.4382      1.00000
     14     -10.3972      1.00000
     15     -10.3107      1.00000
     16     -10.2445      1.00000
     17     -10.1931      1.00000
     18     -10.1289      1.00000
     19     -10.0096      1.00000
     20      -9.9728      1.00000
     21      -9.8984      1.00000
     22      -9.8446      1.00000
     23      -9.7592      1.00000
     24      -9.7293      1.00000
     25      -8.2847      1.00000
     26      -8.0960      1.00000
     27      -8.0663      1.00000
     28      -7.9698      1.00000
     29      -7.9459      1.00000
     30      -7.9359      1.00000
     31      -7.8953      1.00000
     32      -7.8303      1.00000
     33      -7.8190      1.00000
     34      -7.7819      1.00000
     35      -7.7380      1.00000
     36      -7.6960      1.00000
     37      -7.6526      1.00000
     38      -7.5752      1.00000
     39      -7.5414      1.00000
     40      -7.5074      1.00000
     41      -7.4604      1.00000
     42      -7.4017      1.00000
     43       1.3521      1.00000
     44       1.7021      1.00000
     45       1.8885      1.00000
     46       2.0623      1.00000
     47       2.1844      1.00000
     48       2.3352      1.00000
     49       2.3642      1.00000
     50       2.4675      1.00000
     51       2.5734      1.00000
     52       2.9268      1.00000
     53       2.9718      1.00000
     54       3.0189      1.00000
     55       3.0369      1.00000
     56       3.0881      1.00000
     57       3.1408      1.00000
     58       3.1653      1.00000
     59       3.1935      1.00000
     60       3.2148      1.00000
[...]
    130      10.4828      0.00000
    131      10.5075      0.00000
    132      10.5112      0.00000
    133      10.5157      0.00000
    134      10.5195      0.00000
    135      10.5380      0.00000
    136      10.5795      0.00000
    137      10.5893      0.00000
    138      10.6019      0.00000
    139      10.6240      0.00000
    140      10.6476      0.00000
    141      10.6905      0.00000
    142      10.7146      0.00000
    143      10.8909      0.00000
    144      10.9652      0.00000

 soft charge-density along one line, spin component           1
         0         1         2         3         4         5         6         7         8         9
 total charge-density along one line

 soft charge-density along one line, spin component           2
         0         1         2         3         4         5         6         7         8         9
 total charge-density along one line

------------------------ aborting loop because EDIFF is reached ----------------------------------------

 total charge

# of ion       s       p       d       f       tot
    1        1.998   5.695   0.475   0.184   8.353
    2        1.998   5.695   0.475   0.184   8.353
    3        1.998   5.695   0.474   0.183   8.350
    4        1.998   5.695   0.475   0.184   8.353
    5        1.998   5.695   0.475   0.184   8.353
    6        1.998   5.695   0.474   0.183   8.350
    7        0.317   0.480   4.893   0.000   5.689
    8        0.317   0.477   4.899   0.000   5.692
    9        0.324   0.494   4.888   0.000   5.706
   10        0.317   0.480   4.893   0.000   5.689
   11        0.317   0.477   4.899   0.000   5.693
   12        0.390   0.557   8.313   0.000   9.260
   13        1.563   3.457   0.000   0.000   5.020
   14        1.560   3.454   0.000   0.000   5.014
   15        1.564   3.455   0.000   0.000   5.019
   16        1.562   3.460   0.000   0.000   5.022
   17        1.564   3.455   0.000   0.000   5.019
   18        1.560   3.454   0.000   0.000   5.014
   19        1.564   3.455   0.000   0.000   5.019
   20        1.564   3.455   0.000   0.000   5.019
   21        1.560   3.450   0.000   0.000   5.010
   22        1.564   3.456   0.000   0.000   5.020
   23        1.564   3.456   0.000   0.000   5.020
   24        1.560   3.450   0.000   0.000   5.010
   25        1.565   3.453   0.000   0.000   5.018
   26        1.563   3.455   0.000   0.000   5.019
   27        1.565   3.453   0.000   0.000   5.018
   28        1.560   3.451   0.000   0.000   5.011
   29        1.565   3.453   0.000   0.000   5.017
   30        1.560   3.451   0.000   0.000   5.011
tot         42.095  99.311  35.633   1.103 178.142

 magnetization (x)

[...]

  FORCE on cell =-STRESS in cart. coord.  units (eV):
  Direction    XX          YY          ZZ          XY          YZ          ZX
  Alpha Z   964.43923   964.43923   964.43923
  Ewald   -4858.31861 -4892.29347 -4858.31867    -0.00000     0.00000     6.76003
  Hartree  1010.79513   991.78017  1010.79518     0.00000    -0.00000     7.65834
  E(xc)   -1005.43665 -1005.53985 -1005.43669    -0.00000    -0.00000    -0.01084
  Local    -520.81138  -471.12930  -520.81075    -0.00000     0.00000   -14.84600
  n-local   390.74937   389.65302   390.16030     0.04450     0.04850    -0.02967
  augment   198.25349   199.28245   198.25110     0.00000    -0.00000     0.10082
  Kinetic  3819.58529  3823.65598  3820.99346     0.11867     0.13158     0.30276
  Fock        0.00000     0.00000     0.00000     0.00000     0.00000     0.00000
  Total      -0.33549    -0.15178    -0.33549     0.00000     0.00000    -0.03758
  in kB      -1.48824    -0.67328    -1.48824     0.00000     0.00000    -0.16670

 VOLUME and BASIS-vectors are now :
  energy-cutoff  :      520.00
  volume of cell :      361.17
      direct lattice vectors                 reciprocal lattice vectors
     3.916470942  0.000000000  3.916470942     0.170258821  0.000000000  0.085073088
     0.000000000 -7.855723660  0.000000000     0.000000000 -0.127295720  0.000000000
     3.911292005  0.000000000 -7.827762937     0.085185733  0.000000000 -0.085185733

  length of vectors
     5.538726323  7.855723660  8.750547283     0.190329967  0.127295720  0.120470819

 FORCES acting on ions
    electron-ion (+dipol)            ewald-force                    non-local-force                 convergence-correction
   0.303E+02 -.300E+02 -.303E+02   -.300E+02 0.299E+02 0.300E+02   -.213E+00 0.118E+00 0.213E+00   -.148E-01 -.203E-01 0.148E-01
   -.303E+02 0.300E+02 0.303E+02   0.300E+02 -.299E+02 -.300E+02   0.213E+00 -.118E+00 -.213E+00   0.148E-01 0.203E-01 -.148E-01
   -.274E-07 -.542E+02 0.884E-07   -.497E-13 0.538E+02 0.426E-13   0.000E+00 0.373E+00 -.108E-18   0.755E-12 -.483E-01 -.698E-12
   0.303E+02 0.300E+02 -.303E+02   -.300E+02 -.299E+02 0.300E+02   -.213E+00 -.118E+00 0.213E+00   -.148E-01 0.203E-01 0.148E-01
   -.303E+02 -.300E+02 0.303E+02   0.300E+02 0.299E+02 -.300E+02   0.213E+00 0.118E+00 -.213E+00   0.148E-01 -.203E-01 -.148E-01
   0.274E-07 0.542E+02 -.884E-07   -.782E-13 -.538E+02 0.426E-13   0.000E+00 -.373E+00 0.542E-19   0.740E-12 0.483E-01 -.716E-12
   0.181E+02 -.179E-11 -.181E+02   -.176E+02 -.891E-13 0.176E+02   -.485E+00 0.000E+00 0.485E+00   -.327E-03 0.114E-12 0.327E-03
   -.596E+01 0.260E-13 0.596E+01   0.604E+01 0.953E-14 -.604E+01   -.912E-01 0.000E+00 0.912E-01   0.195E-01 -.149E-12 -.195E-01
   -.260E-11 -.610E-12 0.547E-11   0.302E-13 -.838E-13 0.577E-13   0.169E-20 -.678E-20 0.000E+00   0.522E-12 -.208E-12 -.562E-12
   -.181E+02 -.721E-13 0.181E+02   0.176E+02 -.723E-13 -.176E+02   0.485E+00 0.000E+00 -.485E+00   0.327E-03 0.123E-12 -.327E-03
   0.596E+01 0.214E-11 -.596E+01   -.604E+01 -.536E-13 0.604E+01   0.912E-01 0.000E+00 -.912E-01   -.195E-01 -.133E-12 0.195E-01
   -.577E-11 0.300E-11 0.684E-11   0.000E+00 -.280E-13 -.391E-13   -.254E-20 0.000E+00 0.678E-20   0.736E-12 0.271E-12 -.828E-12
   0.165E-12 -.210E-12 -.228E-12   -.355E-14 0.524E-13 0.107E-13   0.000E+00 0.271E-19 0.000E+00   -.449E-12 -.134E-12 0.479E-12
   0.924E+01 -.354E-11 -.584E+02   -.923E+01 -.825E-14 0.553E+02   -.144E-01 0.000E+00 0.317E+01   -.490E-03 0.932E-13 -.130E-01
   0.315E+00 -.859E-12 0.994E+01   -.701E+00 0.859E-16 -.985E+01   0.413E+00 0.000E+00 -.489E-01   0.125E-01 -.177E-12 -.629E-01
   0.187E-12 -.508E-12 -.311E-12   0.213E-13 0.250E-13 -.853E-13   0.000E+00 0.271E-19 0.000E+00   -.403E-12 0.574E-13 0.535E-12
   -.315E+00 0.175E-11 -.994E+01   0.701E+00 0.404E-14 0.985E+01   -.413E+00 0.000E+00 0.489E-01   -.125E-01 -.151E-12 0.629E-01
   -.924E+01 0.782E-12 0.584E+02   0.923E+01 -.355E-13 -.553E+02   0.144E-01 0.000E+00 -.317E+01   0.490E-03 0.113E-12 0.130E-01
   -.104E+02 -.938E+01 0.104E+02   0.105E+02 0.893E+01 -.105E+02   -.131E+00 0.480E+00 0.131E+00   0.663E-02 -.417E-02 -.663E-02
   0.104E+02 0.938E+01 -.104E+02   -.105E+02 -.893E+01 0.105E+02   0.131E+00 -.480E+00 -.131E+00   -.663E-02 0.417E-02 0.663E-02
   -.645E-07 -.529E+02 0.229E-06   0.924E-13 0.487E+02 -.782E-13   -.271E-18 0.424E+01 -.325E-18   0.467E-12 -.812E-01 -.513E-12
   -.104E+02 0.938E+01 0.104E+02   0.105E+02 -.893E+01 -.105E+02   -.131E+00 -.480E+00 0.131E+00   0.663E-02 0.417E-02 -.663E-02
   0.104E+02 -.938E+01 -.104E+02   -.105E+02 0.893E+01 0.105E+02   0.131E+00 0.480E+00 -.131E+00   -.663E-02 -.417E-02 0.663E-02
   0.645E-07 0.529E+02 -.229E-06   0.284E-13 -.487E+02 -.426E-13   0.542E-18 -.424E+01 0.217E-18   0.457E-12 0.812E-01 -.484E-12
   -.994E+01 0.896E-13 -.314E+00   0.985E+01 0.170E-13 0.701E+00   0.489E-01 0.000E+00 -.413E+00   0.629E-01 -.165E-12 -.125E-01
   -.661E-12 -.291E-12 0.123E-12   0.107E-13 -.570E-14 0.568E-13   0.678E-20 -.203E-19 0.000E+00   -.526E-12 0.635E-13 0.412E-12
   0.994E+01 -.402E-12 0.314E+00   -.985E+01 0.218E-13 -.701E+00   -.489E-01 0.000E+00 0.413E+00   -.629E-01 -.175E-12 0.125E-01
   -.584E+02 0.814E-12 0.924E+01   0.553E+02 -.311E-13 -.923E+01   0.317E+01 0.000E+00 -.144E-01   -.130E-01 0.115E-12 -.489E-03
   0.114E-11 -.156E-11 0.961E-12   -.355E-13 0.484E-13 0.121E-12   -.136E-19 -.542E-19 0.000E+00   -.460E-12 -.132E-12 0.462E-12
   0.584E+02 -.378E-12 -.924E+01   -.553E+02 -.217E-13 0.923E+01   -.317E+01 0.000E+00 0.144E-01   0.130E-01 0.912E-13 0.489E-03
   -.208E-10 -.208E-11 0.366E-10   -.782E-13 -.142E-12 -.657E-13   0.000E+00 -.888E-15 0.555E-16   0.361E-12 -.166E-12 -.391E-12

 POSITION                                       TOTAL-FORCE (eV/Angst)
      3.93684     -3.94534     -3.93684         0.089748      0.043739     -0.089748
      3.89092     -7.83824      0.02555        -0.089748     -0.043739      0.089748
      0.00000     -3.97000      0.00000         0.000000     -0.055993     -0.000000
      3.93684     -7.83824     -3.93684         0.089748     -0.043739     -0.089748
      3.89092     -3.94534      0.02555        -0.089748      0.043739      0.089748
      0.00000     -7.81359      0.00000         0.000000      0.055993     -0.000000
      5.87289     -5.89179     -1.95642         0.001501     -0.000000     -0.001501
      1.96039     -1.96393     -1.96038         0.009866     -0.000000     -0.009866
      1.95824     -1.96393      1.95824         0.000000     -0.000000     -0.000000
      1.95487     -5.89179     -1.95487        -0.001501     -0.000000      0.001501
      5.86738     -1.96393     -1.95091        -0.009866     -0.000000      0.009866
      1.95824     -5.89179      1.95824         0.000000     -0.000000     -0.000000
      1.95565     -1.96393     -3.91388         0.000000     -0.000000     -0.000000
      5.86712     -5.89179     -3.90050         0.001472     -0.000000      0.041322
      1.96106     -1.96393     -0.00205         0.038980     -0.000000     -0.024167
      1.95565     -5.89179     -3.91388         0.000000     -0.000000     -0.000000
      5.86670     -1.96393     -3.90924        -0.038980     -0.000000      0.024167
      1.96065     -5.89179     -0.01079        -0.001472     -0.000000     -0.041322
      1.95874     -3.91995     -1.95874        -0.018556      0.027160      0.018556
      5.86902     -0.00791     -1.95255         0.018556     -0.027160     -0.018556
      1.95824     -3.89098      1.95824         0.000000     -0.063671     -0.000000
      1.95874     -0.00791     -1.95874        -0.018556     -0.027160      0.018556
      5.86902     -3.91995     -1.95255         0.018556      0.027160     -0.018556
      1.95824     -0.03688      1.95824         0.000000      0.063671     -0.000000
      3.91852     -1.96393      1.95541         0.024167     -0.000000     -0.038980
      3.91388     -5.89179     -1.95565         0.000000     -0.000000     -0.000000
      3.90924     -1.96393     -5.86670        -0.024167     -0.000000      0.038980
      3.92726     -5.89179      1.95582         0.041322     -0.000000      0.001472
      3.91388     -1.96393     -1.95565        -0.000000     -0.000000     -0.000000
      3.90050     -5.89179     -5.86712        -0.041322     -0.000000     -0.001472
    total drift:                               -0.000000     -0.000000      0.000000

  FREE ENERGIE OF THE ION-ELECTRON SYSTEM (eV)
  free  energy   TOTEN  =      -232.29145651 eV

  energy  without entropy=     -232.29145651  energy(sigma->0) =     -232.29145651

 total charge

[...]

 magnetization (x)

# of ion       s       p       d       f       tot
    1        0.001   0.001   0.011   0.007   0.019
    2        0.001   0.001   0.011   0.007   0.019
    3        0.001   0.001   0.010   0.006   0.017
    4        0.001   0.001   0.011   0.007   0.019
    5        0.001   0.001   0.011   0.007   0.019
    6        0.001   0.001   0.010   0.006   0.017
    7        0.025   0.031   3.760   0.000   3.816
    8        0.025   0.027   3.794   0.000   3.847
    9        0.026   0.031   3.689   0.000   3.745
   10        0.025   0.031   3.760   0.000   3.816
   11        0.025   0.027   3.794   0.000   3.847
   12        0.011  -0.000   1.679   0.000   1.690
   13        0.005  -0.032   0.000   0.000  -0.027
   14        0.006  -0.009   0.000   0.000  -0.003
   15        0.005  -0.036   0.000   0.000  -0.030
   16        0.004  -0.038   0.000   0.000  -0.034
   17        0.005  -0.036   0.000   0.000  -0.030
   18        0.006  -0.009   0.000   0.000  -0.003
   19        0.007  -0.030   0.000   0.000  -0.023
   20        0.007  -0.030   0.000   0.000  -0.023
   21        0.005  -0.010   0.000   0.000  -0.005
   22        0.007  -0.029   0.000   0.000  -0.022
   23        0.007  -0.029   0.000   0.000  -0.022
   24        0.005  -0.010   0.000   0.000  -0.005
   25        0.007  -0.038   0.000   0.000  -0.031
   26        0.005  -0.042   0.000   0.000  -0.038
   27        0.007  -0.038   0.000   0.000  -0.031
   28        0.006  -0.015   0.000   0.000  -0.009
   29        0.006  -0.037   0.000   0.000  -0.031
   30        0.006  -0.015   0.000   0.000  -0.009
tot          0.245  -0.332  20.542   0.038  20.493

 BZINTS: Fermi energy:  7.989829;219.000000 electrons
         Band energy:-415.490335;  BLOECHL correction: -0.035626