 vasp.5.4.4.18Apr17-6-g9f103f2a35 (build Oct 03 2018 13:58:34) complex

 executed on             LinuxIFC date 2019.06.04  01:40:46

 INCAR:
 POTCAR:    PAW_PBE La 06Sep2000
 POTCAR:    PAW_PBE Mn 06Sep2000
 POTCAR:    PAW_PBE Ni 02Aug2007
 POTCAR:    PAW_PBE O 08Apr2002

 POTCAR:    PAW_PBE La 06Sep2000
   VRHFIN =La : [core=Kr4d]

   TITEL  = PAW_PBE La 06Sep2000
   POMASS =  138.900; ZVAL   =   11.000    mass and valenz
   ENMAX  =  219.292; ENMIN  =  164.469 eV

 POTCAR:    PAW_PBE Mn 06Sep2000
   VRHFIN =Mn: d6 s1

   TITEL  = PAW_PBE Mn 06Sep2000
   POMASS =   54.938; ZVAL   =    7.000    mass and valenz
   ENMAX  =  269.864; ENMIN  =  202.398 eV

 POTCAR:    PAW_PBE Ni 02Aug2007
   VRHFIN =Ni:

   TITEL  = PAW_PBE Ni 02Aug2007
   POMASS =   58.690; ZVAL   =   10.000    mass and valenz
   ENMAX  =  269.532; ENMIN  =  202.149 eV

 POTCAR:    PAW_PBE O 08Apr2002
   VRHFIN =O: s2p4

   TITEL  = PAW_PBE O 08Apr2002
   POMASS =   16.000; ZVAL   =    6.000    mass and valenz
   ENMAX  =  400.000; ENMIN  =  300.000 eV

 Optimization of the real space projectors (new method)

 maximal supplied QI-value         = 13.42
 optimisation between [QCUT,QGAM] = [ 11.67, 23.35] = [ 38.16,152.62] Ry
 Optimized for a Real-space Cutoff    1.63 Angstroem

   l    n(q)    QCUT    max X(q) W(low)/X(q) W(high)/X(q)  e(spline)
   0     11    11.673    13.882    0.27E-04    0.79E-05    0.11E-06
   0     11    11.673    12.184    0.39E-04    0.13E-04    0.19E-06
   1     11    11.673     4.523    0.73E-05    0.76E-05    0.12E-06
   1     11    11.673     4.424    0.87E-05    0.13E-04    0.19E-06
   2     10    11.673    52.481    0.65E-04    0.36E-04    0.18E-06
   2     10    11.673    38.501    0.61E-04    0.33E-04    0.17E-06
   3     10    11.673    65.631    0.17E-03    0.14E-03    0.37E-06
   3     10    11.673    56.854    0.17E-03    0.14E-03    0.37E-06
 Optimization of the real space projectors (new method)

[...]

   l    n(q)    QCUT    max X(q) W(low)/X(q) W(high)/X(q)  e(spline)
   2      9    11.539    60.317    0.19E-03    0.47E-04    0.16E-06
   2      9    11.539    55.921    0.19E-03    0.48E-04    0.16E-06
   0     10    11.539    51.690    0.80E-04    0.50E-04    0.24E-06
   0     10    11.539    30.015    0.73E-04    0.45E-04    0.22E-06
   1     10    11.539    18.849    0.87E-04    0.16E-03    0.71E-07
   1     10    11.539    14.624    0.73E-04    0.13E-03    0.64E-07
 Optimization of the real space projectors (new method)

 maximal supplied QI-value         = 24.76
 optimisation between [QCUT,QGAM] = [ 11.64, 23.27] = [ 37.91,151.63] Ry
 Optimized for a Real-space Cutoff    1.14 Angstroem

   l    n(q)    QCUT    max X(q) W(low)/X(q) W(high)/X(q)  e(spline)
   0      8    11.635    20.381    0.10E-03    0.33E-03    0.24E-06
   0      8    11.635    15.268    0.11E-03    0.35E-03    0.26E-06
   1      7    11.635     5.964    0.24E-03    0.31E-03    0.30E-06
   1      7    11.635     5.382    0.22E-03    0.25E-03    0.26E-06
  PAW_PBE La 06Sep2000                  :
  PAW_PBE Mn 06Sep2000                  :
  PAW_PBE Ni 02Aug2007                  :
  PAW_PBE O 08Apr2002                   :

 POSCAR: SCEL4_2_2_1_1_0_1/1
  positions in direct lattice
  velocities in cartesian coordinates
 exchange correlation table for  LEXCH =        8
   RHO(1)=    0.500       N(1)  =     2000
   RHO(2)=  100.500       N(2)  =     4000

 ion  position               nearest neighbor table
   1  0.500  0.257  0.763-  16 2.67  11 2.67  15 2.70  10 2.70  20 2.71  19 2.74  19 2.74  18 2.77
                            14 2.78   9 2.78  13 2.82  12 2.82   7 3.30   8 3.32   8 3.32   5 3.33
   2  0.000  0.493  0.487-  16 2.67  11 2.67  13 2.70  12 2.70  17 2.71  18 2.74  18 2.74  19 2.77
                            14 2.78   9 2.78  15 2.82  10 2.82   8 3.30   7 3.32   7 3.32   6 3.33
   3  0.500  0.737  0.243-  16 2.67  11 2.67  15 2.70  10 2.70  18 2.71  17 2.74  17 2.74  20 2.77
                             9 2.78  14 2.78  13 2.82  12 2.82   7 3.30   8 3.32   8 3.32   5 3.33
   4  0.000  0.013  0.007-  16 2.67  11 2.67  13 2.70  12 2.70  19 2.71  20 2.74  20 2.74  17 2.77
                            14 2.78   9 2.78  15 2.82  10 2.82   8 3.30   7 3.32   7 3.32   6 3.33
   5  0.500  0.749  0.751-  10 1.88  15 1.88  18 1.89  20 1.89  14 1.94   9 1.94   1 3.33   3 3.33
                             1 3.38   3 3.38   4 3.40   2 3.40   2 3.40   4 3.40
   6  0.000  0.001  0.499-  12 1.88  13 1.88  17 1.89  19 1.89   9 1.94  14 1.94   2 3.33   4 3.33
                             4 3.38   2 3.38   1 3.40   3 3.40   1 3.40   3 3.40
   7  0.500  0.248  0.252-  11 1.95  16 1.95  12 1.97  13 1.97  18 1.99  20 1.99   1 3.30   3 3.30
                             2 3.32   4 3.32   2 3.32   4 3.32
   8  0.000  0.502  0.998-  11 1.95  16 1.95  10 1.97  15 1.97  17 1.99  19 1.99   2 3.30   4 3.30
                             1 3.32   1 3.32   3 3.32   3 3.32
   9  0.750  0.875  0.625-   5 1.94   6 1.94   3 2.78   4 2.78   1 2.78   2 2.78
  10  0.257  0.628  0.872-   5 1.88   8 1.97   1 2.70   3 2.70   2 2.82   4 2.82
  11  0.750  0.375  0.125-   7 1.95   8 1.95   3 2.67   4 2.67   1 2.67   2 2.67
  12  0.243  0.122  0.378-   6 1.88   7 1.97   2 2.70   4 2.70   3 2.82   1 2.82
  13  0.757  0.122  0.378-   6 1.88   7 1.97   2 2.70   4 2.70   3 2.82   1 2.82
  14  0.250  0.875  0.625-   5 1.94   6 1.94   3 2.78   4 2.78   1 2.78   2 2.78
  15  0.743  0.628  0.872-   5 1.88   8 1.97   1 2.70   3 2.70   4 2.82   2 2.82
  16  0.250  0.375  0.125-   7 1.95   8 1.95   3 2.67   4 2.67   1 2.67   2 2.67
  17  0.000  0.756  0.256-   6 1.89   8 1.99   2 2.71   3 2.74   3 2.74   4 2.77
  18  0.500  0.506  0.506-   5 1.89   7 1.99   3 2.71   2 2.74   2 2.74   1 2.77
  19  0.000  0.244  0.744-   6 1.89   8 1.99   4 2.71   1 2.74   1 2.74   2 2.77
  20  0.500  0.994  0.994-   5 1.89   7 1.99   1 2.71   4 2.74   4 2.74   3 2.77

  LATTYP: Found a base centered orthorhombic cell.
 ALAT       =     7.7679634830
 B/A-ratio  =     1.4104857593
 C/A-ratio  =     0.7056651936

  Lattice vectors:

 A1 = (  -3.8839817415,  -3.8737437410,   3.8737437410)
 A2 = (  -3.8839817415,   3.8737437410,  -3.8737437410)
 A3 = (   0.0000000000,  -3.8760634184,  -3.8760634184)

Analysis of symmetry for initial positions (statically):
 Subroutine PRICEL returns:
 Original cell was already a primitive cell.

 Routine SETGRP: Setting up the symmetry group for a
 base centered orthorhombic supercell.

 Subroutine GETGRP returns: Found  8 space group operations
 (whereof  2 operations were pure point group operations)
 out of a pool of  8 trial point group operations.

The static configuration has the point symmetry C_1h.
 The point group associated with its full space group is D_2h.

Analysis of symmetry for dynamics (positions and initial velocities):
 Subroutine PRICEL returns:
 Original cell was already a primitive cell.

[...]

The dynamic configuration has the point symmetry C_1h.
 The point group associated with its full space group is D_2h.

Analysis of structural, dynamic, and magnetic symmetry:
 Subroutine PRICEL returns:
 Original cell was already a primitive cell.

 Routine SETGRP: Setting up the symmetry group for a
 base centered orthorhombic supercell.

 Subroutine GETGRP returns: Found  8 space group operations
 (whereof  2 operations were pure point group operations)
 out of a pool of  8 trial point group operations.

The magnetic configuration has the point symmetry C_1h.
 The point group associated with its full space group is D_2h.

 Subroutine INISYM returns: Found  8 space group operations
 (whereof  2 operations are pure point group operations),
 and found     1 'primitive' translations

 KPOINTS: Automatic mesh

Automatic generation of k-mesh.
 generate k-points for:    4    3    3
Space group operators:
 irot       det(A)        alpha          n_x          n_y          n_z        tau_x        tau_y        tau_z
    1     1.000000     0.000000     1.000000     0.000000     0.000000     0.000000     0.000000     0.000000
    2    -1.000000   180.000000     0.000000     0.707107     0.707107     0.000000     0.000000     0.000000
    3    -1.000000     0.000000     1.000000     0.000000     0.000000    -0.500000    -0.250000    -0.750000
    4     1.000000   180.000000     0.000000     0.707107     0.707107    -0.500000    -0.250000    -0.750000
    5     1.000000   180.000000     0.000000    -0.707107     0.707107     0.000000    -0.500000    -0.500000
    6    -1.000000   180.000000     0.000000    -0.707107     0.707107    -0.500000    -0.750000    -0.250000
    7     1.000000   180.000000     1.000000     0.000000     0.000000    -0.500000    -0.750000    -0.250000
    8    -1.000000   180.000000     1.000000     0.000000     0.000000     0.000000    -0.500000    -0.500000

 Subroutine IBZKPT returns following result:

 Found     12 irreducible k-points:

 Following reciprocal coordinates:
            Coordinates               Weight
  0.000000  0.000000  0.000000      1.000000
  0.250000  0.000000  0.000000      2.000000
  0.500000  0.000000  0.000000      1.000000
  0.000000  0.333333  0.000000      4.000000
  0.250000  0.333333  0.000000      8.000000
  0.500000  0.333333  0.000000      4.000000
  0.000000  0.333333  0.333333      2.000000
  0.250000  0.333333  0.333333      4.000000
  0.500000  0.333333  0.333333      2.000000
 -0.000000 -0.333333  0.333333      2.000000
  0.250000 -0.333333  0.333333      4.000000
  0.500000 -0.333333  0.333333      2.000000

 Following cartesian coordinates:
            Coordinates               Weight
  0.000000  0.000000  0.000000      1.000000
  0.000000  0.032249  0.032249      2.000000
  0.000000  0.064498  0.064498      1.000000
  0.042911 -0.021512  0.021512      4.000000
  0.042911  0.010737  0.053762      8.000000
  0.042911  0.042986  0.086011      4.000000
  0.085823  0.000000  0.000000      2.000000
  0.085823  0.032249  0.032249      4.000000
  0.085823  0.064498  0.064498      2.000000
  0.000000  0.043025 -0.043025      2.000000
  0.000000  0.075274 -0.010775      4.000000
  0.000000  0.107523  0.021474      2.000000

 TETIRR: Found     50 inequivalent tetrahedra from      216

 SYSTEM =  final
 POSCAR =  SCEL4_2_2_1_1_0_1/1

 Startparameter for this run:
   NWRITE =      2    write-flag & timer
   PREC   = accura    normal or accurate (medium, high low for compatibility)
   ISTART =      0    job   : 0-new  1-cont  2-samecut
   ICHARG =      1    charge: 1-file 2-atom 10-const
   ISPIN  =      2    spin polarized calculation?
   LNONCOLLINEAR =      F non collinear calculations
   LSORBIT =      F    spin-orbit coupling
   INIWAV =      1    electr: 0-lowe 1-rand  2-diag
   LASPH  =      F    aspherical Exc in radial PAW
   METAGGA=      F    non-selfconsistent MetaGGA calc.

 Electronic Relaxation 1
   ENCUT  =  520.0 eV  38.22 Ry    6.18 a.u.  10.19 12.49 12.49*2*pi/ulx,y,z
   ENINI  =  520.0     initial cutoff
   ENAUG  =  605.4 eV  augmentation charge cutoff
   NELM   =    100;   NELMIN=  2; NELMDL= -5     # of ELM steps
   EDIFF  = 0.1E-02   stopping-criterion for ELM
   LREAL  =      T    real-space projection
   NLSPLINE    = F    spline interpolate recip. space projectors
[...]
  0.5021  0.5160

[...]

--------------------------------------- Iteration      1(  18)  ---------------------------------------

atom =   1  type =  1  l = 0

[...]

  o =  0.7859  v =  0.0000  1.0000      0.0000  0.0000
  o =  0.7910  v =  1.0000  0.0000      0.0000  0.0000
atom =  20  type =  4  l = 0

 onsite density matrix

[...]

  0.7859

 occupancies and eigenvectors

  o =  0.7859  v =  0.0000  1.0000      0.0000  0.0000
  o =  0.7910  v =  1.0000  0.0000      0.0000  0.0000
 BZINTS: Fermi energy:  7.760349;150.000000 electrons
         Band energy:-214.485175;  BLOECHL correction:  0.000000

 eigenvalue-minimisations  :  4771
 total energy-change (2. order) :-0.8794599E-03  (-0.9294980E-03)
 number of electron     150.0000021 magnetization       9.9999315
 augmentation part       19.3637098 magnetization       7.5005402

 Free energy of the ion-electron system (eV)
  alpha Z        PSCENC =       657.95206240
  Ewald energy   TEWEN  =    -10353.27428822
  -Hartree energ DENC   =     -2310.95440117
  -exchange      EXHF   =         0.00000000
  -V(xc)+E(xc)   XCENC  =       511.48277838
  PAW double counting   =     12467.15242402   -12546.13130727
  entropy T*S    EENTRO =         0.00000000
  eigenvalues    EBANDS =      -214.48517509
  atomic energy  EATOM  =     11641.04254247
  Solvation  Ediel_sol  =         0.00000000
  free energy    TOTEN  =      -147.21536447 eV

  energy without entropy =     -147.21536447  energy(sigma->0) =     -147.21536447

 average (electrostatic) potential at core
  the test charge radii are     1.1480  1.0210  0.9791  0.7215
  (the norm of the test charge is              1.0000)
       1 -95.3889       2 -95.3889       3 -95.3889       4 -95.3889       5 -43.2546
       6 -43.2546       7 -83.5230       8 -83.5230       9 -67.0428      10 -66.9837
      11 -66.3764      12 -66.9837      13 -66.9837      14 -67.0428      15 -66.9837
      16 -66.3764      17 -66.8393      18 -66.8393      19 -66.8393      20 -66.8393

 E-fermi :   7.7603     XC(G=0): -11.7434     alpha+bet :-16.5776

[...]

 k-point     1 :       0.0000    0.0000    0.0000
  band No.  band energies     occupation
      1     -23.9087      1.00000
      2     -23.7921      1.00000
      3     -23.7870      1.00000
      4     -23.7785      1.00000
      5     -10.9255      1.00000
      6     -10.7167      1.00000
      7     -10.5861      1.00000
      8     -10.3028      1.00000
      9     -10.2687      1.00000
     10     -10.0927      1.00000
     11      -9.9984      1.00000
     12      -9.9857      1.00000
     13      -9.7461      1.00000
     14      -9.7040      1.00000
     15      -9.6015      1.00000
     16      -9.3812      1.00000
     17      -7.6608      1.00000
     18      -7.5895      1.00000
     19      -7.4230      1.00000
     20      -7.4070      1.00000
     21      -7.4055      1.00000
     22      -7.1805      1.00000
     23      -7.1553      1.00000
     24      -7.0799      1.00000
     25      -7.0686      1.00000
     26      -7.0086      1.00000
     27      -6.9041      1.00000
     28      -6.8401      1.00000
     29       0.2635      1.00000
     30       0.3592      1.00000
     31       0.5469      1.00000
     32       0.9038      1.00000
     33       1.0337      1.00000
     34       1.2263      1.00000
     35       1.3739      1.00000
     36       1.4213      1.00000
     37       1.6486      1.00000
     38       1.7499      1.00000
     39       1.8454      1.00000
     40       1.8804      1.00000
     41       1.9283      1.00000
     42       2.0580      1.00000
     43       2.1909      1.00000
     44       2.2611      1.00000
     45       2.4256      1.00000
     46       2.8249      1.00000
     47       2.8250      1.00000
     48       2.8307      1.00000
     49       3.3289      1.00000
     50       3.3411      1.00000
     51       3.3542      1.00000
     52       4.0678      1.00000
     53       4.1661      1.00000
     54       4.2450      1.00000
     55       5.1862      1.00000
     56       5.2989      1.00000
     57       5.3054      1.00000
     58       5.3566      1.00000
     59       5.3603      1.00000
     60       5.3604      1.00000
[...]
     84      10.2224      0.00000
     85      10.3676      0.00000
     86      10.8494      0.00000
     87      10.8655      0.00000
     88      10.9472      0.00000
     89      10.9839      0.00000
     90      10.9928      0.00000
     91      11.0534      0.00000
     92      11.0829      0.00000
     93      11.1147      0.00000
     94      11.1560      0.00000
     95      11.1676      0.00000
     96      11.1915      0.00000
     97      11.2092      0.00000
     98      11.2786      0.00000

[...]

 spin component 2

[...]

 k-point    12 :       0.5000   -0.3333    0.3333
  band No.  band energies     occupation
      1     -23.8378      1.00000
      2     -23.8377      1.00000
      3     -23.7792      1.00000
      4     -23.7792      1.00000
      5     -11.1838      1.00000
      6     -11.1838      1.00000
      7     -10.5662      1.00000
      8     -10.5662      1.00000
      9     -10.0507      1.00000
     10     -10.0507      1.00000
     11      -9.8186      1.00000
     12      -9.8186      1.00000
     13      -9.5932      1.00000
     14      -9.5932      1.00000
     15      -9.2358      1.00000
     16      -9.2358      1.00000
     17      -7.4789      1.00000
     18      -7.4789      1.00000
     19      -7.2825      1.00000
     20      -7.2825      1.00000
     21      -7.2641      1.00000
     22      -7.2641      1.00000
     23      -7.0351      1.00000
     24      -7.0351      1.00000
     25      -7.0291      1.00000
     26      -7.0291      1.00000
     27      -6.5635      1.00000
     28      -6.5635      1.00000
     29       1.8206      1.00000
     30       1.8206      1.00000
     31       2.3698      1.00000
     32       2.3698      1.00000
     33       2.4882      1.00000
     34       2.4882      1.00000
     35       2.9957      1.00000
     36       2.9957      1.00000
     37       3.0427      1.00000
     38       3.0428      1.00000
     39       3.1237      1.00000
     40       3.1237      1.00000
     41       3.1739      1.00000
     42       3.1739      1.00000
     43       3.5613      1.00000
     44       3.5613      1.00000
     45       3.8682      1.00000
     46       3.8682      1.00000
     47       4.0355      1.00000
     48       4.0356      1.00000
     49       4.1853      1.00000
     50       4.1853      1.00000
     51       4.5579      1.00000
     52       4.5581      1.00000
     53       4.8682      1.00000
     54       4.8683      1.00000
     55       4.9131      1.00000
     56       4.9132      1.00000
     57       5.5918      1.00000
     58       5.5918      1.00000
     59       5.6655      1.00000
     60       5.6655      1.00000
[...]
     84      11.0713      0.00000
     85      11.0750      0.00000
     86      11.0834      0.00000
     87      11.0989      0.00000
     88      11.1169      0.00000
     89      11.1231      0.00000
     90      11.1388      0.00000
     91      11.1609      0.00000
     92      11.1749      0.00000
     93      11.1898      0.00000
     94      11.2332      0.00000
     95      11.2421      0.00000
     96      11.2768      0.00000
     97      11.2878      0.00000
     98      11.3361      0.00000

 soft charge-density along one line, spin component           1
         0         1         2         3         4         5         6         7         8         9
 total charge-density along one line

 soft charge-density along one line, spin component           2
         0         1         2         3         4         5         6         7         8         9
 total charge-density along one line

------------------------ aborting loop because EDIFF is reached ----------------------------------------

 total charge

# of ion       s       p       d       f       tot
    1        2.000   5.698   0.495   0.192   8.385
    2        2.000   5.698   0.495   0.192   8.385
    3        1.999   5.699   0.492   0.192   8.382
    4        2.000   5.699   0.492   0.192   8.383
    5        0.356   0.570   4.862   0.000   5.788
    6        0.356   0.570   4.862   0.000   5.788
    7        0.392   0.566   8.330   0.000   9.287
    8        0.392   0.566   8.330   0.000   9.287
    9        1.561   3.465   0.000   0.000   5.026
   10        1.563   3.454   0.000   0.000   5.017
   11        1.555   3.467   0.000   0.000   5.022
   12        1.563   3.454   0.000   0.000   5.017
   13        1.562   3.456   0.000   0.000   5.018
   14        1.561   3.467   0.000   0.000   5.028
   15        1.562   3.456   0.000   0.000   5.018
   16        1.556   3.463   0.000   0.000   5.019
   17        1.562   3.460   0.000   0.000   5.022
   18        1.562   3.457   0.000   0.000   5.019
   19        1.562   3.457   0.000   0.000   5.019
   20        1.562   3.460   0.000   0.000   5.022
tot         28.224  66.582  28.357   0.767 123.931

 magnetization (x)

[...]

  FORCE on cell =-STRESS in cart. coord.  units (eV):
  Direction    XX          YY          ZZ          XY          YZ          ZX
  Alpha Z   657.95206   657.95206   657.95206
  Ewald   -3488.03907 -3432.63248 -3432.63248     0.00000    12.84310    -0.00000
  Hartree   739.22170   785.74945   785.74945    -0.00000    12.79362     0.00000
  E(xc)    -697.73812  -697.54900  -697.54900    -0.00000    -0.00353     0.00000
  Local    -381.70760  -482.29216  -482.29216    -0.00000   -26.36715     0.00000
  n-local   277.10638   277.48299   277.55975     0.47177    -0.06521    -0.21068
  augment   326.96752   326.72353   326.72353    -0.00000     0.04680     0.00000
  Kinetic  2567.03872  2564.98604  2565.06252    -0.77751     0.81893     0.01457
  Fock        0.00000     0.00000     0.00000     0.00000     0.00000     0.00000
  Total       0.80159     0.49705     0.49705     0.00000     0.07324     0.00000
  in kB       5.50558     3.41391     3.41391     0.00000     0.50305     0.00000

 VOLUME and BASIS-vectors are now :
  energy-cutoff  :      520.00
  volume of cell :      233.27
      direct lattice vectors                 reciprocal lattice vectors
     0.000000000  3.876063418  3.876063418     0.000000000  0.128996857  0.128996857
     3.883981742 -3.873743741  3.873743741     0.128733870 -0.064537052  0.064537052
     3.883981742  3.873743741 -3.873743741     0.128733870  0.064537052 -0.064537052

  length of vectors
     5.481581455  6.715437090  6.715437090     0.182429105  0.157805169  0.157805169

 FORCES acting on ions
    electron-ion (+dipol)            ewald-force                    non-local-force                 convergence-correction
   0.662E+02 0.102E+02 -.102E+02   -.654E+02 -.993E+01 0.993E+01   -.806E+00 -.231E+00 0.231E+00   -.318E-01 -.549E-02 0.549E-02
   -.662E+02 -.102E+02 0.102E+02   0.654E+02 0.993E+01 -.993E+01   0.806E+00 0.231E+00 -.231E+00   0.318E-01 0.549E-02 -.549E-02
   -.662E+02 0.102E+02 -.102E+02   0.654E+02 -.993E+01 0.993E+01   0.806E+00 -.231E+00 0.231E+00   0.318E-01 -.549E-02 0.549E-02
   0.662E+02 -.102E+02 0.102E+02   -.654E+02 0.993E+01 -.993E+01   -.806E+00 0.231E+00 -.231E+00   -.318E-01 0.549E-02 -.549E-02
   0.103E-06 0.228E+02 -.228E+02   0.853E-13 -.223E+02 0.223E+02   0.000E+00 -.430E+00 0.430E+00   0.105E-12 -.156E-01 0.156E-01
   -.103E-06 -.228E+02 0.228E+02   0.238E-13 0.223E+02 -.223E+02   0.000E+00 0.430E+00 -.430E+00   0.119E-13 0.156E-01 -.156E-01
   0.497E-06 -.359E+02 0.359E+02   -.853E-13 0.342E+02 -.342E+02   0.000E+00 0.168E+01 -.168E+01   -.205E-12 0.325E-01 -.325E-01
   -.497E-06 0.359E+02 -.359E+02   -.270E-13 -.342E+02 0.342E+02   0.000E+00 -.168E+01 0.168E+01   0.144E-12 -.325E-01 0.325E-01
   -.864E-12 -.146E-11 -.358E-12   -.426E-13 -.295E-13 0.995E-13   0.271E-19 0.000E+00 0.813E-19   0.588E-13 -.113E-13 -.144E-12
   -.734E-06 0.272E+02 -.336E+02   -.284E-13 -.281E+02 0.277E+02   0.000E+00 0.957E+00 0.587E+01   0.119E-12 -.125E-01 -.453E-03
   0.125E-11 -.488E-12 0.103E-11   0.213E-13 0.676E-13 -.114E-12   0.474E-19 0.000E+00 -.203E-19   -.633E-13 -.784E-13 0.611E-13
   0.734E-06 -.272E+02 0.336E+02   0.284E-13 0.281E+02 -.277E+02   0.000E+00 -.957E+00 -.587E+01   -.681E-13 0.125E-01 0.453E-03
   -.332E-06 -.336E+02 0.272E+02   0.000E+00 0.277E+02 -.281E+02   0.000E+00 0.587E+01 0.957E+00   -.734E-13 -.453E-03 -.125E-01
   0.658E-12 -.820E-12 0.357E-12   -.497E-13 0.568E-13 0.282E-13   0.000E+00 0.000E+00 0.271E-19   0.574E-13 0.138E-12 0.230E-14
   0.332E-06 0.336E+02 -.272E+02   0.213E-13 -.277E+02 0.281E+02   0.000E+00 -.587E+01 -.957E+00   0.120E-12 0.453E-03 0.125E-01
   -.110E-11 -.567E-12 0.294E-12   0.497E-13 -.853E-13 0.110E-13   0.474E-19 0.407E-19 -.678E-20   -.558E-13 -.458E-13 0.595E-13
   -.411E+02 0.316E+01 -.316E+01   0.356E+02 -.325E+01 0.325E+01   0.549E+01 0.126E+00 -.126E+00   0.343E-02 -.121E-02 0.121E-02
   -.411E+02 -.316E+01 0.316E+01   0.356E+02 0.325E+01 -.325E+01   0.549E+01 -.126E+00 0.126E+00   0.343E-02 0.121E-02 -.121E-02
   0.411E+02 0.316E+01 -.316E+01   -.356E+02 -.325E+01 0.325E+01   -.549E+01 0.126E+00 -.126E+00   -.343E-02 -.121E-02 0.121E-02
   0.411E+02 -.316E+01 0.316E+01   -.356E+02 0.325E+01 -.325E+01   -.549E+01 -.126E+00 0.126E+00   -.343E-02 0.121E-02 -.121E-02
   -.242E-11 0.433E-11 -.474E-11   -.497E-13 -.413E-13 0.888E-15   0.000E+00 0.000E+00 0.222E-15   0.701E-13 -.253E-12 0.138E-12

 POSITION                                       TOTAL-FORCE (eV/Angst)
      3.95990      3.89723     -0.02117         0.028633      0.010260     -0.010260
      3.80806     -0.02233      0.02233        -0.028633     -0.010260      0.010260
      3.80806      0.02349      3.85258        -0.028633      0.010260     -0.010260
      0.07592     -0.02233      0.02233         0.028633     -0.010260      0.010260
      5.82597      1.94507      1.93100        -0.000000      0.012808     -0.012808
      1.94199      1.92984     -1.92984        -0.000000     -0.012808      0.012808
      1.94199      1.95104      1.92502        -0.000000      0.038347     -0.038347
      5.82597      1.92386     -1.92386        -0.000000     -0.038347      0.038347
      5.82597      1.93861      3.87548        -0.000000     -0.000000     -0.000000
      5.82597      1.94501      0.04967        -0.000000      0.043361     -0.005028
      1.94199      1.93861      3.87548        -0.000000     -0.000000     -0.000000
      1.94199      1.92989     -0.04851        -0.000000     -0.043361      0.005028
      1.94199      3.92458      1.94617        -0.000000     -0.005028      0.043361
      5.82597      0.00058      1.93745        -0.000000     -0.000000     -0.000000
      5.82597      3.82639      1.93105        -0.000000      0.005028     -0.043361
      1.94199      0.00058      1.93745        -0.000000     -0.000000     -0.000000
      3.93303     -1.93788      1.93788        -0.004247      0.034721     -0.034721
      3.93303      1.93904      1.93703        -0.004247     -0.034721      0.034721
      3.83493      1.93587     -1.93587         0.004247      0.034721     -0.034721
      7.71892      1.93904      1.93703         0.004247     -0.034721      0.034721
    total drift:                               -0.000000      0.000000     -0.000000

  FREE ENERGIE OF THE ION-ELECTRON SYSTEM (eV)
  free  energy   TOTEN  =      -147.21536447 eV

  energy  without entropy=     -147.21536447  energy(sigma->0) =     -147.21536447

 total charge

[...]

 magnetization (x)

# of ion       s       p       d       f       tot
    1        0.000   0.001   0.005   0.004   0.010
    2        0.000   0.001   0.005   0.004   0.010
    3        0.000   0.001   0.009   0.002   0.013
    4        0.000   0.001   0.009   0.002   0.013
    5        0.022   0.030   3.205   0.000   3.257
    6        0.022   0.030   3.205   0.000   3.257
    7        0.009   0.002   1.680   0.000   1.690
    8        0.009   0.002   1.680   0.000   1.690
    9        0.002  -0.010   0.000   0.000  -0.008
   10        0.004  -0.039   0.000   0.000  -0.035
   11        0.007   0.034   0.000   0.000   0.041
   12        0.004  -0.039   0.000   0.000  -0.035
   13        0.004  -0.038   0.000   0.000  -0.034
   14        0.002  -0.008   0.000   0.000  -0.007
   15        0.004  -0.038   0.000   0.000  -0.034
   16        0.007   0.031   0.000   0.000   0.038
   17        0.005  -0.002   0.000   0.000   0.004
   18        0.005  -0.009   0.000   0.000  -0.004
   19        0.005  -0.009   0.000   0.000  -0.004
   20        0.005  -0.001   0.000   0.000   0.004
tot          0.119  -0.062   9.798   0.012   9.867

 BZINTS: Fermi energy:  7.760349;150.000000 electrons
         Band energy:-214.485175;  BLOECHL correction:  0.000000