 vasp.5.4.4.18Apr17-6-g9f103f2a35 (build Oct 03 2018 13:58:34) complex

 executed on             LinuxIFC date 2019.06.04  01:10:11

 INCAR:
 POTCAR:    PAW_PBE La 06Sep2000
 POTCAR:    PAW_PBE Mn 06Sep2000
 POTCAR:    PAW_PBE Ni 02Aug2007
 POTCAR:    PAW_PBE O 08Apr2002

 POTCAR:    PAW_PBE La 06Sep2000
   VRHFIN =La : [core=Kr4d]

   TITEL  = PAW_PBE La 06Sep2000
   POMASS =  138.900; ZVAL   =   11.000    mass and valenz
   ENMAX  =  219.292; ENMIN  =  164.469 eV

 POTCAR:    PAW_PBE Mn 06Sep2000
   VRHFIN =Mn: d6 s1

   TITEL  = PAW_PBE Mn 06Sep2000
   POMASS =   54.938; ZVAL   =    7.000    mass and valenz
   ENMAX  =  269.864; ENMIN  =  202.398 eV

 POTCAR:    PAW_PBE Ni 02Aug2007
   VRHFIN =Ni:

   TITEL  = PAW_PBE Ni 02Aug2007
   POMASS =   58.690; ZVAL   =   10.000    mass and valenz
   ENMAX  =  269.532; ENMIN  =  202.149 eV

 POTCAR:    PAW_PBE O 08Apr2002
   VRHFIN =O: s2p4

   TITEL  = PAW_PBE O 08Apr2002
   POMASS =   16.000; ZVAL   =    6.000    mass and valenz
   ENMAX  =  400.000; ENMIN  =  300.000 eV

 Optimization of the real space projectors (new method)

 maximal supplied QI-value         = 13.42
 optimisation between [QCUT,QGAM] = [ 11.67, 23.35] = [ 38.16,152.62] Ry
 Optimized for a Real-space Cutoff    1.63 Angstroem

   l    n(q)    QCUT    max X(q) W(low)/X(q) W(high)/X(q)  e(spline)
   0     11    11.673    13.882    0.27E-04    0.79E-05    0.11E-06
   0     11    11.673    12.184    0.39E-04    0.13E-04    0.19E-06
   1     11    11.673     4.523    0.73E-05    0.76E-05    0.12E-06
   1     11    11.673     4.424    0.87E-05    0.13E-04    0.19E-06
   2     10    11.673    52.481    0.65E-04    0.36E-04    0.18E-06
   2     10    11.673    38.501    0.61E-04    0.33E-04    0.17E-06
   3     10    11.673    65.631    0.17E-03    0.14E-03    0.37E-06
   3     10    11.673    56.854    0.17E-03    0.14E-03    0.37E-06
 Optimization of the real space projectors (new method)

[...]

   l    n(q)    QCUT    max X(q) W(low)/X(q) W(high)/X(q)  e(spline)
   2      9    11.539    60.317    0.19E-03    0.47E-04    0.16E-06
   2      9    11.539    55.921    0.19E-03    0.48E-04    0.16E-06
   0     10    11.539    51.690    0.80E-04    0.50E-04    0.24E-06
   0     10    11.539    30.015    0.73E-04    0.45E-04    0.22E-06
   1     10    11.539    18.849    0.87E-04    0.16E-03    0.71E-07
   1     10    11.539    14.624    0.73E-04    0.13E-03    0.64E-07
 Optimization of the real space projectors (new method)

 maximal supplied QI-value         = 24.76
 optimisation between [QCUT,QGAM] = [ 11.64, 23.27] = [ 37.91,151.63] Ry
 Optimized for a Real-space Cutoff    1.14 Angstroem

   l    n(q)    QCUT    max X(q) W(low)/X(q) W(high)/X(q)  e(spline)
   0      8    11.635    20.381    0.10E-03    0.33E-03    0.24E-06
   0      8    11.635    15.268    0.11E-03    0.35E-03    0.26E-06
   1      7    11.635     5.964    0.24E-03    0.31E-03    0.30E-06
   1      7    11.635     5.382    0.22E-03    0.25E-03    0.26E-06
  PAW_PBE La 06Sep2000                  :
  PAW_PBE Mn 06Sep2000                  :
  PAW_PBE Ni 02Aug2007                  :
  PAW_PBE O 08Apr2002                   :

 POSCAR: SCEL6_6_1_1_0_5_5/0
  positions in direct lattice
  velocities in cartesian coordinates
 exchange correlation table for  LEXCH =        8
   RHO(1)=    0.500       N(1)  =     2000
   RHO(2)=  100.500       N(2)  =     4000

 ion  position               nearest neighbor table
   1  0.667  0.333  0.834-  17 2.76  23 2.76  29 2.76  16 2.77  22 2.77  28 2.77  28 2.77  16 2.77
                            22 2.77  27 2.77  21 2.77  15 2.77  10 3.39  10 3.39  10 3.39   9 3.40
   2  0.333  0.667  0.666-  14 2.76  20 2.76  26 2.76  21 2.77  15 2.77  27 2.77  27 2.77  21 2.77
                            15 2.77  28 2.77  22 2.77  16 2.77   7 3.39   7 3.39   7 3.39   9 3.40
   3  0.000  0.000  0.493-  13 2.69  19 2.69  25 2.69  26 2.77  14 2.77  20 2.77  26 2.77  20 2.77
                            14 2.77  12 3.31   8 3.37   8 3.37   8 3.37   7 3.42   7 3.42   7 3.42
   4  0.667  0.333  0.328-  30 2.72  24 2.72  18 2.72  19 2.77  13 2.77  25 2.77  25 2.77  13 2.77
                            19 2.77  11 3.31  12 3.37  12 3.37  12 3.37   8 3.42   8 3.42   8 3.42
   5  0.333  0.667  0.172-  25 2.72  19 2.72  13 2.72  18 2.77  24 2.77  30 2.77  30 2.77  18 2.77
                            24 2.77   8 3.31  12 3.37  12 3.37  12 3.37  11 3.42  11 3.42  11 3.42
   6  0.000  0.000  0.007-  18 2.69  24 2.69  30 2.69  29 2.77  23 2.77  17 2.77  29 2.77  17 2.77
                            23 2.77  12 3.31  11 3.37  11 3.37  11 3.37  10 3.42  10 3.42  10 3.42
   7  0.667  0.333  0.583-  27 1.99  21 1.99  15 1.99  14 1.99  20 1.99  26 1.99   2 3.39   2 3.39
                             2 3.39   1 3.41   3 3.42   3 3.42   3 3.42
   8  0.333  0.667  0.416-  20 1.93  14 1.93  26 1.93  25 1.93  19 1.93  13 1.93   5 3.31   3 3.37
                             3 3.37   3 3.37   2 3.40   4 3.42   4 3.42   4 3.42
   9  0.000  0.000  0.750-  15 1.93  16 1.93  21 1.93  22 1.93  27 1.93  28 1.93   1 3.40   2 3.40
                             1 3.40   2 3.40   1 3.40   2 3.40
  10  0.333  0.667  0.917-  28 1.99  22 1.99  16 1.99  23 1.99  17 1.99  29 1.99   1 3.39   1 3.39
                             1 3.39   2 3.41   6 3.42   6 3.42   6 3.42
  11  0.667  0.333  0.084-  23 1.93  17 1.93  29 1.93  30 1.93  24 1.93  18 1.93   4 3.31   6 3.37
                             6 3.37   6 3.37   1 3.40   5 3.42   5 3.42   5 3.42
  12  0.000  0.000  0.250-  19 1.98  24 1.98  13 1.98  18 1.98  25 1.98  30 1.98   3 3.31   6 3.31
                             5 3.37   4 3.37   4 3.37   5 3.37   4 3.37   5 3.37
  13  0.663  0.832  0.335-   8 1.93  12 1.98   3 2.69   5 2.72   4 2.77   4 2.77
  14  0.007  0.504  0.499-   8 1.93   7 1.99   2 2.76   3 2.77   3 2.77
  15  0.329  0.165  0.668-   9 1.93   7 1.99   2 2.77   2 2.77   1 2.77
  16  0.671  0.835  0.832-   9 1.93  10 1.99   1 2.77   1 2.77   2 2.77
  17  0.993  0.496  0.001-  11 1.93  10 1.99   1 2.76   6 2.77   6 2.77
  18  0.337  0.168  0.165-  11 1.93  12 1.98   6 2.69   4 2.72   5 2.77   5 2.77
  19  0.168  0.337  0.335-   8 1.93  12 1.98   3 2.69   5 2.72   4 2.77   4 2.77
  20  0.496  0.993  0.499-   8 1.93   7 1.99   2 2.76   3 2.77   3 2.77
  21  0.835  0.671  0.668-   9 1.93   7 1.99   2 2.77   2 2.77   1 2.77
  22  0.165  0.329  0.832-   9 1.93  10 1.99   1 2.77   1 2.77   2 2.77
  23  0.504  0.007  0.001-  11 1.93  10 1.99   1 2.76   6 2.77   6 2.77
  24  0.832  0.663  0.165-  11 1.93  12 1.98   6 2.69   4 2.72   5 2.77   5 2.77
  25  0.168  0.832  0.335-   8 1.93  12 1.98   3 2.69   5 2.72   4 2.77   4 2.77
  26  0.496  0.504  0.499-   8 1.93   7 1.99   2 2.76   3 2.77   3 2.77
  27  0.835  0.165  0.668-   9 1.93   7 1.99   2 2.77   2 2.77   1 2.77
  28  0.165  0.835  0.832-   9 1.93  10 1.99   1 2.77   1 2.77   2 2.77
  29  0.504  0.496  0.001-  11 1.93  10 1.99   1 2.76   6 2.77   6 2.77
  30  0.832  0.168  0.165-  11 1.93  12 1.98   6 2.69   4 2.72   5 2.77   5 2.77

  LATTYP: Found a hexagonal cell.
 ALAT       =     5.5424844657
 C/A-ratio  =     2.4507266835

  Lattice vectors:

 A1 = (   3.9191283503,   0.0000000000,  -3.9191283503)
 A2 = (  -3.9191283503,   3.9191283503,   0.0000000000)
 A3 = (   7.8422148552,   7.8422148552,   7.8422148552)

Analysis of symmetry for initial positions (statically):
 Subroutine PRICEL returns:
 Original cell was already a primitive cell.

 Routine SETGRP: Setting up the symmetry group for a
 hexagonal supercell.

 Subroutine GETGRP returns: Found 12 space group operations
 (whereof  6 operations were pure point group operations)
 out of a pool of 24 trial point group operations.

The static configuration has the point symmetry C_3v.
 The point group associated with its full space group is D_3d.

Analysis of symmetry for dynamics (positions and initial velocities):
 Subroutine PRICEL returns:
 Original cell was already a primitive cell.

[...]

The dynamic configuration has the point symmetry C_3v.
 The point group associated with its full space group is D_3d.

Analysis of structural, dynamic, and magnetic symmetry:
 Subroutine PRICEL returns:
 Original cell was already a primitive cell.

 Routine SETGRP: Setting up the symmetry group for a
 hexagonal supercell.

 Subroutine GETGRP returns: Found 12 space group operations
 (whereof  6 operations were pure point group operations)
 out of a pool of 24 trial point group operations.

The magnetic configuration has the point symmetry C_3v.
 The point group associated with its full space group is D_3d.

 Subroutine INISYM returns: Found 12 space group operations
 (whereof  6 operations are pure point group operations),
 and found     1 'primitive' translations

 KPOINTS: Automatic mesh

Automatic generation of k-mesh.
 generate k-points for:    4    4    1
Space group operators:
 irot       det(A)        alpha          n_x          n_y          n_z        tau_x        tau_y        tau_z
    1     1.000000     0.000000     1.000000     0.000000     0.000000     0.000000     0.000000     0.000000
    2     1.000000   120.000000    -0.577350    -0.577350    -0.577350     0.000000     0.000000     0.000000
    3     1.000000   120.000000     0.577350     0.577350     0.577350     0.000000     0.000000     0.000000
    4    -1.000000   180.000000     0.707107     0.000000    -0.707107     0.000000     0.000000     0.000000
    5    -1.000000   180.000000     0.707107    -0.707107     0.000000     0.000000     0.000000     0.000000
    6    -1.000000   180.000000     0.000000    -0.707107     0.707107     0.000000     0.000000     0.000000
    7    -1.000000     0.000000     1.000000     0.000000     0.000000    -0.000000    -0.000000     0.500000
    8    -1.000000   120.000000    -0.577350    -0.577350    -0.577350    -0.000000    -0.000000     0.500000
    9    -1.000000   120.000000     0.577350     0.577350     0.577350    -0.000000    -0.000000     0.500000
   10     1.000000   180.000000     0.707107     0.000000    -0.707107    -0.000000    -0.000000     0.500000
   11     1.000000   180.000000     0.707107    -0.707107     0.000000    -0.000000    -0.000000     0.500000
   12     1.000000   180.000000     0.000000    -0.707107     0.707107    -0.000000    -0.000000     0.500000

 Subroutine IBZKPT returns following result:

 Found      4 irreducible k-points:

 Following reciprocal coordinates:
            Coordinates               Weight
  0.000000  0.000000  0.000000      1.000000
  0.250000  0.000000  0.000000      6.000000
  0.500000  0.000000  0.000000      3.000000
  0.250000  0.250000  0.000000      6.000000

 Following cartesian coordinates:
            Coordinates               Weight
  0.000000  0.000000  0.000000      1.000000
  0.021263  0.021263 -0.042526      6.000000
  0.042526  0.042526 -0.085053      3.000000
  0.000000  0.063790 -0.063790      6.000000

 TETIRR: Found     10 inequivalent tetrahedra from       96

 SYSTEM =  final
 POSCAR =  SCEL6_6_1_1_0_5_5/0

 Startparameter for this run:
   NWRITE =      2    write-flag & timer
   PREC   = accura    normal or accurate (medium, high low for compatibility)
   ISTART =      0    job   : 0-new  1-cont  2-samecut
[...]
     30      -8.1406      1.00000
     31      -8.1406      1.00000
     32      -8.0453      1.00000
     33      -8.0319      1.00000
     34      -8.0319      1.00000
     35      -7.9206      1.00000
     36      -7.9206      1.00000
     37      -7.9171      1.00000
     38      -7.9171      1.00000
     39      -7.7417      1.00000
     40      -7.6620      1.00000
     41      -7.5779      1.00000
     42      -7.5596      1.00000
     43       0.2852      1.00000
     44       0.2852      1.00000
     45       0.6344      1.00000
     46       1.1277      1.00000
     47       1.1804      1.00000
     48       1.4062      1.00000
     49       1.4062      1.00000
     50       1.5640      1.00000
     51       1.5640      1.00000
     52       1.5742      1.00000
     53       1.6185      1.00000
     54       1.6185      1.00000
     55       1.6809      1.00000
     56       1.7441      1.00000
     57       1.7472      1.00000
     58       1.7472      1.00000
     59       1.8553      1.00000
     60       1.8553      1.00000
[...]
    130      10.2877      0.00000
    131      10.3044      0.00000
    132      10.3395      0.00000
    133      10.3653      0.00000
    134      10.3783      0.00000
    135      10.3917      0.00000
    136      10.4239      0.00000
    137      10.4350      0.00000
    138      10.4558      0.00000
    139      10.4713      0.00000
    140      10.4831      0.00000
    141      10.5172      0.00000
    142      10.5611      0.00000
    143      10.5882      0.00000
    144      10.5995      0.00000

[...]

 spin component 2

[...]

 k-point     4 :       0.2500    0.2500    0.0000
  band No.  band energies     occupation
      1     -24.4804      1.00000
      2     -24.4640      1.00000
      3     -24.4561      1.00000
      4     -24.4376      1.00000
      5     -24.4371      1.00000
      6     -24.4195      1.00000
      7     -11.3691      1.00000
      8     -11.3247      1.00000
      9     -11.2114      1.00000
     10     -11.0085      1.00000
     11     -10.9782      1.00000
     12     -10.9147      1.00000
     13     -10.4799      1.00000
     14     -10.4775      1.00000
     15     -10.3510      1.00000
     16     -10.2631      1.00000
     17     -10.2196      1.00000
     18     -10.2098      1.00000
     19     -10.0311      1.00000
     20      -9.9337      1.00000
     21      -9.9025      1.00000
     22      -9.8135      1.00000
     23      -9.8005      1.00000
     24      -9.7545      1.00000
     25      -8.2146      1.00000
     26      -7.9885      1.00000
     27      -7.9860      1.00000
     28      -7.9380      1.00000
     29      -7.9294      1.00000
     30      -7.9109      1.00000
     31      -7.7488      1.00000
     32      -7.7476      1.00000
     33      -7.7230      1.00000
     34      -7.6981      1.00000
     35      -7.6721      1.00000
     36      -7.6456      1.00000
     37      -7.6164      1.00000
     38      -7.5331      1.00000
     39      -7.5122      1.00000
     40      -7.4976      1.00000
     41      -7.3645      1.00000
     42      -7.3260      1.00000
     43       1.6137      1.00000
     44       1.8018      1.00000
     45       1.8189      1.00000
     46       2.1126      1.00000
     47       2.1313      1.00000
     48       2.1946      1.00000
     49       2.2193      1.00000
     50       2.2633      1.00000
     51       2.6134      1.00000
     52       2.7262      1.00000
     53       2.8832      1.00000
     54       2.9443      1.00000
     55       2.9933      1.00000
     56       3.0088      1.00000
     57       3.0687      1.00000
     58       3.0859      1.00000
     59       3.1064      1.00000
     60       3.1801      1.00000
[...]
    130      10.4722      0.00000
    131      10.4794      0.00000
    132      10.4809      0.00000
    133      10.5124      0.00000
    134      10.5250      0.00000
    135      10.5277      0.00000
    136      10.5497      0.00000
    137      10.5547      0.00000
    138      10.5966      0.00000
    139      10.6081      0.00000
    140      10.6172      0.00000
    141      10.6286      0.00000
    142      10.6481      0.00000
    143      10.7718      0.00000
    144      10.9168      0.00000

 soft charge-density along one line, spin component           1
         0         1         2         3         4         5         6         7         8         9
 total charge-density along one line

 soft charge-density along one line, spin component           2
         0         1         2         3         4         5         6         7         8         9
 total charge-density along one line

------------------------ aborting loop because EDIFF is reached ----------------------------------------

 total charge

# of ion       s       p       d       f       tot
    1        1.998   5.696   0.475   0.183   8.352
    2        1.998   5.696   0.475   0.183   8.352
    3        1.998   5.695   0.475   0.183   8.352
    4        1.998   5.695   0.476   0.183   8.352
    5        1.998   5.695   0.476   0.183   8.352
    6        1.999   5.695   0.475   0.183   8.353
    7        0.287   0.415   4.937   0.000   5.639
    8        0.340   0.535   4.866   0.000   5.741
    9        0.333   0.522   4.871   0.000   5.727
   10        0.287   0.415   4.937   0.000   5.639
   11        0.340   0.535   4.866   0.000   5.741
   12        0.383   0.549   8.321   0.000   9.252
   13        1.559   3.506   0.000   0.000   5.065
   14        1.565   3.486   0.000   0.000   5.051
   15        1.564   3.496   0.000   0.000   5.061
   16        1.564   3.496   0.000   0.000   5.061
   17        1.565   3.486   0.000   0.000   5.051
   18        1.559   3.506   0.000   0.000   5.065
   19        1.559   3.449   0.000   0.000   5.008
   20        1.564   3.449   0.000   0.000   5.013
   21        1.563   3.449   0.000   0.000   5.012
   22        1.563   3.449   0.000   0.000   5.012
   23        1.564   3.448   0.000   0.000   5.012
   24        1.559   3.449   0.000   0.000   5.008
   25        1.559   3.422   0.000   0.000   4.981
   26        1.563   3.431   0.000   0.000   4.995
   27        1.562   3.427   0.000   0.000   4.989
   28        1.562   3.427   0.000   0.000   4.989
   29        1.563   3.431   0.000   0.000   4.995
   30        1.559   3.422   0.000   0.000   4.981
tot         42.079  99.371  35.650   1.100 178.200

 magnetization (x)

[...]

  FORCE on cell =-STRESS in cart. coord.  units (eV):
  Direction    XX          YY          ZZ          XY          YZ          ZX
  Alpha Z   963.94031   963.94031   963.94031
  Ewald   -4857.58969 -4857.58966 -4857.58966   -30.03162   -30.03159   -30.03162
  Hartree  1016.52493  1016.52494  1016.52494   -30.39814   -30.39814   -30.39814
  E(xc)   -1005.45706 -1005.45709 -1005.45709     0.00571     0.00574     0.00571
  Local    -527.38393  -527.38454  -527.38454    60.48673    60.48729    60.48673
  n-local   386.86454   388.53003   391.67184    -1.50046     1.05658     0.13805
  augment   198.51127   198.51173   198.51173    -0.00618    -0.00665    -0.00618
  Kinetic  3837.76661  3828.03457  3803.55081   -11.95314     9.04921     3.16382
  Fock        0.00000     0.00000     0.00000     0.00000     0.00000     0.00000
  Total       0.68520     0.68520     0.68520     0.04127     0.04127     0.04127
  in kB       3.03803     3.03803     3.03803     0.18300     0.18300     0.18300

 VOLUME and BASIS-vectors are now :
  energy-cutoff  :      520.00
  volume of cell :      361.36
      direct lattice vectors                 reciprocal lattice vectors
     3.919128350  0.000000000 -3.919128350     0.085052926  0.085052926 -0.170105852
    -3.919128350  3.919128350  0.000000000    -0.085052926  0.170105852 -0.085052926
     7.842214855  7.842214855  7.842214855     0.042504999  0.042504999  0.042504999

  length of vectors
     5.542484466  5.542484466 13.583114573     0.208336270  0.208336270  0.073620818

 FORCES acting on ions
    electron-ion (+dipol)            ewald-force                    non-local-force                 convergence-correction
   0.160E+02 0.160E+02 0.160E+02   -.161E+02 -.161E+02 -.161E+02   -.284E-02 -.284E-02 -.284E-02   -.214E-01 -.214E-01 -.214E-01
   -.160E+02 -.160E+02 -.160E+02   0.161E+02 0.161E+02 0.161E+02   0.284E-02 0.284E-02 0.284E-02   0.214E-01 0.214E-01 0.214E-01
   -.709E+02 -.709E+02 -.709E+02   0.704E+02 0.704E+02 0.704E+02   0.419E+00 0.419E+00 0.419E+00   0.415E-01 0.415E-01 0.415E-01
   -.475E+02 -.475E+02 -.475E+02   0.471E+02 0.471E+02 0.471E+02   0.338E+00 0.338E+00 0.338E+00   0.177E-01 0.177E-01 0.177E-01
   0.475E+02 0.475E+02 0.475E+02   -.471E+02 -.471E+02 -.471E+02   -.338E+00 -.338E+00 -.338E+00   -.177E-01 -.177E-01 -.177E-01
   0.709E+02 0.709E+02 0.709E+02   -.704E+02 -.704E+02 -.704E+02   -.419E+00 -.419E+00 -.419E+00   -.415E-01 -.415E-01 -.415E-01
   -.167E+02 -.167E+02 -.167E+02   0.169E+02 0.169E+02 0.169E+02   -.229E+00 -.229E+00 -.229E+00   0.203E-01 0.203E-01 0.203E-01
   -.314E+02 -.314E+02 -.314E+02   0.313E+02 0.313E+02 0.313E+02   0.200E+00 0.200E+00 0.200E+00   0.988E-02 0.988E-02 0.988E-02
   0.477E-12 0.490E-12 0.491E-12   0.355E-13 0.462E-13 -.462E-13   0.110E-19 -.889E-20 -.424E-20   -.941E-13 -.107E-12 -.950E-13
   0.167E+02 0.167E+02 0.167E+02   -.169E+02 -.169E+02 -.169E+02   0.229E+00 0.229E+00 0.229E+00   -.203E-01 -.203E-01 -.203E-01
   0.314E+02 0.314E+02 0.314E+02   -.313E+02 -.313E+02 -.313E+02   -.200E+00 -.200E+00 -.200E+00   -.988E-02 -.988E-02 -.988E-02
   0.684E-12 0.710E-12 0.704E-12   -.284E-13 -.128E-12 -.497E-13   -.169E-20 0.762E-20 0.339E-20   0.300E-12 0.315E-12 0.307E-12
   -.164E+02 -.164E+02 -.550E+02   0.165E+02 0.165E+02 0.511E+02   -.175E+00 -.175E+00 0.380E+01   0.444E-02 0.444E-02 0.443E-01
   -.230E+02 -.230E+02 -.493E+02   0.230E+02 0.230E+02 0.518E+02   0.472E-01 0.472E-01 -.256E+01   0.158E-01 0.158E-01 0.508E-01
   -.465E+01 -.465E+01 0.821E+01   0.441E+01 0.441E+01 -.102E+02   0.251E+00 0.251E+00 0.194E+01   0.963E-02 0.963E-02 -.119E-01
   0.465E+01 0.465E+01 -.821E+01   -.441E+01 -.441E+01 0.102E+02   -.251E+00 -.251E+00 -.194E+01   -.963E-02 -.963E-02 0.119E-01
   0.230E+02 0.230E+02 0.493E+02   -.230E+02 -.230E+02 -.518E+02   -.472E-01 -.472E-01 0.256E+01   -.158E-01 -.158E-01 -.508E-01
   0.164E+02 0.164E+02 0.550E+02   -.165E+02 -.165E+02 -.511E+02   0.175E+00 0.175E+00 -.380E+01   -.444E-02 -.444E-02 -.443E-01
   -.164E+02 -.550E+02 -.164E+02   0.165E+02 0.511E+02 0.165E+02   -.175E+00 0.380E+01 -.175E+00   0.444E-02 0.443E-01 0.444E-02
   -.230E+02 -.493E+02 -.230E+02   0.230E+02 0.518E+02 0.230E+02   0.472E-01 -.256E+01 0.472E-01   0.158E-01 0.508E-01 0.158E-01
   -.465E+01 0.821E+01 -.465E+01   0.441E+01 -.102E+02 0.441E+01   0.251E+00 0.194E+01 0.251E+00   0.963E-02 -.119E-01 0.963E-02
   0.465E+01 -.821E+01 0.465E+01   -.441E+01 0.102E+02 -.441E+01   -.251E+00 -.194E+01 -.251E+00   -.963E-02 0.119E-01 -.963E-02
   0.230E+02 0.493E+02 0.230E+02   -.230E+02 -.518E+02 -.230E+02   -.472E-01 0.256E+01 -.472E-01   -.158E-01 -.508E-01 -.158E-01
   0.164E+02 0.550E+02 0.164E+02   -.165E+02 -.511E+02 -.165E+02   0.175E+00 -.380E+01 0.175E+00   -.444E-02 -.443E-01 -.444E-02
   -.550E+02 -.164E+02 -.164E+02   0.511E+02 0.165E+02 0.165E+02   0.380E+01 -.175E+00 -.175E+00   0.443E-01 0.444E-02 0.444E-02
   -.493E+02 -.230E+02 -.230E+02   0.518E+02 0.230E+02 0.230E+02   -.256E+01 0.472E-01 0.472E-01   0.508E-01 0.158E-01 0.158E-01
   0.821E+01 -.465E+01 -.465E+01   -.102E+02 0.441E+01 0.441E+01   0.194E+01 0.251E+00 0.251E+00   -.119E-01 0.963E-02 0.963E-02
   -.821E+01 0.465E+01 0.465E+01   0.102E+02 -.441E+01 -.441E+01   -.194E+01 -.251E+00 -.251E+00   0.119E-01 -.963E-02 -.963E-02
   0.493E+02 0.230E+02 0.230E+02   -.518E+02 -.230E+02 -.230E+02   0.256E+01 -.472E-01 -.472E-01   -.508E-01 -.158E-01 -.158E-01
   0.550E+02 0.164E+02 0.164E+02   -.511E+02 -.165E+02 -.165E+02   -.380E+01 0.175E+00 0.175E+00   -.443E-01 -.444E-02 -.444E-02
   -.152E-10 0.143E-10 -.623E-11   -.178E-12 -.114E-12 -.185E-12   -.444E-15 0.472E-15 0.278E-16   0.146E-12 0.381E-12 0.218E-12

 POSITION                                       TOTAL-FORCE (eV/Angst)
      7.84505      7.84505      3.92593        -0.030532     -0.030532     -0.030532
      3.91827      7.83740      3.91827         0.030532      0.030532      0.030532
      3.86973      3.86973      3.86973        -0.020581     -0.020581     -0.020581
      3.87837      3.87836     -0.04076        -0.016165     -0.016165     -0.016165
      0.04274      3.96187      0.04274         0.016165      0.016165      0.016165
      0.05138      0.05138      0.05138         0.020581      0.020581      0.020581
      5.87627      5.87627      1.95714        -0.001302     -0.001302     -0.001302
      1.95453      5.87365      1.95453         0.093973      0.093973      0.093973
      5.88166      5.88166      5.88166         0.000000      0.000000      0.000000
      5.88705      9.80618      5.88705         0.001302      0.001302      0.001302
      1.96658      1.96658     -1.95255        -0.093973     -0.093973     -0.093973
      1.96055      1.96055      1.96055         0.000000      0.000000      0.000000
      1.96524      5.88436      0.02434        -0.038894     -0.038894     -0.083291
      1.96491      5.88404      3.88266        -0.031445     -0.031445      0.008042
      5.88368      5.88368      3.94759         0.015241      0.015241     -0.033112
      5.87964      9.79877      3.89660        -0.015241     -0.015241      0.033112
      1.95620      1.95620     -3.88068         0.031445      0.031445     -0.008042
      1.95587      1.95587     -0.02236         0.038894      0.038894      0.083291
      1.96524      3.94347      1.96524        -0.038894     -0.083291     -0.038894
      1.96491      7.80179      1.96491        -0.031445      0.008042     -0.031445
      5.88368      7.86672      1.96455         0.015241     -0.033112      0.015241
      5.87964      7.81573      5.87964        -0.015241      0.033112     -0.015241
      1.95620      0.03845     -1.96293         0.031445     -0.008042      0.031445
      1.95587      3.89676     -1.96326         0.038894      0.083291      0.038894
      0.02434      5.88436      1.96524        -0.083291     -0.038894     -0.038894
      3.88266      5.88404      1.96491         0.008042     -0.031445     -0.031445
      7.86672      5.88368      1.96455        -0.033112      0.015241      0.015241
      3.89660      9.79877      5.87964         0.033112     -0.015241     -0.015241
      0.03845      1.95620     -1.96293        -0.008042      0.031445      0.031445
      3.89676      1.95587     -1.96326         0.083291      0.038894      0.038894
    total drift:                               -0.000000      0.000000     -0.000000

  FREE ENERGIE OF THE ION-ELECTRON SYSTEM (eV)
  free  energy   TOTEN  =      -232.31846239 eV

  energy  without entropy=     -232.31846239  energy(sigma->0) =     -232.31846239

 total charge

[...]

 magnetization (x)

# of ion       s       p       d       f       tot
    1        0.001   0.001   0.012   0.007   0.022
    2        0.001   0.001   0.012   0.007   0.022
    3        0.001   0.001   0.011   0.007   0.019
    4        0.001   0.001   0.008   0.005   0.014
    5        0.001   0.001   0.008   0.005   0.014
    6        0.001   0.001   0.011   0.007   0.019
    7        0.023   0.021   4.056   0.000   4.100
    8        0.025   0.037   3.498   0.000   3.560
    9        0.023   0.032   3.588   0.000   3.644
   10        0.023   0.021   4.057   0.000   4.101
   11        0.025   0.037   3.498   0.000   3.560
   12        0.006  -0.001   1.713   0.000   1.717
   13        0.006   0.010   0.000   0.000   0.016
   14        0.007  -0.044   0.000   0.000  -0.036
   15        0.008  -0.023   0.000   0.000  -0.016
   16        0.008  -0.023   0.000   0.000  -0.016
   17        0.007  -0.043   0.000   0.000  -0.036
   18        0.006   0.010   0.000   0.000   0.016
   19        0.005   0.003   0.000   0.000   0.008
   20        0.005  -0.041   0.000   0.000  -0.036
   21        0.005  -0.028   0.000   0.000  -0.023
   22        0.005  -0.028   0.000   0.000  -0.023
   23        0.005  -0.041   0.000   0.000  -0.036
   24        0.005   0.003   0.000   0.000   0.008
   25        0.005  -0.004   0.000   0.000   0.000
   26        0.004  -0.041   0.000   0.000  -0.037
   27        0.004  -0.033   0.000   0.000  -0.029
   28        0.004  -0.033   0.000   0.000  -0.029
   29        0.004  -0.041   0.000   0.000  -0.037
   30        0.005  -0.004   0.000   0.000   0.000
tot          0.226  -0.249  20.474   0.037  20.488

 BZINTS: Fermi energy:  8.041759;219.000000 electrons
         Band energy:-417.798602;  BLOECHL correction:  0.000000