 vasp.5.4.4.18Apr17-6-g9f103f2a35 (build Oct 03 2018 13:58:34) complex

 executed on             LinuxIFC date 2019.06.04  01:19:35

 INCAR:
 POTCAR:    PAW_PBE La 06Sep2000
 POTCAR:    PAW_PBE Mn 06Sep2000
 POTCAR:    PAW_PBE Ni 02Aug2007
 POTCAR:    PAW_PBE O 08Apr2002

 POTCAR:    PAW_PBE La 06Sep2000
   VRHFIN =La : [core=Kr4d]

   TITEL  = PAW_PBE La 06Sep2000
   POMASS =  138.900; ZVAL   =   11.000    mass and valenz
   ENMAX  =  219.292; ENMIN  =  164.469 eV

 POTCAR:    PAW_PBE Mn 06Sep2000
   VRHFIN =Mn: d6 s1

   TITEL  = PAW_PBE Mn 06Sep2000
   POMASS =   54.938; ZVAL   =    7.000    mass and valenz
   ENMAX  =  269.864; ENMIN  =  202.398 eV

 POTCAR:    PAW_PBE Ni 02Aug2007
   VRHFIN =Ni:

   TITEL  = PAW_PBE Ni 02Aug2007
   POMASS =   58.690; ZVAL   =   10.000    mass and valenz
   ENMAX  =  269.532; ENMIN  =  202.149 eV

 POTCAR:    PAW_PBE O 08Apr2002
   VRHFIN =O: s2p4

   TITEL  = PAW_PBE O 08Apr2002
   POMASS =   16.000; ZVAL   =    6.000    mass and valenz
   ENMAX  =  400.000; ENMIN  =  300.000 eV

 Optimization of the real space projectors (new method)

 maximal supplied QI-value         = 13.42
 optimisation between [QCUT,QGAM] = [ 11.67, 23.35] = [ 38.16,152.62] Ry
 Optimized for a Real-space Cutoff    1.63 Angstroem

   l    n(q)    QCUT    max X(q) W(low)/X(q) W(high)/X(q)  e(spline)
   0     11    11.673    13.882    0.27E-04    0.79E-05    0.11E-06
   0     11    11.673    12.184    0.39E-04    0.13E-04    0.19E-06
   1     11    11.673     4.523    0.73E-05    0.76E-05    0.12E-06
   1     11    11.673     4.424    0.87E-05    0.13E-04    0.19E-06
   2     10    11.673    52.481    0.65E-04    0.36E-04    0.18E-06
   2     10    11.673    38.501    0.61E-04    0.33E-04    0.17E-06
   3     10    11.673    65.631    0.17E-03    0.14E-03    0.37E-06
   3     10    11.673    56.854    0.17E-03    0.14E-03    0.37E-06
 Optimization of the real space projectors (new method)

[...]

   l    n(q)    QCUT    max X(q) W(low)/X(q) W(high)/X(q)  e(spline)
   2      9    11.539    60.317    0.19E-03    0.47E-04    0.16E-06
   2      9    11.539    55.921    0.19E-03    0.48E-04    0.16E-06
   0     10    11.539    51.690    0.80E-04    0.50E-04    0.24E-06
   0     10    11.539    30.015    0.73E-04    0.45E-04    0.22E-06
   1     10    11.539    18.849    0.87E-04    0.16E-03    0.71E-07
   1     10    11.539    14.624    0.73E-04    0.13E-03    0.64E-07
 Optimization of the real space projectors (new method)

 maximal supplied QI-value         = 24.76
 optimisation between [QCUT,QGAM] = [ 11.64, 23.27] = [ 37.91,151.63] Ry
 Optimized for a Real-space Cutoff    1.14 Angstroem

   l    n(q)    QCUT    max X(q) W(low)/X(q) W(high)/X(q)  e(spline)
   0      8    11.635    20.381    0.10E-03    0.33E-03    0.24E-06
   0      8    11.635    15.268    0.11E-03    0.35E-03    0.26E-06
   1      7    11.635     5.964    0.24E-03    0.31E-03    0.30E-06
   1      7    11.635     5.382    0.22E-03    0.25E-03    0.26E-06
  PAW_PBE La 06Sep2000                  :
  PAW_PBE Mn 06Sep2000                  :
  PAW_PBE Ni 02Aug2007                  :
  PAW_PBE O 08Apr2002                   :

 POSCAR: SCEL5_1_1_5_0_0_0/5
  positions in direct lattice
  velocities in cartesian coordinates
 exchange correlation table for  LEXCH =        8
   RHO(1)=    0.500       N(1)  =     2000
   RHO(2)=  100.500       N(2)  =     4000

 ion  position               nearest neighbor table
   1  0.000  0.000  0.202-  19 2.70  24 2.70  24 2.70  19 2.70  14 2.73  14 2.73  14 2.73  14 2.73
                            20 2.77  25 2.77  20 2.77  25 2.77   9 3.32   9 3.32   9 3.32   9 3.32
   2  0.000  0.000  0.400-  13 2.73  13 2.73  13 2.73  13 2.73  24 2.73  18 2.73  23 2.73  24 2.73
                            19 2.73  18 2.73  19 2.73  23 2.73   8 3.34   9 3.34   9 3.34   9 3.34
   3  0.000  0.000  0.598-  18 2.70  23 2.70  23 2.70  18 2.70  12 2.73  12 2.73  12 2.73  12 2.73
                            22 2.77  17 2.77  22 2.77  17 2.77   8 3.32   8 3.32   8 3.32   8 3.32
   4  0.000  0.000  0.794-  17 2.63  22 2.63  22 2.63  17 2.63  11 2.73  11 2.73  11 2.73  11 2.73
                            21 2.81  16 2.81  21 2.81  16 2.81   7 3.28   7 3.28   7 3.28   7 3.28
   5  0.000  0.000  0.006-  20 2.63  25 2.63  25 2.63  20 2.63  15 2.73  15 2.73  15 2.73  15 2.73
                            21 2.81  16 2.81  21 2.81  16 2.81  10 3.28  10 3.28  10 3.28  10 3.28
   6  0.500  0.500  0.900-  11 1.89  15 1.89  16 1.93  21 1.93  16 1.93  21 1.93   4 3.41   5 3.41
                             4 3.41   4 3.41   5 3.41   5 3.41   4 3.41   5 3.41
   7  0.500  0.500  0.699-  17 1.93  22 1.93  17 1.93  22 1.93  12 1.93  11 1.97   4 3.28   4 3.28
                             4 3.28   4 3.28   3 3.35   3 3.35   3 3.35   3 3.35
   8  0.500  0.500  0.500-  12 1.91  13 1.92  18 1.93  23 1.93  18 1.93  23 1.93   3 3.32   3 3.32
                             3 3.32   3 3.32   2 3.34   2 3.34   2 3.34   2 3.34
   9  0.500  0.500  0.300-  14 1.91  13 1.92  19 1.93  24 1.93  19 1.93  24 1.93   1 3.32   1 3.32
                             1 3.32   1 3.32   2 3.34   2 3.34   2 3.34   2 3.34
  10  0.500  0.500  0.101-  20 1.93  25 1.93  20 1.93  25 1.93  14 1.93  15 1.97   5 3.28   5 3.28
                             5 3.28   5 3.28   1 3.35   1 3.35   1 3.35   1 3.35
  11  0.500  0.500  0.802-   6 1.89   7 1.97   4 2.73   4 2.73   4 2.73   4 2.73
  12  0.500  0.500  0.599-   8 1.91   7 1.93   3 2.73   3 2.73   3 2.73   3 2.73
  13  0.500  0.500  0.400-   8 1.92   9 1.92   2 2.73   2 2.73   2 2.73   2 2.73
  14  0.500  0.500  0.201-   9 1.91  10 1.93   1 2.73   1 2.73   1 2.73   1 2.73
  15  0.500  0.500  0.998-   6 1.89  10 1.97   5 2.73   5 2.73   5 2.73   5 2.73
  16  0.500  0.000  0.900-   6 1.93   6 1.93   4 2.81   5 2.81   4 2.81   5 2.81
  17  0.500  0.000  0.701-   7 1.93   7 1.93   4 2.63   4 2.63   3 2.77   3 2.77
  18  0.500  0.000  0.500-   8 1.93   8 1.93   3 2.70   3 2.70   2 2.73   2 2.73
  19  0.500  0.000  0.300-   9 1.93   9 1.93   1 2.70   1 2.70   2 2.73   2 2.73
  20  0.500  0.000  0.099-  10 1.93  10 1.93   5 2.63   5 2.63   1 2.77   1 2.77
  21  0.000  0.500  0.900-   6 1.93   6 1.93   4 2.81   4 2.81   5 2.81   5 2.81
  22  0.000  0.500  0.701-   7 1.93   7 1.93   4 2.63   4 2.63   3 2.77   3 2.77
  23  0.000  0.500  0.500-   8 1.93   8 1.93   3 2.70   3 2.70   2 2.73   2 2.73
  24  0.000  0.500  0.300-   9 1.93   9 1.93   1 2.70   1 2.70   2 2.73   2 2.73
  25  0.000  0.500  0.099-  10 1.93  10 1.93   5 2.63   5 2.63   1 2.77   1 2.77

  LATTYP: Found a simple tetragonal cell.
 ALAT       =     3.8589028715
 C/A-ratio  =     4.9955266677

  Lattice vectors:

 A1 = (   3.8589028715,   0.0000000000,   0.0000000000)
 A2 = (   0.0000000000,   3.8589028715,   0.0000000000)
 A3 = (   0.0000000000,   0.0000000000,  19.2772522029)

Analysis of symmetry for initial positions (statically):
 Subroutine PRICEL returns:
 Original cell was already a primitive cell.

 Routine SETGRP: Setting up the symmetry group for a
 simple tetragonal supercell.

 Subroutine GETGRP returns: Found 16 space group operations
 (whereof  8 operations were pure point group operations)
 out of a pool of 16 trial point group operations.

The static configuration has the point symmetry C_4v.
 The point group associated with its full space group is D_4h.

Analysis of symmetry for dynamics (positions and initial velocities):
 Subroutine PRICEL returns:
 Original cell was already a primitive cell.

[...]

The dynamic configuration has the point symmetry C_4v.
 The point group associated with its full space group is D_4h.

Analysis of structural, dynamic, and magnetic symmetry:
 Subroutine PRICEL returns:
 Original cell was already a primitive cell.

 Routine SETGRP: Setting up the symmetry group for a
 simple tetragonal supercell.

 Subroutine GETGRP returns: Found 16 space group operations
 (whereof  8 operations were pure point group operations)
 out of a pool of 16 trial point group operations.

The magnetic configuration has the point symmetry C_4v.
 The point group associated with its full space group is D_4h.

 Subroutine INISYM returns: Found 16 space group operations
 (whereof  8 operations are pure point group operations),
 and found     1 'primitive' translations

 KPOINTS: Automatic mesh

Automatic generation of k-mesh.
 generate k-points for:    5    5    1
Space group operators:
 irot       det(A)        alpha          n_x          n_y          n_z        tau_x        tau_y        tau_z
    1     1.000000     0.000000     1.000000     0.000000     0.000000     0.000000     0.000000     0.000000
    2     1.000000    90.000000     0.000000     0.000000    -1.000000     0.000000     0.000000     0.000000
    3     1.000000   180.000000     0.000000     0.000000     1.000000     0.000000     0.000000     0.000000
    4     1.000000    90.000000     0.000000     0.000000     1.000000     0.000000     0.000000     0.000000
    5    -1.000000   180.000000     0.000000     1.000000     0.000000     0.000000     0.000000     0.000000
    6    -1.000000   180.000000     0.707107     0.707107     0.000000     0.000000     0.000000     0.000000
    7    -1.000000   180.000000     1.000000     0.000000     0.000000     0.000000     0.000000     0.000000
    8    -1.000000   180.000000     0.707107    -0.707107     0.000000     0.000000     0.000000     0.000000
    9    -1.000000     0.000000     1.000000     0.000000     0.000000     0.000000     0.000000     0.800000
   10    -1.000000    90.000000     0.000000     0.000000    -1.000000     0.000000     0.000000     0.800000
   11    -1.000000   180.000000     0.000000     0.000000     1.000000     0.000000     0.000000     0.800000
   12    -1.000000    90.000000     0.000000     0.000000     1.000000     0.000000     0.000000     0.800000
   13     1.000000   180.000000     0.000000     1.000000     0.000000     0.000000     0.000000     0.800000
   14     1.000000   180.000000     0.707107     0.707107     0.000000     0.000000     0.000000     0.800000
   15     1.000000   180.000000     1.000000     0.000000     0.000000     0.000000     0.000000     0.800000
   16     1.000000   180.000000     0.707107    -0.707107     0.000000     0.000000     0.000000     0.800000

 Subroutine IBZKPT returns following result:

 Found      6 irreducible k-points:

 Following reciprocal coordinates:
            Coordinates               Weight
  0.000000  0.000000  0.000000      1.000000
  0.200000  0.000000  0.000000      4.000000
  0.400000  0.000000  0.000000      4.000000
  0.200000  0.200000  0.000000      4.000000
  0.400000  0.200000  0.000000      8.000000
  0.400000  0.400000  0.000000      4.000000

 Following cartesian coordinates:
            Coordinates               Weight
  0.000000  0.000000  0.000000      1.000000
  0.051828  0.000000  0.000000      4.000000
  0.103656  0.000000  0.000000      4.000000
  0.051828  0.051828  0.000000      4.000000
  0.103656  0.051828  0.000000      8.000000
  0.103656  0.103656  0.000000      4.000000

 TETIRR: Found     31 inequivalent tetrahedra from      150

 SYSTEM =  final
 POSCAR =  SCEL5_1_1_5_0_0_0/5

 Startparameter for this run:
[...]
       1 -94.9652       2 -94.8960       3 -94.9660       4 -95.0581       5 -95.0581
       6 -42.8759       7 -83.8156       8 -83.8867       9 -83.8867      10 -83.8155
      11 -66.7941      12 -66.6330      13 -66.5873      14 -66.6330      15 -66.7940
      16 -66.9512      17 -66.6461      18 -66.6030      19 -66.6030      20 -66.6461
      21 -66.9512      22 -66.6461      23 -66.6030      24 -66.6030      25 -66.6461

 E-fermi :   7.5566     XC(G=0): -11.8308     alpha+bet :-16.8914

[...]

 k-point     1 :       0.0000    0.0000    0.0000
  band No.  band energies     occupation
      1     -23.5937      1.00000
      2     -23.5743      1.00000
      3     -23.4599      1.00000
      4     -23.4495      1.00000
      5     -23.3773      1.00000
      6     -11.1282      1.00000
      7     -10.9532      1.00000
      8     -10.7852      1.00000
      9     -10.6923      1.00000
     10     -10.5492      1.00000
     11      -9.6226      1.00000
     12      -9.5846      1.00000
     13      -9.5618      1.00000
     14      -9.3541      1.00000
     15      -9.3013      1.00000
     16      -9.2945      1.00000
     17      -9.2934      1.00000
     18      -9.2598      1.00000
     19      -9.1899      1.00000
     20      -9.1650      1.00000
     21      -7.1129      1.00000
     22      -7.1129      1.00000
     23      -7.0804      1.00000
     24      -7.0804      1.00000
     25      -7.0202      1.00000
     26      -6.9484      1.00000
     27      -6.9484      1.00000
     28      -6.9218      1.00000
     29      -6.9218      1.00000
     30      -6.8422      1.00000
     31      -6.8422      1.00000
     32      -6.7027      1.00000
     33      -6.6241      1.00000
     34      -6.2653      1.00000
     35      -6.1604      1.00000
     36       0.5918      1.00000
     37       0.7134      1.00000
     38       1.6389      1.00000
     39       2.0955      1.00000
     40       2.2245      1.00000
     41       2.2245      1.00000
     42       2.2722      1.00000
     43       2.2722      1.00000
     44       2.4631      1.00000
     45       2.4631      1.00000
     46       2.4844      1.00000
     47       2.4844      1.00000
     48       2.6123      1.00000
     49       2.6132      1.00000
     50       2.6242      1.00000
     51       2.6318      1.00000
     52       2.7510      1.00000
     53       2.7510      1.00000
     54       3.1298      1.00000
     55       3.1326      1.00000
     56       3.1355      1.00000
     57       3.1367      1.00000
     58       3.1607      1.00000
     59       3.1626      1.00000
     60       3.1626      1.00000
[...]
    110      11.0691      0.00000
    111      11.1530      0.00000
    112      11.1622      0.00000
    113      11.2650      0.00000
    114      11.3575      0.00000
    115      11.4217      0.00000
    116      11.4907      0.00000
    117      11.5075      0.00000
    118      11.5398      0.00000
    119      11.5450      0.00000
    120      11.6204      0.00000
    121      11.6477      0.00000
    122      11.6755      0.00000
    123      11.6947      0.00000
    124      11.7295      0.00000

[...]

 spin component 2

[...]

 k-point     6 :       0.4000    0.4000    0.0000
  band No.  band energies     occupation
      1     -23.4702      1.00000
      2     -23.4565      1.00000
      3     -23.3444      1.00000
      4     -23.3381      1.00000
      5     -23.2677      1.00000
      6     -10.4851      1.00000
      7     -10.2985      1.00000
      8     -10.2659      1.00000
      9     -10.1056      1.00000
     10      -9.9408      1.00000
     11      -9.9306      1.00000
     12      -9.9214      1.00000
     13      -9.8872      1.00000
     14      -9.6658      1.00000
     15      -9.6290      1.00000
     16      -9.5883      1.00000
     17      -9.5593      1.00000
     18      -9.5397      1.00000
     19      -9.4490      1.00000
     20      -9.4055      1.00000
     21      -7.4538      1.00000
     22      -7.4099      1.00000
     23      -7.3996      1.00000
     24      -7.3819      1.00000
     25      -7.1997      1.00000
     26      -7.1952      1.00000
     27      -7.0818      1.00000
     28      -7.0768      1.00000
     29      -6.9108      1.00000
     30      -6.8139      1.00000
     31      -6.7802      1.00000
     32      -6.7169      1.00000
     33      -6.6160      1.00000
     34      -6.5467      1.00000
     35      -6.4795      1.00000
     36       1.1352      1.00000
     37       1.1686      1.00000
     38       1.6419      1.00000
     39       1.7044      1.00000
     40       1.7883      1.00000
     41       2.0157      1.00000
     42       2.0410      1.00000
     43       2.1673      1.00000
     44       2.3769      1.00000
     45       2.3967      1.00000
     46       2.4742      1.00000
     47       2.5355      1.00000
     48       2.5374      1.00000
     49       2.6208      1.00000
     50       2.6265      1.00000
     51       2.6329      1.00000
     52       2.6352      1.00000
     53       3.0891      1.00000
     54       3.2757      1.00000
     55       3.4867      1.00000
     56       3.6264      1.00000
     57       3.8168      1.00000
     58       3.8656      1.00000
     59       3.8928      1.00000
     60       3.9090      1.00000
[...]
    110      11.4625      0.00000
    111      11.4840      0.00000
    112      11.5003      0.00000
    113      11.5219      0.00000
    114      11.5369      0.00000
    115      11.5473      0.00000
    116      11.5563      0.00000
    117      11.5722      0.00000
    118      11.6040      0.00000
    119      11.6079      0.00000
    120      11.6255      0.00000
    121      11.6548      0.00000
    122      11.6753      0.00000
    123      11.6910      0.00000
    124      11.7262      0.00000

 soft charge-density along one line, spin component           1
         0         1         2         3         4         5         6         7         8         9
 total charge-density along one line

 soft charge-density along one line, spin component           2
         0         1         2         3         4         5         6         7         8         9
 total charge-density along one line

------------------------ aborting loop because EDIFF is reached ----------------------------------------

 total charge

# of ion       s       p       d       f       tot
    1        2.001   5.700   0.494   0.191   8.386
    2        2.001   5.701   0.493   0.191   8.386
    3        2.001   5.700   0.494   0.191   8.386
    4        2.002   5.701   0.510   0.197   8.411
    5        2.003   5.701   0.510   0.197   8.411
    6        0.343   0.533   4.872   0.000   5.748
    7        0.422   0.633   8.321   0.000   9.376
    8        0.433   0.653   8.315   0.000   9.400
    9        0.433   0.653   8.315   0.000   9.400
   10        0.422   0.633   8.321   0.000   9.376
   11        1.562   3.461   0.000   0.000   5.023
   12        1.563   3.430   0.000   0.000   4.993
   13        1.562   3.431   0.000   0.000   4.993
   14        1.563   3.430   0.000   0.000   4.993
   15        1.562   3.461   0.000   0.000   5.023
   16        1.559   3.525   0.000   0.000   5.084
   17        1.558   3.516   0.000   0.000   5.074
   18        1.560   3.507   0.000   0.000   5.066
   19        1.560   3.507   0.000   0.000   5.066
   20        1.558   3.516   0.000   0.000   5.074
   21        1.572   3.388   0.000   0.000   4.960
   22        1.565   3.373   0.000   0.000   4.937
   23        1.567   3.358   0.000   0.000   4.925
   24        1.567   3.358   0.000   0.000   4.925
   25        1.565   3.373   0.000   0.000   4.937
tot         35.502  83.244  40.644   0.967 160.358

 magnetization (x)

[...]

  FORCE on cell =-STRESS in cart. coord.  units (eV):
  Direction    XX          YY          ZZ          XY          YZ          ZX
  Alpha Z   827.50174   827.50174   827.50174
  Ewald   -4420.98640 -4420.98640 -4668.03649    -0.00000    -0.00000    -0.00000
  Hartree  1185.89981  1185.89981   945.50488    -0.00000    -0.00000    -0.00000
  E(xc)    -902.75280  -902.75280  -902.85058     0.00000    -0.00000    -0.00000
  Local    -905.85876  -905.85876  -416.47512    -0.00000     0.00000    -0.00000
  n-local   372.36680   361.72231   367.31972    -2.69430    -0.00170    -0.00038
  augment   624.85129   624.85129   624.54797    -0.00000     0.00000     0.00000
  Kinetic  3176.91680  3271.93245  3223.46918    -6.76373     0.00059    -0.00012
  Fock        0.00000     0.00000     0.00000     0.00000     0.00000     0.00000
  Total       0.12405     0.12405     0.98130     0.00000     0.00000     0.00000
  in kB       0.69236     0.69236     5.47694     0.00000     0.00000     0.00000

 VOLUME and BASIS-vectors are now :
  energy-cutoff  :      520.00
  volume of cell :      287.06
      direct lattice vectors                 reciprocal lattice vectors
     3.858902872  0.000000000  0.000000000     0.259141013  0.000000000  0.000000000
     0.000000000  3.858902872  0.000000000     0.000000000  0.259141013  0.000000000
     0.000000000  0.000000000 19.277252203     0.000000000  0.000000000  0.051874613

  length of vectors
     3.858902872  3.858902872 19.277252203     0.259141013  0.259141013  0.051874613

 FORCES acting on ions
    electron-ion (+dipol)            ewald-force                    non-local-force                 convergence-correction
   -.115E-14 -.380E-13 0.108E+03   0.306E-13 0.708E-15 -.108E+03   0.000E+00 0.271E-19 -.438E+00   0.500E-14 0.920E-14 -.430E-01
   0.375E-14 -.128E-13 -.748E-04   0.334E-13 0.181E-13 -.399E-10   0.542E-19 0.000E+00 0.108E-18   0.332E-14 0.105E-13 0.620E-05
   -.160E-14 -.175E-13 -.108E+03   0.308E-13 -.349E-14 0.108E+03   0.000E+00 -.271E-19 0.438E+00   0.607E-14 0.112E-14 0.431E-01
   -.131E-14 -.363E-13 -.213E+03   -.215E-13 0.714E-14 0.212E+03   0.000E+00 0.163E-18 0.118E+01   0.862E-14 0.447E-14 -.675E-01
   0.495E-15 0.387E-13 0.213E+03   -.101E-13 0.461E-14 -.212E+03   0.000E+00 -.163E-18 -.118E+01   0.435E-14 -.880E-14 0.675E-01
   0.484E-13 0.146E-12 0.102E-03   0.178E-13 0.170E-13 -.438E-10   0.000E+00 0.847E-21 -.813E-19   -.307E-14 0.110E-13 -.422E-05
   0.271E-12 0.107E-11 -.125E+03   0.389E-14 0.136E-13 0.124E+03   0.212E-21 0.000E+00 0.745E+00   0.419E-13 0.960E-14 -.123E-01
   0.273E-12 0.197E-11 -.365E+02   -.249E-13 0.128E-13 0.365E+02   0.000E+00 0.000E+00 0.491E-02   0.471E-13 -.161E-13 -.395E-01
   0.239E-12 0.160E-11 0.365E+02   -.154E-14 0.110E-13 -.365E+02   0.000E+00 0.000E+00 -.491E-02   0.554E-13 -.975E-15 0.395E-01
   0.288E-12 0.252E-11 0.125E+03   -.651E-14 0.169E-13 -.124E+03   0.000E+00 -.106E-21 -.745E+00   0.427E-13 0.104E-13 0.123E-01
   0.119E-12 0.113E-11 -.125E+03   -.759E-14 0.303E-14 0.120E+03   0.000E+00 0.000E+00 0.438E+01   0.321E-14 -.134E-13 -.501E-01
   0.117E-12 0.128E-11 -.627E+02   -.160E-13 0.512E-14 0.635E+02   0.000E+00 0.000E+00 -.908E+00   0.176E-13 -.171E-13 0.211E-01
   0.118E-12 0.783E-12 -.110E-03   -.113E-13 0.277E-14 -.146E-09   0.847E-21 0.000E+00 -.325E-18   0.211E-13 -.197E-13 0.286E-05
   0.115E-12 0.133E-11 0.627E+02   -.195E-13 0.753E-14 -.635E+02   -.169E-20 0.000E+00 0.908E+00   0.106E-13 -.770E-14 -.211E-01
   0.118E-12 0.449E-12 0.125E+03   -.123E-13 0.341E-14 -.120E+03   0.000E+00 0.000E+00 -.438E+01   0.186E-13 -.465E-14 0.501E-01
   0.132E-12 0.151E-13 0.198E-04   0.173E-13 -.916E-14 0.537E-11   -.169E-20 0.000E+00 -.271E-19   0.733E-14 0.130E-13 -.368E-05
   0.135E-12 0.516E-13 -.707E+02   0.459E-14 -.891E-14 0.697E+02   -.339E-20 0.000E+00 0.105E+01   0.166E-13 0.362E-13 -.277E-02
   0.129E-12 -.735E-14 -.236E+02   -.184E-14 -.233E-14 0.235E+02   0.000E+00 0.000E+00 0.114E+00   0.132E-13 0.443E-13 -.172E-01
   0.129E-12 0.368E-13 0.236E+02   -.992E-14 -.583E-14 -.235E+02   0.000E+00 0.000E+00 -.114E+00   0.244E-13 0.396E-13 0.172E-01
   0.134E-12 -.367E-14 0.707E+02   -.114E-14 -.805E-14 -.697E+02   0.339E-20 0.000E+00 -.105E+01   0.163E-13 0.336E-13 0.277E-02
   -.459E-14 0.144E-12 0.198E-04   -.211E-13 -.942E-14 0.566E-11   0.000E+00 0.000E+00 -.108E-18   0.178E-13 0.135E-14 -.368E-05
   -.117E-15 0.497E-13 -.707E+02   0.177E-14 -.568E-16 0.697E+02   0.169E-20 -.508E-20 0.105E+01   0.710E-14 -.144E-13 -.277E-02
   -.416E-14 0.506E-12 -.236E+02   0.125E-13 -.311E-14 0.235E+02   0.000E+00 0.678E-20 0.114E+00   0.228E-14 -.162E-13 -.172E-01
   -.290E-14 0.144E-12 0.236E+02   0.154E-14 -.158E-14 -.235E+02   0.000E+00 -.678E-20 -.114E+00   0.616E-15 -.153E-13 0.172E-01
   -.108E-13 0.571E-13 0.707E+02   0.275E-14 -.305E-14 -.697E+02   -.847E-21 0.508E-20 -.105E+01   0.629E-14 -.473E-14 0.277E-02
   0.234E-11 0.132E-10 -.192E-03   -.838E-14 0.686E-13 0.114E-12   0.527E-19 0.741E-21 0.111E-14   0.394E-12 0.852E-13 0.451E-05

 POSITION                                       TOTAL-FORCE (eV/Angst)
      0.00000      0.00000      3.88897         0.000000      0.000000      0.128901
      0.00000      0.00000      7.71090         0.000000      0.000000     -0.000000
      0.00000      0.00000     11.53283        -0.000000      0.000000     -0.128901
      0.00000      0.00000     15.30602         0.000000      0.000000     -0.024178
      0.00000      0.00000      0.11578         0.000000      0.000000      0.024178
      1.92945      1.92945     17.34953         0.000000      0.000000     -0.000000
      1.92945      1.92945     13.48230         0.000000     -0.000000     -0.030988
      1.92945      1.92945      9.63527         0.000000     -0.000000     -0.040377
      1.92945      1.92945      5.78653         0.000000      0.000000      0.040377
      1.92945      1.92945      1.93950         0.000000     -0.000000      0.030988
      1.92945      1.92945     15.45489         0.000000     -0.000000     -0.046594
      1.92945      1.92945     11.54757         0.000000     -0.000000     -0.019457
      1.92945      1.92945      7.71090         0.000000     -0.000000     -0.000000
      1.92945      1.92945      3.87423         0.000000      0.000000      0.019457
      1.92945      1.92945     19.24416         0.000000      0.000000      0.046594
      1.92945      0.00000     17.34953         0.000000      0.000000     -0.000000
      1.92945      0.00000     13.51376        -0.000000      0.000000      0.002669
      1.92945      0.00000      9.64267         0.000000      0.000000     -0.004386
      1.92945      0.00000      5.77913         0.000000      0.000000      0.004386
      1.92945      0.00000      1.90804        -0.000000      0.000000     -0.002669
      0.00000      1.92945     17.34953         0.000000      0.000000     -0.000000
      0.00000      1.92945     13.51376         0.000000      0.000000      0.002669
      0.00000      1.92945      9.64267         0.000000     -0.000000     -0.004386
      0.00000      1.92945      5.77913         0.000000      0.000000      0.004386
      0.00000      1.92945      1.90804         0.000000      0.000000     -0.002669
    total drift:                                0.000000      0.000000     -0.000187

  FREE ENERGIE OF THE ION-ELECTRON SYSTEM (eV)
  free  energy   TOTEN  =      -173.33860070 eV

  energy  without entropy=     -173.33860070  energy(sigma->0) =     -173.33860070

 total charge

[...]

 magnetization (x)

# of ion       s       p       d       f       tot
    1        0.001  -0.001   0.006   0.003   0.009
    2        0.001  -0.001   0.008   0.003   0.010
    3        0.001  -0.001   0.006   0.003   0.009
    4        0.001   0.000   0.010   0.004   0.015
    5        0.001   0.000   0.010   0.004   0.015
    6        0.023   0.020   3.412   0.000   3.455
    7        0.016   0.009   1.437   0.000   1.462
    8        0.019   0.011   1.332   0.000   1.362
    9        0.019   0.011   1.332   0.000   1.362
   10        0.016   0.009   1.437   0.000   1.462
   11        0.004  -0.029   0.000   0.000  -0.024
   12        0.006  -0.112   0.000   0.000  -0.107
   13        0.005  -0.103   0.000   0.000  -0.098
   14        0.006  -0.112   0.000   0.000  -0.107
   15        0.004  -0.029   0.000   0.000  -0.024
   16        0.008  -0.076   0.000   0.000  -0.068
   17        0.010  -0.047   0.000   0.000  -0.037
   18        0.010  -0.071   0.000   0.000  -0.060
   19        0.010  -0.071   0.000   0.000  -0.060
   20        0.010  -0.047   0.000   0.000  -0.037
   21       -0.001  -0.039   0.000   0.000  -0.040
   22        0.001  -0.100   0.000   0.000  -0.099
   23        0.001  -0.129   0.000   0.000  -0.128
   24        0.001  -0.129   0.000   0.000  -0.128
   25        0.001  -0.100   0.000   0.000  -0.099
tot          0.175  -1.138   8.990   0.016   8.043

 BZINTS: Fermi energy:  7.556639;192.000000 electrons
         Band energy:-217.677719;  BLOECHL correction: -0.145305