 vasp.5.4.4.18Apr17-6-g9f103f2a35 (build Oct 03 2018 13:58:34) complex

 executed on             LinuxIFC date 2019.06.04  01:22:48

 INCAR:
 POTCAR:    PAW_PBE La 06Sep2000
 POTCAR:    PAW_PBE Mn 06Sep2000
 POTCAR:    PAW_PBE Ni 02Aug2007
 POTCAR:    PAW_PBE O 08Apr2002

 POTCAR:    PAW_PBE La 06Sep2000
   VRHFIN =La : [core=Kr4d]

   TITEL  = PAW_PBE La 06Sep2000
   POMASS =  138.900; ZVAL   =   11.000    mass and valenz
   ENMAX  =  219.292; ENMIN  =  164.469 eV

 POTCAR:    PAW_PBE Mn 06Sep2000
   VRHFIN =Mn: d6 s1

   TITEL  = PAW_PBE Mn 06Sep2000
   POMASS =   54.938; ZVAL   =    7.000    mass and valenz
   ENMAX  =  269.864; ENMIN  =  202.398 eV

 POTCAR:    PAW_PBE Ni 02Aug2007
   VRHFIN =Ni:

   TITEL  = PAW_PBE Ni 02Aug2007
   POMASS =   58.690; ZVAL   =   10.000    mass and valenz
   ENMAX  =  269.532; ENMIN  =  202.149 eV

 POTCAR:    PAW_PBE O 08Apr2002
   VRHFIN =O: s2p4

   TITEL  = PAW_PBE O 08Apr2002
   POMASS =   16.000; ZVAL   =    6.000    mass and valenz
   ENMAX  =  400.000; ENMIN  =  300.000 eV

 Optimization of the real space projectors (new method)

 maximal supplied QI-value         = 13.42
 optimisation between [QCUT,QGAM] = [ 11.67, 23.35] = [ 38.16,152.62] Ry
 Optimized for a Real-space Cutoff    1.63 Angstroem

   l    n(q)    QCUT    max X(q) W(low)/X(q) W(high)/X(q)  e(spline)
   0     11    11.673    13.882    0.27E-04    0.79E-05    0.11E-06
   0     11    11.673    12.184    0.39E-04    0.13E-04    0.19E-06
   1     11    11.673     4.523    0.73E-05    0.76E-05    0.12E-06
   1     11    11.673     4.424    0.87E-05    0.13E-04    0.19E-06
   2     10    11.673    52.481    0.65E-04    0.36E-04    0.18E-06
   2     10    11.673    38.501    0.61E-04    0.33E-04    0.17E-06
   3     10    11.673    65.631    0.17E-03    0.14E-03    0.37E-06
   3     10    11.673    56.854    0.17E-03    0.14E-03    0.37E-06
 Optimization of the real space projectors (new method)

[...]

   l    n(q)    QCUT    max X(q) W(low)/X(q) W(high)/X(q)  e(spline)
   2      9    11.539    60.317    0.19E-03    0.47E-04    0.16E-06
   2      9    11.539    55.921    0.19E-03    0.48E-04    0.16E-06
   0     10    11.539    51.690    0.80E-04    0.50E-04    0.24E-06
   0     10    11.539    30.015    0.73E-04    0.45E-04    0.22E-06
   1     10    11.539    18.849    0.87E-04    0.16E-03    0.71E-07
   1     10    11.539    14.624    0.73E-04    0.13E-03    0.64E-07
 Optimization of the real space projectors (new method)

 maximal supplied QI-value         = 24.76
 optimisation between [QCUT,QGAM] = [ 11.64, 23.27] = [ 37.91,151.63] Ry
 Optimized for a Real-space Cutoff    1.14 Angstroem

   l    n(q)    QCUT    max X(q) W(low)/X(q) W(high)/X(q)  e(spline)
   0      8    11.635    20.381    0.10E-03    0.33E-03    0.24E-06
   0      8    11.635    15.268    0.11E-03    0.35E-03    0.26E-06
   1      7    11.635     5.964    0.24E-03    0.31E-03    0.30E-06
   1      7    11.635     5.382    0.22E-03    0.25E-03    0.26E-06
  PAW_PBE La 06Sep2000                  :
  PAW_PBE Mn 06Sep2000                  :
  PAW_PBE Ni 02Aug2007                  :
  PAW_PBE O 08Apr2002                   :

 POSCAR: SCEL3_3_1_1_0_1_1/1
  positions in direct lattice
  velocities in cartesian coordinates
 exchange correlation table for  LEXCH =        8
   RHO(1)=    0.500       N(1)  =     2000
   RHO(2)=  100.500       N(2)  =     4000

 ion  position               nearest neighbor table
   1  0.000  0.000  0.004-   7 2.72  11 2.72  14 2.72  10 2.73   9 2.73  13 2.73   9 2.73  10 2.73
                            13 2.73  12 2.76   8 2.76  15 2.76   6 3.33   5 3.34   5 3.34   5 3.34
   2  0.667  0.333  0.333-   7 2.73  11 2.73  14 2.73   7 2.73  11 2.73  14 2.73  10 2.74   9 2.74
                            13 2.74  15 2.74   8 2.74  12 2.74   5 3.35   5 3.35   6 3.35   6 3.35
   3  0.333  0.667  0.663-  14 2.72  11 2.72   7 2.72   8 2.73  12 2.73  12 2.73   8 2.73  15 2.73
                            15 2.73  10 2.76   9 2.76  13 2.76   5 3.33   6 3.34   6 3.34   6 3.34
   4  0.667  0.333  0.833-  15 1.90  12 1.90   8 1.90   9 1.90  10 1.90  13 1.90   3 3.36   3 3.36
                             1 3.36   1 3.36   1 3.36   3 3.36   2 3.36   2 3.36
   5  0.333  0.667  0.167-  14 1.93  11 1.93   7 1.93   9 1.97  10 1.97  13 1.97   3 3.33   1 3.34
                             1 3.34   1 3.34   2 3.35   2 3.35   2 3.35
   6  0.000  0.000  0.499-   7 1.93  11 1.93  14 1.93  12 1.97   8 1.97  15 1.97   1 3.33   3 3.34
                             3 3.34   3 3.34   2 3.35   2 3.35   2 3.35
   7  0.667  0.833  0.333-   5 1.93   6 1.93   1 2.72   3 2.72   2 2.73   2 2.73
   8  0.339  0.169  0.670-   4 1.90   6 1.97   3 2.73   3 2.73   2 2.74   1 2.76
   9  0.995  0.497  0.997-   4 1.90   5 1.97   1 2.73   1 2.73   2 2.74   3 2.76
  10  0.503  0.005  0.997-   4 1.90   5 1.97   1 2.73   1 2.73   2 2.74   3 2.76
  11  0.167  0.333  0.333-   5 1.93   6 1.93   1 2.72   3 2.72   2 2.73   2 2.73
  12  0.831  0.661  0.670-   4 1.90   6 1.97   3 2.73   3 2.73   2 2.74   1 2.76
  13  0.503  0.497  0.997-   4 1.90   5 1.97   1 2.73   1 2.73   2 2.74   3 2.76
  14  0.167  0.833  0.333-   5 1.93   6 1.93   3 2.72   1 2.72   2 2.73   2 2.73
  15  0.831  0.169  0.670-   4 1.90   6 1.97   3 2.73   3 2.73   2 2.74   1 2.76

  LATTYP: Found a hexagonal cell.
 ALAT       =     5.4652830998
 C/A-ratio  =     1.2289616507

  Lattice vectors:

 A1 = (  -3.8645387409,   0.0000000000,  -3.8645387409)
 A2 = (   0.0000000000,  -3.8645387409,   3.8645387409)
 A3 = (  -3.8778442934,   3.8778442934,   3.8778442934)

Analysis of symmetry for initial positions (statically):
 Subroutine PRICEL returns:
 Original cell was already a primitive cell.

 Routine SETGRP: Setting up the symmetry group for a
 hexagonal supercell.

 Subroutine GETGRP returns: Found 12 space group operations
 (whereof  6 operations were pure point group operations)
 out of a pool of 24 trial point group operations.

The static configuration has the point symmetry C_3v.
 The point group associated with its full space group is D_3d.

Analysis of symmetry for dynamics (positions and initial velocities):
 Subroutine PRICEL returns:
 Original cell was already a primitive cell.

[...]

The dynamic configuration has the point symmetry C_3v.
 The point group associated with its full space group is D_3d.

Analysis of structural, dynamic, and magnetic symmetry:
 Subroutine PRICEL returns:
 Original cell was already a primitive cell.

 Routine SETGRP: Setting up the symmetry group for a
 hexagonal supercell.

 Subroutine GETGRP returns: Found 12 space group operations
 (whereof  6 operations were pure point group operations)
 out of a pool of 24 trial point group operations.

The magnetic configuration has the point symmetry C_3v.
 The point group associated with its full space group is D_3d.

 Subroutine INISYM returns: Found 12 space group operations
 (whereof  6 operations are pure point group operations),
 and found     1 'primitive' translations

 KPOINTS: Automatic mesh

Automatic generation of k-mesh.
 generate k-points for:    4    4    3
Space group operators:
 irot       det(A)        alpha          n_x          n_y          n_z        tau_x        tau_y        tau_z
    1     1.000000     0.000000     1.000000     0.000000     0.000000     0.000000     0.000000     0.000000
    2     1.000000   120.000000     0.577350    -0.577350    -0.577350     0.000000     0.000000     0.000000
    3     1.000000   120.000000    -0.577350     0.577350     0.577350     0.000000     0.000000     0.000000
    4    -1.000000   180.000000     0.707107     0.000000     0.707107     0.000000     0.000000     0.000000
    5    -1.000000   180.000000    -0.000000    -0.707107     0.707107     0.000000     0.000000     0.000000
    6    -1.000000   180.000000     0.707107     0.707107    -0.000000     0.000000     0.000000     0.000000
    7    -1.000000     0.000000     1.000000     0.000000     0.000000     0.333333     0.666667     0.666667
    8    -1.000000   120.000000     0.577350    -0.577350    -0.577350     0.333333     0.666667     0.666667
    9    -1.000000   120.000000    -0.577350     0.577350     0.577350     0.333333     0.666667     0.666667
   10     1.000000   180.000000     0.707107     0.000000     0.707107     0.333333     0.666667     0.666667
   11     1.000000   180.000000    -0.000000    -0.707107     0.707107     0.333333     0.666667     0.666667
   12     1.000000   180.000000     0.707107     0.707107    -0.000000     0.333333     0.666667     0.666667

 Subroutine IBZKPT returns following result:

 Found      9 irreducible k-points:

 Following reciprocal coordinates:
            Coordinates               Weight
  0.000000  0.000000  0.000000      1.000000
  0.250000  0.000000  0.000000      6.000000
  0.500000  0.000000  0.000000      3.000000
  0.250000  0.250000  0.000000      6.000000
  0.000000  0.000000  0.333333      2.000000
  0.250000  0.000000  0.333333      6.000000
  0.500000  0.000000  0.333333      6.000000
 -0.250000  0.000000  0.333333      6.000000
  0.250000  0.250000  0.333333     12.000000

 Following cartesian coordinates:
            Coordinates               Weight
  0.000000  0.000000  0.000000      1.000000
 -0.043127 -0.021564 -0.021564      6.000000
 -0.086254 -0.043127 -0.043127      3.000000
 -0.064691 -0.064691  0.000000      6.000000
 -0.028653  0.028653  0.028653      2.000000
 -0.071780  0.007089  0.007089      6.000000
 -0.114907 -0.014474 -0.014474      6.000000
  0.014474  0.050216  0.050216      6.000000
 -0.093344 -0.036038  0.028653     12.000000

 TETIRR: Found     58 inequivalent tetrahedra from      288

 SYSTEM =  final
 POSCAR =  SCEL3_3_1_1_0_1_1/1

 Startparameter for this run:
   NWRITE =      2    write-flag & timer
   PREC   = accura    normal or accurate (medium, high low for compatibility)
   ISTART =      0    job   : 0-new  1-cont  2-samecut
   ICHARG =      1    charge: 1-file 2-atom 10-const
   ISPIN  =      2    spin polarized calculation?
   LNONCOLLINEAR =      F non collinear calculations
   LSORBIT =      F    spin-orbit coupling
   INIWAV =      1    electr: 0-lowe 1-rand  2-diag
   LASPH  =      F    aspherical Exc in radial PAW
   METAGGA=      F    non-selfconsistent MetaGGA calc.

 Electronic Relaxation 1
   ENCUT  =  520.0 eV  38.22 Ry    6.18 a.u.  10.16 10.16 12.49*2*pi/ulx,y,z
   ENINI  =  520.0     initial cutoff
   ENAUG  =  605.4 eV  augmentation charge cutoff
   NELM   =    100;   NELMIN=  2; NELMDL= -5     # of ELM steps
   EDIFF  = 0.1E-02   stopping-criterion for ELM
   LREAL  =      T    real-space projection
   NLSPLINE    = F    spline interpolate recip. space projectors
   LCOMPAT=      F    compatible to vasp.4.4
   GGA_COMPAT  = T    GGA compatible to vasp.4.4-vasp.4.6
   LMAXPAW     = -100 max onsite density
   LMAXMIX     =    6 max onsite mixed and CHGCAR
   VOSKOWN=      0    Vosko Wilk Nusair interpolation
   ROPT   =   -0.00025  -0.00025  -0.00025  -0.00025
 Ionic relaxation
   EDIFFG = 0.1E-01   stopping-criterion for IOM
   NSW    =      0    number of steps for IOM
   NBLOCK =      1;   KBLOCK =      1    inner block; outer block
[...]
  entropy T*S    EENTRO =         0.00000000
  eigenvalues    EBANDS =      1524.70219896
  atomic energy  EATOM  =      9061.24150686
  Solvation  Ediel_sol  =         0.00000000
  free energy    TOTEN  =      1594.37654801 eV

  energy without entropy =     1594.37654801  energy(sigma->0) =     1594.37654801

[...]

 BZINTS: Fermi energy: 15.125946;114.000000 electrons
         Band energy: 382.106699;  BLOECHL correction: -0.138636

 eigenvalue-minimisations  :  2984
 total energy-change (2. order) :-0.1142595E+04  (-0.1036387E+04)
 number of electron     114.0000000 magnetization      10.0000000
 augmentation part      114.0000000 magnetization      10.0000000

[...]

 BZINTS: Fermi energy: 12.110456;114.000000 electrons
         Band energy: -45.500572;  BLOECHL correction: -0.005687

[...]

 BZINTS: Fermi energy: 11.459207;114.000000 electrons
         Band energy:-176.641965;  BLOECHL correction: -0.018053

[...]

 Broyden mixing:
  rms(total) = 0.52355E+01    rms(broyden)= 0.52352E+01
  rms(prec ) = 0.69486E+01
  weight for this iteration     100.00

[...]

 eigenvalues of (default mixing * dielectric matrix)
  average eigenvalue GAMMA=   0.0947
  0.0947

[...]

 eigenvalue-minimisations  :  3922
 total energy-change (2. order) : 0.1869651E+01  (-0.1611527E+01)
 number of electron     114.0000006 magnetization       6.0911758
 augmentation part       16.3883278 magnetization       4.6907150

[...]

 Broyden mixing:
  rms(total) = 0.10672E-01    rms(broyden)= 0.10670E-01
  rms(prec ) = 0.11501E-01
  weight for this iteration     100.00

 eigenvalues of (default mixing * dielectric matrix)
  average eigenvalue GAMMA=   1.1268
  3.2050  2.2007  1.5172  0.7843  0.7843  0.8299  0.8299  0.6163  0.6163  0.5055
  0.5055

[...]

--------------------------------------- Iteration      1(  17)  ---------------------------------------

atom =   1  type =  1  l = 0

[...]

  o =  0.7857  v =  0.0000  1.0000      0.0000  0.0000
  o =  0.7920  v =  1.0000  0.0000      0.0000  0.0000
atom =  15  type =  4  l = 0

 onsite density matrix

[...]

  0.7864

 occupancies and eigenvectors

  o =  0.7864  v =  0.0000  1.0000      0.0000  0.0000
  o =  0.7907  v =  1.0000  0.0000      0.0000  0.0000
 BZINTS: Fermi energy:  7.602161;114.000000 electrons
         Band energy:-145.875417;  BLOECHL correction: -0.017241

 eigenvalue-minimisations  :  2724
 total energy-change (2. order) :-0.8841068E-03  (-0.9409972E-03)
 number of electron     114.0000006 magnetization       5.9979036
 augmentation part       15.9733506 magnetization       4.7898493

 Free energy of the ion-electron system (eV)
  alpha Z        PSCENC =       494.38228768
  Ewald energy   TEWEN  =     -7984.54122683
  -Hartree energ DENC   =     -1843.34893786
  -exchange      EXHF   =         0.00000000
  -V(xc)+E(xc)   XCENC  =       403.57993171
  PAW double counting   =      9612.56322609    -9704.99975404
  entropy T*S    EENTRO =         0.00000000
  eigenvalues    EBANDS =      -145.87541670
  atomic energy  EATOM  =      9061.24150686
  Solvation  Ediel_sol  =         0.00000000
  free energy    TOTEN  =      -106.99838310 eV

  energy without entropy =     -106.99838310  energy(sigma->0) =     -106.99838310

 average (electrostatic) potential at core
  the test charge radii are     1.1480  1.0210  0.9791  0.7215
  (the norm of the test charge is              1.0000)
       1 -95.2367       2 -95.2050       3 -95.2366       4 -43.1204       5 -83.7543
       6 -83.7543       7 -66.6978       8 -66.7939       9 -66.7939      10 -66.7939
      11 -66.6978      12 -66.7939      13 -66.7939      14 -66.6978      15 -66.7939

 E-fermi :   7.6022     XC(G=0): -11.7844     alpha+bet :-16.7219

[...]

 k-point     1 :       0.0000    0.0000    0.0000
  band No.  band energies     occupation
      1     -23.7460      1.00000
      2     -23.6241      1.00000
      3     -23.5935      1.00000
      4     -10.7464      1.00000
      5     -10.3036      1.00000
      6     -10.2870      1.00000
      7      -9.7101      1.00000
      8      -9.7101      1.00000
      9      -9.6391      1.00000
     10      -9.6391      1.00000
     11      -9.4149      1.00000
     12      -9.4149      1.00000
     13      -7.4099      1.00000
     14      -7.4099      1.00000
     15      -7.4089      1.00000
     16      -7.4089      1.00000
     17      -7.2508      1.00000
     18      -7.2474      1.00000
     19      -7.2474      1.00000
     20      -6.9400      1.00000
     21      -6.8714      1.00000
     22       0.5126      1.00000
     23       0.5126      1.00000
     24       1.1647      1.00000
     25       1.1647      1.00000
     26       1.3412      1.00000
     27       1.4265      1.00000
     28       1.8535      1.00000
     29       1.8636      1.00000
     30       1.8636      1.00000
     31       1.9167      1.00000
     32       1.9970      1.00000
     33       1.9970      1.00000
     34       2.7287      1.00000
     35       2.7293      1.00000
     36       2.7293      1.00000
     37       3.4385      1.00000
     38       3.4539      1.00000
     39       3.4539      1.00000
     40       3.9232      1.00000
     41       3.9232      1.00000
     42       5.3735      1.00000
     43       5.4962      1.00000
     44       5.4962      1.00000
     45       5.5361      1.00000
     46       5.6935      1.00000
     47       5.6935      1.00000
     48       5.7099      1.00000
     49       5.8718      1.00000
     50       5.8719      1.00000
     51       6.0700      1.00000
     52       6.0700      1.00000
     53       6.2803      1.00000
     54       6.2803      1.00000
     55       6.4350      1.00000
     56       6.5410      1.00000
     57       6.7573      1.00000
     58       6.7950      1.00000
     59       6.7950      1.00000
     60       8.0476      0.08906
     61       8.0477      0.00000
     62       9.7853      0.00000
     63       9.7896      0.00000
     64      10.3833      0.00000
     65      10.3908      0.00000
     66      11.0740      0.00000
     67      11.0875      0.00000
     68      11.1041      0.00000
     69      11.1486      0.00000
     70      11.2500      0.00000
     71      11.2892      0.00000
     72      11.3044      0.00000
     73      11.3454      0.00000
     74      11.4449      0.00000

[...]

 spin component 2

[...]

 k-point     9 :       0.2500    0.2500    0.3333
  band No.  band energies     occupation
      1     -23.6721      1.00000
      2     -23.6514      1.00000
      3     -23.6110      1.00000
      4     -10.9716      1.00000
      5     -10.8561      1.00000
      6     -10.5139      1.00000
      7      -9.9423      1.00000
      8      -9.8552      1.00000
      9      -9.7257      1.00000
     10      -9.4726      1.00000
     11      -9.3556      1.00000
     12      -9.2532      1.00000
     13      -7.3773      1.00000
     14      -7.2028      1.00000
     15      -7.0972      1.00000
     16      -6.9739      1.00000
     17      -6.9580      1.00000
     18      -6.9376      1.00000
     19      -6.8121      1.00000
     20      -6.5885      1.00000
     21      -6.5487      1.00000
     22       1.8117      1.00000
     23       2.1974      1.00000
     24       2.2603      1.00000
     25       2.3786      1.00000
     26       2.5215      1.00000
     27       2.8206      1.00000
     28       2.8478      1.00000
     29       2.9144      1.00000
     30       2.9721      1.00000
     31       3.2316      1.00000
     32       3.3665      1.00000
     33       3.5160      1.00000
     34       3.5495      1.00000
     35       3.7788      1.00000
     36       3.8920      1.00000
     37       4.1498      1.00000
     38       4.3170      1.00000
     39       4.4381      1.00000
     40       4.9824      1.00000
     41       5.1415      1.00000
     42       5.2718      1.00000
     43       5.4843      1.00000
     44       5.5722      1.00000
     45       5.6711      1.00000
     46       5.8435      1.00000
     47       5.8670      1.00000
     48       5.9307      1.00000
     49       6.0253      1.00000
     50       6.1436      1.00000
     51       6.2304      1.00000
     52       6.3307      1.00000
     53       6.4163      1.00000
     54       6.5660      1.00000
     55      10.3303      0.00000
     56      10.3799      0.00000
     57      10.6146      0.00000
     58      10.7322      0.00000
     59      10.8774      0.00000
     60      10.9454      0.00000
     61      10.9753      0.00000
     62      11.0536      0.00000
     63      11.1261      0.00000
     64      11.1813      0.00000
     65      11.2072      0.00000
     66      11.2345      0.00000
     67      11.2574      0.00000
     68      11.2840      0.00000
     69      11.2883      0.00000
     70      11.3122      0.00000
     71      11.3310      0.00000
     72      11.3537      0.00000
     73      11.3911      0.00000
     74      11.4518      0.00000

 soft charge-density along one line, spin component           1
         0         1         2         3         4         5         6         7         8         9
 total charge-density along one line

 soft charge-density along one line, spin component           2
         0         1         2         3         4         5         6         7         8         9
 total charge-density along one line

------------------------ aborting loop because EDIFF is reached ----------------------------------------

 total charge

# of ion       s       p       d       f       tot
    1        1.999   5.700   0.491   0.192   8.383
    2        1.999   5.700   0.492   0.191   8.382
    3        1.999   5.700   0.491   0.192   8.382
    4        0.361   0.581   4.865   0.000   5.806
    5        0.411   0.599   8.318   0.000   9.328
    6        0.411   0.599   8.318   0.000   9.328
    7        1.563   3.555   0.000   0.000   5.118
    8        1.562   3.502   0.000   0.000   5.064
    9        1.562   3.502   0.000   0.000   5.064
   10        1.562   3.449   0.000   0.000   5.010
   11        1.563   3.394   0.000   0.000   4.957
   12        1.562   3.449   0.000   0.000   5.010
   13        1.562   3.423   0.000   0.000   4.985
   14        1.562   3.346   0.000   0.000   4.909
   15        1.562   3.423   0.000   0.000   4.985
tot         21.238  49.921  22.975   0.575  94.710

 magnetization (x)

[...]

  FORCE on cell =-STRESS in cart. coord.  units (eV):
  Direction    XX          YY          ZZ          XY          YZ          ZX
  Alpha Z   494.38229   494.38229   494.38229
  Ewald   -2661.51832 -2661.51832 -2661.51833     5.21905    -5.21907     5.21907
  Hartree   614.33070   614.33070   614.33070     4.03019    -4.03019     4.03019
  E(xc)    -533.38390  -533.38390  -533.38389    -0.00238     0.00237    -0.00237
  Local    -375.33901  -375.33901  -375.33868    -8.52294     8.52263    -8.52263
  n-local   215.36237   214.70827   214.25031    -0.90268    -1.80682    -0.22933
  augment   317.56484   317.56484   317.56457    -0.08062     0.08089    -0.08089
  Kinetic  1924.03016  1929.72137  1933.21532    -3.23913    -1.67741    -1.20525
  Fock        0.00000     0.00000     0.00000     0.00000     0.00000     0.00000
  Total      -0.20079    -0.20079    -0.20079    -0.06864     0.06864    -0.06864
  in kB      -1.85158    -1.85158    -1.85158    -0.63296     0.63296    -0.63296

 VOLUME and BASIS-vectors are now :
  energy-cutoff  :      520.00
  volume of cell :      173.74
      direct lattice vectors                 reciprocal lattice vectors
    -3.864538741  0.000000000 -3.864538741    -0.172508729 -0.086254365 -0.086254365
     0.000000000 -3.864538741  3.864538741    -0.086254365 -0.172508729  0.086254365
    -3.877844293  3.877844293  3.877844293    -0.085958411  0.085958411  0.085958411

  length of vectors
     5.465283100  5.465283100  6.716623340     0.211279181  0.211279181  0.148884335

 FORCES acting on ions
    electron-ion (+dipol)            ewald-force                    non-local-force                 convergence-correction
   -.217E+02 0.217E+02 0.217E+02   0.214E+02 -.214E+02 -.214E+02   0.151E+00 -.151E+00 -.151E+00   -.139E-02 0.139E-02 0.139E-02
   0.131E-03 -.131E-03 0.230E-03   -.572E-04 0.572E-04 0.173E-03   0.813E-19 -.271E-19 -.136E-18   -.173E-05 0.173E-05 0.107E-05
   0.217E+02 -.217E+02 -.217E+02   -.214E+02 0.214E+02 0.214E+02   -.151E+00 0.151E+00 0.151E+00   0.138E-02 -.138E-02 -.138E-02
   -.491E-04 0.491E-04 -.239E-04   0.424E-04 -.424E-04 0.110E-03   -.678E-20 0.000E+00 -.678E-20   -.237E-05 0.237E-05 0.194E-05
   -.237E+02 0.237E+02 0.237E+02   0.231E+02 -.231E+02 -.231E+02   0.604E+00 -.604E+00 -.604E+00   0.335E-02 -.335E-02 -.335E-02
   0.237E+02 -.237E+02 -.237E+02   -.231E+02 0.231E+02 0.231E+02   -.604E+00 0.604E+00 0.604E+00   -.334E-02 0.334E-02 0.334E-02
   0.198E-03 -.152E-03 0.332E-03   -.436E-04 0.845E-04 -.283E-04   0.542E-19 0.108E-18 0.000E+00   0.195E-05 -.254E-05 -.186E-05
   0.390E+02 -.775E+01 -.775E+01   -.343E+02 0.781E+01 0.781E+01   -.469E+01 -.605E-01 -.605E-01   0.275E-01 0.334E-03 0.333E-03
   -.390E+02 0.775E+01 0.775E+01   0.343E+02 -.781E+01 -.781E+01   0.469E+01 0.605E-01 0.605E-01   -.275E-01 -.331E-03 -.331E-03
   -.775E+01 0.390E+02 0.775E+01   0.781E+01 -.343E+02 -.781E+01   -.605E-01 -.469E+01 0.605E-01   0.331E-03 0.275E-01 -.331E-03
   0.152E-03 -.198E-03 0.332E-03   -.845E-04 0.436E-04 -.283E-04   0.813E-19 0.813E-19 0.108E-18   0.254E-05 -.195E-05 -.186E-05
   0.775E+01 -.390E+02 -.775E+01   -.781E+01 0.343E+02 0.781E+01   0.605E-01 0.469E+01 -.605E-01   -.334E-03 -.275E-01 0.333E-03
   -.775E+01 0.775E+01 0.390E+02   0.781E+01 -.781E+01 -.343E+02   -.605E-01 0.605E-01 -.469E+01   0.331E-03 -.331E-03 0.275E-01
   0.174E-03 -.174E-03 0.455E-04   -.433E-04 0.433E-04 0.340E-03   0.542E-19 0.163E-18 0.136E-18   0.216E-05 -.216E-05 -.196E-05
   0.775E+01 -.775E+01 -.390E+02   -.781E+01 0.781E+01 0.343E+02   0.605E-01 -.605E-01 0.469E+01   -.333E-03 0.333E-03 -.275E-01
   0.139E-02 -.139E-02 -.181E-02   0.151E-13 0.178E-14 0.711E-14   -.944E-15 0.178E-14 -.888E-15   -.102E-04 0.102E-04 0.104E-04

 POSITION                                       TOTAL-FORCE (eV/Angst)
     -0.01577      0.01577      0.01577        -0.089597      0.089597      0.089597
     -3.86897      0.00444      0.00443        -0.000000      0.000000      0.000000
     -3.85763     -0.00690      3.85763         0.089597     -0.089597     -0.089597
     -5.80790      1.94336      1.94336        -0.000000      0.000000      0.000000
     -1.93745     -1.92709      1.93745         0.094290     -0.094290     -0.094290
     -1.93596      1.93596      1.93596        -0.094290      0.094290      0.094290
     -3.86897     -1.92783      1.93670         0.000000      0.000000      0.000000
     -3.90675      1.94310      1.94310         0.056264      0.000695      0.000695
     -7.70904      1.94361      1.94361        -0.056264     -0.000695     -0.000695
     -5.80815      3.84450      1.94361         0.000695      0.056264     -0.000695
     -1.93670      0.00444      1.93670         0.000000      0.000000      0.000000
     -5.80764      0.04221      1.94310        -0.000695     -0.056264      0.000695
     -5.80815      1.94361      3.84450         0.000695     -0.000695      0.056264
     -1.93670     -1.92783      3.86897         0.000000      0.000000      0.000000
     -5.80764      1.94310      0.04221        -0.000695      0.000695     -0.056264
    total drift:                                0.001377     -0.001377     -0.001796

  FREE ENERGIE OF THE ION-ELECTRON SYSTEM (eV)
  free  energy   TOTEN  =      -106.99838310 eV

  energy  without entropy=     -106.99838310  energy(sigma->0) =     -106.99838310

 total charge

[...]

 magnetization (x)

# of ion       s       p       d       f       tot
    1        0.001   0.001   0.008   0.004   0.013
    2        0.000   0.000   0.007   0.003   0.010
    3        0.000   0.001   0.008   0.004   0.012
    4        0.025   0.036   3.191   0.000   3.251
    5        0.015   0.001   1.530   0.000   1.546
    6        0.015   0.001   1.530   0.000   1.545
    7        0.007  -0.023   0.000   0.000  -0.015
    8        0.006  -0.018   0.000   0.000  -0.013
    9        0.006  -0.018   0.000   0.000  -0.013
   10        0.004  -0.024   0.000   0.000  -0.020
   11        0.006  -0.124   0.000   0.000  -0.117
   12        0.004  -0.024   0.000   0.000  -0.020
   13        0.004  -0.032   0.000   0.000  -0.028
   14        0.005  -0.149   0.000   0.000  -0.144
   15        0.004  -0.032   0.000   0.000  -0.028
tot          0.100  -0.404   6.273   0.010   5.979

 BZINTS: Fermi energy:  7.602161;114.000000 electrons
         Band energy:-145.875417;  BLOECHL correction: -0.017241