 vasp.5.4.4.18Apr17-6-g9f103f2a35 (build Oct 03 2018 13:58:34) complex

 executed on             LinuxIFC date 2019.06.04  00:27:01

 INCAR:
 POTCAR:    PAW_PBE La 06Sep2000
 POTCAR:    PAW_PBE Mn 06Sep2000
 POTCAR:    PAW_PBE Ni 02Aug2007
 POTCAR:    PAW_PBE O 08Apr2002

 POTCAR:    PAW_PBE La 06Sep2000
   VRHFIN =La : [core=Kr4d]

   TITEL  = PAW_PBE La 06Sep2000
   POMASS =  138.900; ZVAL   =   11.000    mass and valenz
   ENMAX  =  219.292; ENMIN  =  164.469 eV

 POTCAR:    PAW_PBE Mn 06Sep2000
   VRHFIN =Mn: d6 s1

   TITEL  = PAW_PBE Mn 06Sep2000
   POMASS =   54.938; ZVAL   =    7.000    mass and valenz
   ENMAX  =  269.864; ENMIN  =  202.398 eV

 POTCAR:    PAW_PBE Ni 02Aug2007
   VRHFIN =Ni:

   TITEL  = PAW_PBE Ni 02Aug2007
   POMASS =   58.690; ZVAL   =   10.000    mass and valenz
   ENMAX  =  269.532; ENMIN  =  202.149 eV

 POTCAR:    PAW_PBE O 08Apr2002
   VRHFIN =O: s2p4

   TITEL  = PAW_PBE O 08Apr2002
   POMASS =   16.000; ZVAL   =    6.000    mass and valenz
   ENMAX  =  400.000; ENMIN  =  300.000 eV

 Optimization of the real space projectors (new method)

 maximal supplied QI-value         = 13.42
 optimisation between [QCUT,QGAM] = [ 11.67, 23.35] = [ 38.16,152.62] Ry
 Optimized for a Real-space Cutoff    1.63 Angstroem

   l    n(q)    QCUT    max X(q) W(low)/X(q) W(high)/X(q)  e(spline)
   0     11    11.673    13.882    0.27E-04    0.79E-05    0.11E-06
   0     11    11.673    12.184    0.39E-04    0.13E-04    0.19E-06
   1     11    11.673     4.523    0.73E-05    0.76E-05    0.12E-06
   1     11    11.673     4.424    0.87E-05    0.13E-04    0.19E-06
   2     10    11.673    52.481    0.65E-04    0.36E-04    0.18E-06
   2     10    11.673    38.501    0.61E-04    0.33E-04    0.17E-06
   3     10    11.673    65.631    0.17E-03    0.14E-03    0.37E-06
   3     10    11.673    56.854    0.17E-03    0.14E-03    0.37E-06
 Optimization of the real space projectors (new method)

[...]

   l    n(q)    QCUT    max X(q) W(low)/X(q) W(high)/X(q)  e(spline)
   2      9    11.539    60.317    0.19E-03    0.47E-04    0.16E-06
   2      9    11.539    55.921    0.19E-03    0.48E-04    0.16E-06
   0     10    11.539    51.690    0.80E-04    0.50E-04    0.24E-06
   0     10    11.539    30.015    0.73E-04    0.45E-04    0.22E-06
   1     10    11.539    18.849    0.87E-04    0.16E-03    0.71E-07
   1     10    11.539    14.624    0.73E-04    0.13E-03    0.64E-07
 Optimization of the real space projectors (new method)

 maximal supplied QI-value         = 24.76
 optimisation between [QCUT,QGAM] = [ 11.64, 23.27] = [ 37.91,151.63] Ry
 Optimized for a Real-space Cutoff    1.14 Angstroem

   l    n(q)    QCUT    max X(q) W(low)/X(q) W(high)/X(q)  e(spline)
   0      8    11.635    20.381    0.10E-03    0.33E-03    0.24E-06
   0      8    11.635    15.268    0.11E-03    0.35E-03    0.26E-06
   1      7    11.635     5.964    0.24E-03    0.31E-03    0.30E-06
   1      7    11.635     5.382    0.22E-03    0.25E-03    0.26E-06
  PAW_PBE La 06Sep2000                  :
  PAW_PBE Mn 06Sep2000                  :
  PAW_PBE Ni 02Aug2007                  :
  PAW_PBE O 08Apr2002                   :

 POSCAR: SCEL2_2_1_1_0_1_1/0
  positions in direct lattice
  velocities in cartesian coordinates
 exchange correlation table for  LEXCH =        8
   RHO(1)=    0.500       N(1)  =     2000
   RHO(2)=  100.500       N(2)  =     4000

 ion  position               nearest neighbor table
   1  0.000  0.000  0.000-   5 2.74   8 2.74  10 2.74   6 2.74   7 2.74  10 2.74   6 2.74   8 2.74
                             9 2.74   5 2.74   7 2.74   9 2.74   3 3.36   4 3.36   3 3.36   3 3.36
   2  0.500  0.500  0.500-   6 2.74   8 2.74  10 2.74   5 2.74   7 2.74  10 2.74   5 2.74   8 2.74
                             9 2.74   6 2.74   7 2.74   9 2.74   3 3.36   4 3.36   4 3.36   3 3.36
   3  0.750  0.750  0.750-   5 1.90   6 1.90   7 1.90   8 1.90   9 1.90  10 1.90   2 3.36   2 3.36
                             1 3.36   2 3.36   2 3.36   1 3.36   1 3.36   1 3.36
   4  0.250  0.250  0.250-   5 1.98   6 1.98   7 1.98   8 1.98   9 1.98  10 1.98   1 3.36   1 3.36
                             1 3.36   2 3.36   1 3.36   2 3.36   2 3.36   2 3.36
   5  0.505  0.995  0.995-   3 1.90   4 1.98   1 2.74   2 2.74   2 2.74   1 2.74
   6  0.995  0.505  0.505-   3 1.90   4 1.98   2 2.74   2 2.74   1 2.74   1 2.74
   7  0.995  0.505  0.995-   3 1.90   4 1.98   1 2.74   2 2.74   2 2.74   1 2.74
   8  0.505  0.995  0.505-   3 1.90   4 1.98   2 2.74   2 2.74   1 2.74   1 2.74
   9  0.995  0.995  0.505-   3 1.90   4 1.98   1 2.74   2 2.74   2 2.74   1 2.74
  10  0.505  0.505  0.995-   3 1.90   4 1.98   2 2.74   2 2.74   1 2.74   1 2.74

  LATTYP: Found a face centered cubic cell.
 ALAT       =     7.7604949208

  Lattice vectors:

 A1 = (   0.0000000000,   3.8802474604,   3.8802474604)
 A2 = (   3.8802474604,   0.0000000000,   3.8802474604)
 A3 = (   3.8802474604,   3.8802474604,   0.0000000000)

Analysis of symmetry for initial positions (statically):
 Subroutine PRICEL returns:
 Original cell was already a primitive cell.

 Routine SETGRP: Setting up the symmetry group for a
 face centered cubic supercell.

 Subroutine GETGRP returns: Found 48 space group operations
 (whereof 24 operations were pure point group operations)
 out of a pool of 48 trial point group operations.

The static configuration has the point symmetry T_d .
 The point group associated with its full space group is O_h .

Analysis of symmetry for dynamics (positions and initial velocities):
 Subroutine PRICEL returns:
 Original cell was already a primitive cell.

[...]

The dynamic configuration has the point symmetry T_d .
 The point group associated with its full space group is O_h .

Analysis of structural, dynamic, and magnetic symmetry:
 Subroutine PRICEL returns:
 Original cell was already a primitive cell.

 Routine SETGRP: Setting up the symmetry group for a
 face centered cubic supercell.

 Subroutine GETGRP returns: Found 48 space group operations
 (whereof 24 operations were pure point group operations)
 out of a pool of 48 trial point group operations.

The magnetic configuration has the point symmetry T_d .
 The point group associated with its full space group is O_h .

 Subroutine INISYM returns: Found 48 space group operations
 (whereof 24 operations are pure point group operations),
 and found     1 'primitive' translations

 KPOINTS: Automatic mesh

Automatic generation of k-mesh.
 generate k-points for:    4    4    4
Space group operators:
 irot       det(A)        alpha          n_x          n_y          n_z        tau_x        tau_y        tau_z
    1     1.000000     0.000001     1.000000     0.000000     0.000000     0.000000     0.000000     0.000000
    2     1.000000   120.000000    -0.577350    -0.577350    -0.577350     0.000000     0.000000     0.000000
    3     1.000000   120.000000     0.577350     0.577350     0.577350     0.000000     0.000000     0.000000
    4    -1.000000    90.000000     0.000000     0.000000    -1.000000     0.000000     0.000000     0.000000
    5    -1.000000   180.000000     0.000000     0.707107     0.707107     0.000000     0.000000     0.000000
    6    -1.000000    90.000000     0.000000     1.000000     0.000000     0.000000     0.000000     0.000000
    7     1.000000   180.000000     0.000000     0.000000     1.000000     0.000000     0.000000     0.000000
    8     1.000000   120.000000    -0.577350     0.577350     0.577350     0.000000     0.000000     0.000000
    9     1.000000   120.000000    -0.577350     0.577350    -0.577350     0.000000     0.000000     0.000000
   10    -1.000000    90.000000     0.000000     0.000000     1.000000     0.000000     0.000000     0.000000
   11    -1.000000    90.000000    -1.000000     0.000000     0.000000     0.000000     0.000000     0.000000
   12    -1.000000   180.000000     0.707107     0.000000     0.707107     0.000000     0.000000     0.000000
   13     1.000000   120.000000     0.577350    -0.577350     0.577350     0.000000     0.000000     0.000000
   14     1.000000   120.000000    -0.577350    -0.577350     0.577350     0.000000     0.000000     0.000000
   15     1.000000   180.000000     1.000000     0.000000     0.000000     0.000000     0.000000     0.000000
   16    -1.000000    90.000000     0.000000    -1.000000     0.000000     0.000000     0.000000     0.000000
   17    -1.000000   180.000000     0.707107     0.707107     0.000000     0.000000     0.000000     0.000000
   18    -1.000000    90.000000     1.000000     0.000000     0.000000     0.000000     0.000000     0.000000
   19     1.000000   120.000000     0.577350    -0.577350    -0.577350     0.000000     0.000000     0.000000
   20     1.000000   180.000000     0.000000     1.000000     0.000000     0.000000     0.000000     0.000000
   21     1.000000   120.000000     0.577350     0.577350    -0.577350     0.000000     0.000000     0.000000
   22    -1.000000   180.000000     0.000000    -0.707107     0.707107     0.000000     0.000000     0.000000
   23    -1.000000   180.000000     0.707107    -0.707107     0.000000     0.000000     0.000000     0.000000
   24    -1.000000   180.000000     0.707107     0.000000    -0.707107     0.000000     0.000000     0.000000
   25    -1.000000     0.000001     1.000000     0.000000     0.000000     0.500000     0.500000     0.500000
   26    -1.000000   120.000000    -0.577350    -0.577350    -0.577350     0.500000     0.500000     0.500000
   27    -1.000000   120.000000     0.577350     0.577350     0.577350     0.500000     0.500000     0.500000
   28     1.000000    90.000000     0.000000     0.000000    -1.000000     0.500000     0.500000     0.500000
   29     1.000000   180.000000     0.000000     0.707107     0.707107     0.500000     0.500000     0.500000
   30     1.000000    90.000000     0.000000     1.000000     0.000000     0.500000     0.500000     0.500000
   31    -1.000000   180.000000     0.000000     0.000000     1.000000     0.500000     0.500000     0.500000
   32    -1.000000   120.000000    -0.577350     0.577350     0.577350     0.500000     0.500000     0.500000
   33    -1.000000   120.000000    -0.577350     0.577350    -0.577350     0.500000     0.500000     0.500000
   34     1.000000    90.000000     0.000000     0.000000     1.000000     0.500000     0.500000     0.500000
   35     1.000000    90.000000    -1.000000     0.000000     0.000000     0.500000     0.500000     0.500000
   36     1.000000   180.000000     0.707107     0.000000     0.707107     0.500000     0.500000     0.500000
   37    -1.000000   120.000000     0.577350    -0.577350     0.577350     0.500000     0.500000     0.500000
   38    -1.000000   120.000000    -0.577350    -0.577350     0.577350     0.500000     0.500000     0.500000
   39    -1.000000   180.000000     1.000000     0.000000     0.000000     0.500000     0.500000     0.500000
   40     1.000000    90.000000     0.000000    -1.000000     0.000000     0.500000     0.500000     0.500000
   41     1.000000   180.000000     0.707107     0.707107     0.000000     0.500000     0.500000     0.500000
[...]
   5.82037119  5.82037119  5.82037119
   1.94012373  1.94012373  1.94012373
   7.72062629  5.82037119  5.82037119
   3.92011609  5.82037119  5.82037119
   5.82037119  7.72062629  5.82037119
   5.82037119  3.92011609  5.82037119
   5.82037119  5.82037119  7.72062629
   5.82037119  5.82037119  3.92011609

 k-point  1 :   0.0000 0.0000 0.0000  plane waves:    3143
 k-point  2 :   0.2500 0.0000 0.0000  plane waves:    3149
 k-point  3 :   0.5000 0.0000 0.0000  plane waves:    3142
 k-point  4 :   0.2500 0.2500 0.0000  plane waves:    3122
 k-point  5 :   0.5000 0.2500 0.0000  plane waves:    3150
 k-point  6 :  -0.2500 0.2500 0.0000  plane waves:    3134
 k-point  7 :   0.5000 0.5000 0.0000  plane waves:    3138
 k-point  8 :  -0.2500 0.5000 0.2500  plane waves:    3156

 maximum and minimum number of plane-waves per node :       324      300

 maximum number of plane-waves:      3156
 maximum index in each direction:
   IXMAX=   10   IYMAX=   10   IZMAX=   10
   IXMIN=  -10   IYMIN=  -10   IZMIN=  -10

 real space projection operators:
  max/ min on nodes  :       1157.48        853.00

 parallel 3D FFT for wavefunctions:
    minimum data exchange during FFTs selected (reduces bandwidth)
 parallel 3D FFT for charge:
    minimum data exchange during FFTs selected (reduces bandwidth)

 Broyden mixing: mesh for mixing (old mesh)
   NGX = 21   NGY = 21   NGZ = 21
  (NGX  = 84   NGY  = 84   NGZ  = 84)
  gives a total of   9261 points

 initial charge density was supplied:
 charge density of overlapping atoms calculated
 number of electron      75.0000000 magnetization       7.0000000
 keeping initial charge density in first step

 Maximum index for non-local projection operator         1613
 Maximum index for augmentation-charges         2365 (set IRDMAX)

 First call to EWALD:  gamma=   0.363
 Maximum number of real-space cells 3x 3x 3
 Maximum number of reciprocal cells 3x 3x 3

--------------------------------------- Iteration      1(   1)  ---------------------------------------

atom =   1  type =  1  l = 0

 onsite density matrix

spin component  1

  1.0989

[...]

 occupancies and eigenvectors

  o =  1.0989  v =  1.0000  0.0000      0.0000  0.0000
  o =  1.0989  v =  0.0000  1.0000      0.0000  0.0000
atom =   2  type =  1  l = 0

[...]

  o =  0.8190  v =  1.0000  0.0000      0.0000  0.0000
  o =  0.8190  v =  0.0000  1.0000      0.0000  0.0000
 BZINTS: Fermi energy: 23.751082; 75.000000 electrons
         Band energy: 904.201637;  BLOECHL correction: -0.381836

 eigenvalue-minimisations  :  1672
 total energy-change (2. order) : 0.9670031E+03  (-0.2940118E+04)
 number of electron      75.0000000 magnetization       7.0000000
 augmentation part       75.0000000 magnetization       7.0000000

 Free energy of the ion-electron system (eV)
  alpha Z        PSCENC =       328.38622273
  Ewald energy   TEWEN  =     -5183.95502466
  -Hartree energ DENC   =     -1123.59503581
  -exchange      EXHF   =         0.00000000
  -V(xc)+E(xc)   XCENC  =       251.40706046
  PAW double counting   =      4733.87840878    -4763.84139751
  entropy T*S    EENTRO =         0.00000000
  eigenvalues    EBANDS =       904.20163743
  atomic energy  EATOM  =      5820.52127124
  Solvation  Ediel_sol  =         0.00000000
  free energy    TOTEN  =       967.00314265 eV

  energy without entropy =      967.00314265  energy(sigma->0) =      967.00314265

[...]

 BZINTS: Fermi energy: 13.856549; 75.000000 electrons
         Band energy: 170.004501;  BLOECHL correction: -0.136741

 eigenvalue-minimisations  :  1736
 total energy-change (2. order) :-0.7341971E+03  (-0.6646554E+03)
 number of electron      75.0000000 magnetization       7.0000000
 augmentation part       75.0000000 magnetization       7.0000000

[...]

 BZINTS: Fermi energy: 11.674337; 75.000000 electrons
         Band energy: -87.900406;  BLOECHL correction: -0.007670

[...]

 BZINTS: Fermi energy: 11.057396; 75.000000 electrons
         Band energy:-144.585110;  BLOECHL correction: -0.013581

[...]

 Broyden mixing:
  rms(total) = 0.39391E+01    rms(broyden)= 0.39389E+01
  rms(prec ) = 0.67374E+01
  weight for this iteration     100.00

[...]

  o =  0.8142  v =  0.0000  1.0000      0.0000  0.0000
  o =  0.8153  v =  1.0000  0.0000      0.0000  0.0000
 BZINTS: Fermi energy:  7.225717; 75.000000 electrons
         Band energy:-132.512707;  BLOECHL correction: -0.000268

[...]

 eigenvalues of (default mixing * dielectric matrix)
  average eigenvalue GAMMA=   0.0702
  0.0702

[...]

 eigenvalue-minimisations  :  2379
 total energy-change (2. order) : 0.4810760E+01  (-0.2695498E+01)
 number of electron      75.0000020 magnetization       5.0133616
 augmentation part       10.2440146 magnetization       3.5363922

[...]

 Broyden mixing:
  rms(total) = 0.12818E-01    rms(broyden)= 0.12816E-01
  rms(prec ) = 0.16255E-01
  weight for this iteration     100.00

 eigenvalues of (default mixing * dielectric matrix)
  average eigenvalue GAMMA=   1.1577
  3.0212  2.4000  1.3056  0.9547  0.7740  0.7740  0.6009  0.6009  0.5728  0.5728

[...]

--------------------------------------- Iteration      1(  16)  ---------------------------------------

atom =   1  type =  1  l = 0

[...]

  o =  0.7857  v =  0.0000  1.0000      0.0000  0.0000
  o =  0.7900  v =  1.0000  0.0000      0.0000  0.0000
atom =  10  type =  4  l = 0

 onsite density matrix

[...]

  0.7857

 occupancies and eigenvectors

  o =  0.7857  v =  0.0000  1.0000      0.0000  0.0000
  o =  0.7900  v =  1.0000  0.0000      0.0000  0.0000
 BZINTS: Fermi energy:  7.244276; 75.000000 electrons
         Band energy:-109.023690;  BLOECHL correction:  0.000000

 eigenvalue-minimisations  :  1618
 total energy-change (2. order) :-0.8605960E-03  (-0.9094420E-03)
 number of electron      75.0000019 magnetization       5.0000075
 augmentation part        9.6903930 magnetization       3.7393361

 Free energy of the ion-electron system (eV)
  alpha Z        PSCENC =       328.38622273
  Ewald energy   TEWEN  =     -5183.95502466
  -Hartree energ DENC   =     -1145.96401998
  -exchange      EXHF   =         0.00000000
  -V(xc)+E(xc)   XCENC  =       255.60411364
  PAW double counting   =      6208.30366660    -6247.67669945
  entropy T*S    EENTRO =         0.00000000
  eigenvalues    EBANDS =      -109.02368983
  atomic energy  EATOM  =      5820.52127124
  Solvation  Ediel_sol  =         0.00000000
  free energy    TOTEN  =       -73.80415971 eV

  energy without entropy =      -73.80415971  energy(sigma->0) =      -73.80415971

 average (electrostatic) potential at core
  the test charge radii are     1.1480  1.0210  0.9791  0.7215
  (the norm of the test charge is              1.0000)
       1 -95.4389       2 -95.4389       3 -43.2678       4 -83.6629       5 -66.8367
       6 -66.8367       7 -66.8367       8 -66.8367       9 -66.8367      10 -66.8367

 E-fermi :   7.2443     XC(G=0): -11.7362     alpha+bet :-16.5479

[...]

 k-point     1 :       0.0000    0.0000    0.0000
  band No.  band energies     occupation
      1     -23.9479      1.00000
      2     -23.7806      1.00000
      3     -10.8453      1.00000
      4      -9.6766      1.00000
      5      -9.6766      1.00000
      6      -9.6766      1.00000
      7      -9.5887      1.00000
      8      -9.5887      1.00000
      9      -7.9645      1.00000
     10      -7.9645      1.00000
     11      -7.9645      1.00000
     12      -7.4531      1.00000
     13      -7.4531      1.00000
     14      -7.4531      1.00000
     15       0.4254      1.00000
     16       0.4254      1.00000
     17       0.8242      1.00000
     18       1.7522      1.00000
     19       1.7522      1.00000
     20       1.7522      1.00000
     21       2.7470      1.00000
     22       2.7470      1.00000
     23       2.7470      1.00000
     24       3.3390      1.00000
     25       3.3390      1.00000
     26       3.3390      1.00000
     27       4.2071      1.00000
     28       4.2071      1.00000
     29       5.3841      1.00000
     30       5.3841      1.00000
     31       5.3841      1.00000
     32       6.1336      1.00000
     33       6.1336      1.00000
     34       6.1336      1.00000
     35       6.5901      1.00000
     36       6.5901      1.00000
     37       6.5902      1.00000
     38       6.6676      1.00000
     39       6.6676      1.00000
     40       6.6677      1.00000
     41      10.1895      0.00000
     42      10.1902      0.00000
     43      10.4607      0.00000
     44      10.8997      0.00000
     45      10.9116      0.00000
     46      10.9283      0.00000
     47      11.0481      0.00000
     48      11.1476      0.00000
     49      11.2402      0.00000
     50      11.3119      0.00000

[...]

 spin component 2

[...]

 k-point     8 :      -0.2500    0.5000    0.2500
  band No.  band energies     occupation
      1     -23.8500      1.00000
      2     -23.8500      1.00000
      3     -10.9819      1.00000
      4     -10.8214      1.00000
      5      -9.9717      1.00000
      6      -9.9717      1.00000
      7      -9.4852      1.00000
      8      -9.4414      1.00000
      9      -7.2765      1.00000
     10      -7.2729      1.00000
     11      -7.1252      1.00000
     12      -7.1252      1.00000
     13      -6.8018      1.00000
     14      -6.7701      1.00000
     15       1.8955      1.00000
     16       2.4416      1.00000
     17       2.4417      1.00000
     18       2.5328      1.00000
     19       3.0146      1.00000
     20       3.2135      1.00000
     21       3.2135      1.00000
     22       3.3119      1.00000
     23       3.7061      1.00000
     24       4.0935      1.00000
     25       4.4623      1.00000
     26       4.4624      1.00000
     27       4.9556      1.00000
     28       4.9557      1.00000
     29       5.3951      1.00000
     30       5.5145      1.00000
     31       5.6600      1.00000
     32       5.6602      1.00000
     33       6.1963      1.00000
     34       6.3359      1.00000
     35       6.3359      1.00000
     36      10.4136      0.00000
     37      10.4286      0.00000
     38      10.5667      0.00000
     39      10.7452      0.00000
     40      10.7557      0.00000
     41      10.8379      0.00000
     42      10.9326      0.00000
     43      10.9712      0.00000
     44      11.0232      0.00000
     45      11.0710      0.00000
     46      11.0913      0.00000
     47      11.1153      0.00000
     48      11.1446      0.00000
     49      11.1518      0.00000
     50      11.1577      0.00000

 soft charge-density along one line, spin component           1
         0         1         2         3         4         5         6         7         8         9
 total charge-density along one line

 soft charge-density along one line, spin component           2
         0         1         2         3         4         5         6         7         8         9
 total charge-density along one line

------------------------ aborting loop because EDIFF is reached ----------------------------------------

 total charge

# of ion       s       p       d       f       tot
    1        1.999   5.699   0.487   0.190   8.375
    2        1.998   5.699   0.487   0.190   8.375
    3        0.363   0.590   4.855   0.000   5.808
    4        0.378   0.543   8.320   0.000   9.241
    5        1.560   3.439   0.000   0.000   4.999
    6        1.560   3.439   0.000   0.000   4.999
    7        1.560   3.423   0.000   0.000   4.984
    8        1.560   3.423   0.000   0.000   4.984
    9        1.560   3.520   0.000   0.000   5.080
   10        1.560   3.520   0.000   0.000   5.080
tot         14.099  33.294  14.150   0.380  61.924

 magnetization (x)

[...]

  FORCE on cell =-STRESS in cart. coord.  units (eV):
  Direction    XX          YY          ZZ          XY          YZ          ZX
  Alpha Z   328.38622   328.38622   328.38622
  Ewald   -1727.98787 -1727.98787 -1727.98787     0.00000     0.00000    -0.00000
  Hartree   381.93516   381.93516   381.93516     0.00000     0.00000     0.00000
  E(xc)    -348.71229  -348.71229  -348.71229     0.00000     0.00000     0.00000
  Local    -218.23612  -218.23612  -218.23612     0.00019     0.00019     0.00019
  n-local   138.16287   137.99205   139.37420     0.75362    -0.54112     0.54299
  augment   163.74972   163.74972   163.74972    -0.00017    -0.00017    -0.00017
  Kinetic  1285.68475  1287.00104  1273.76262     6.36648    -3.52473     3.52878
  Fock        0.00000     0.00000     0.00000     0.00000     0.00000     0.00000
  Total      -0.20600    -0.20600    -0.20600     0.00000     0.00000     0.00000
  in kB      -2.82470    -2.82470    -2.82470     0.00000     0.00000     0.00000

 VOLUME and BASIS-vectors are now :
  energy-cutoff  :      520.00
  volume of cell :      116.84
      direct lattice vectors                 reciprocal lattice vectors
     0.000000000  3.880247460  3.880247460    -0.128857761  0.128857761  0.128857761
     3.880247460  0.000000000  3.880247460     0.128857761 -0.128857761  0.128857761
     3.880247460  3.880247460  0.000000000     0.128857761  0.128857761 -0.128857761

  length of vectors
     5.487498584  5.487498584  5.487498584     0.223188189  0.223188189  0.223188189

 FORCES acting on ions
    electron-ion (+dipol)            ewald-force                    non-local-force                 convergence-correction
   -.631E-08 -.631E-08 -.865E-07   -.146E-13 -.117E-13 -.235E-13   -.260E-17 -.347E-17 -.281E-17   -.117E-06 -.117E-06 -.117E-06
   0.631E-08 0.631E-08 0.865E-07   0.384E-14 0.816E-14 0.180E-13   0.260E-17 0.217E-17 0.422E-17   0.117E-06 0.117E-06 0.117E-06
   -.111E-11 -.133E-11 -.866E-12   0.286E-13 0.283E-13 0.853E-13   -.169E-20 0.339E-20 -.169E-20   0.917E-14 0.379E-14 -.235E-13
   -.506E-12 -.985E-12 0.540E-12   -.572E-13 0.114E-12 0.199E-12   0.233E-20 -.212E-21 -.169E-20   0.440E-13 0.130E-13 -.109E-13
   0.264E+02 -.162E-05 -.164E-05   -.214E+02 -.228E-14 -.888E-15   -.505E+01 0.694E-17 0.694E-17   0.638E-01 -.229E-06 -.229E-06
   -.264E+02 0.162E-05 0.164E-05   0.214E+02 0.872E-14 0.000E+00   0.505E+01 0.000E+00 0.694E-17   -.638E-01 0.229E-06 0.229E-06
   -.162E-05 0.264E+02 -.164E-05   0.332E-14 -.214E+02 0.178E-14   -.208E-16 -.505E+01 0.278E-16   -.229E-06 0.638E-01 -.229E-06
   0.162E-05 -.264E+02 0.164E-05   0.182E-14 0.214E+02 -.444E-14   0.208E-16 0.505E+01 -.278E-16   0.229E-06 -.638E-01 0.229E-06
   -.161E-05 -.161E-05 0.264E+02   -.207E-14 0.581E-14 -.214E+02   0.000E+00 -.139E-16 -.505E+01   -.229E-06 -.229E-06 0.638E-01
   0.161E-05 0.161E-05 -.264E+02   0.660E-14 -.130E-13 0.214E+02   0.000E+00 -.694E-17 0.505E+01   0.229E-06 0.229E-06 -.638E-01
   -.155E-10 -.155E-10 0.490E-11   -.100E-14 -.367E-14 -.107E-13   0.178E-14 0.353E-14 0.266E-14   0.650E-13 0.144E-13 -.673E-14

 POSITION                                       TOTAL-FORCE (eV/Angst)
      0.00000      0.00000      0.00000        -0.000000     -0.000000     -0.000000
      3.88025      3.88025      3.88025        -0.000000     -0.000000     -0.000000
      5.82037      5.82037      5.82037        -0.000000     -0.000000     -0.000000
      1.94012      1.94012      1.94012        -0.000000     -0.000000     -0.000000
      7.72063      5.82037      5.82037         0.034677     -0.000000     -0.000000
      3.92012      5.82037      5.82037        -0.034677     -0.000000     -0.000000
      5.82037      7.72063      5.82037        -0.000000      0.034677     -0.000000
      5.82037      3.92012      5.82037        -0.000000     -0.034677     -0.000000
      5.82037      5.82037      7.72063        -0.000000     -0.000000      0.034677
      5.82037      5.82037      3.92012        -0.000000     -0.000000     -0.034677
    total drift:                               -0.000000     -0.000000      0.000000

  FREE ENERGIE OF THE ION-ELECTRON SYSTEM (eV)
  free  energy   TOTEN  =       -73.80415971 eV

  energy  without entropy=      -73.80415971  energy(sigma->0) =      -73.80415971

 total charge

[...]

 magnetization (x)

# of ion       s       p       d       f       tot
    1        0.000   0.001   0.008   0.003   0.012
    2        0.000   0.001   0.008   0.003   0.012
    3        0.025   0.039   3.140   0.000   3.204
    4        0.001  -0.007   1.703   0.000   1.697
    5        0.004  -0.005   0.000   0.000  -0.001
    6        0.004  -0.005   0.000   0.000  -0.001
    7        0.003  -0.007   0.000   0.000  -0.003
    8        0.003  -0.007   0.000   0.000  -0.004
    9        0.006   0.001   0.000   0.000   0.007
   10        0.006   0.001   0.000   0.000   0.007
tot          0.052   0.014   4.858   0.005   4.930

 BZINTS: Fermi energy:  7.244276; 75.000000 electrons
         Band energy:-109.023690;  BLOECHL correction:  0.000000