 vasp.5.4.4.18Apr17-6-g9f103f2a35 (build Oct 03 2018 13:58:34) complex

 executed on             LinuxIFC date 2019.06.04  01:27:28

 INCAR:
 POTCAR:    PAW_PBE La 06Sep2000
 POTCAR:    PAW_PBE Mn 06Sep2000
 POTCAR:    PAW_PBE Ni 02Aug2007
 POTCAR:    PAW_PBE O 08Apr2002

 POTCAR:    PAW_PBE La 06Sep2000
   VRHFIN =La : [core=Kr4d]

   TITEL  = PAW_PBE La 06Sep2000
   POMASS =  138.900; ZVAL   =   11.000    mass and valenz
   ENMAX  =  219.292; ENMIN  =  164.469 eV

 POTCAR:    PAW_PBE Mn 06Sep2000
   VRHFIN =Mn: d6 s1

   TITEL  = PAW_PBE Mn 06Sep2000
   POMASS =   54.938; ZVAL   =    7.000    mass and valenz
   ENMAX  =  269.864; ENMIN  =  202.398 eV

 POTCAR:    PAW_PBE Ni 02Aug2007
   VRHFIN =Ni:

   TITEL  = PAW_PBE Ni 02Aug2007
   POMASS =   58.690; ZVAL   =   10.000    mass and valenz
   ENMAX  =  269.532; ENMIN  =  202.149 eV

 POTCAR:    PAW_PBE O 08Apr2002
   VRHFIN =O: s2p4

   TITEL  = PAW_PBE O 08Apr2002
   POMASS =   16.000; ZVAL   =    6.000    mass and valenz
   ENMAX  =  400.000; ENMIN  =  300.000 eV

 Optimization of the real space projectors (new method)

 maximal supplied QI-value         = 13.42
 optimisation between [QCUT,QGAM] = [ 11.67, 23.35] = [ 38.16,152.62] Ry
 Optimized for a Real-space Cutoff    1.63 Angstroem

   l    n(q)    QCUT    max X(q) W(low)/X(q) W(high)/X(q)  e(spline)
   0     11    11.673    13.882    0.27E-04    0.79E-05    0.11E-06
   0     11    11.673    12.184    0.39E-04    0.13E-04    0.19E-06
   1     11    11.673     4.523    0.73E-05    0.76E-05    0.12E-06
   1     11    11.673     4.424    0.87E-05    0.13E-04    0.19E-06
   2     10    11.673    52.481    0.65E-04    0.36E-04    0.18E-06
   2     10    11.673    38.501    0.61E-04    0.33E-04    0.17E-06
   3     10    11.673    65.631    0.17E-03    0.14E-03    0.37E-06
   3     10    11.673    56.854    0.17E-03    0.14E-03    0.37E-06
 Optimization of the real space projectors (new method)

[...]

   l    n(q)    QCUT    max X(q) W(low)/X(q) W(high)/X(q)  e(spline)
   2      9    11.539    60.317    0.19E-03    0.47E-04    0.16E-06
   2      9    11.539    55.921    0.19E-03    0.48E-04    0.16E-06
   0     10    11.539    51.690    0.80E-04    0.50E-04    0.24E-06
   0     10    11.539    30.015    0.73E-04    0.45E-04    0.22E-06
   1     10    11.539    18.849    0.87E-04    0.16E-03    0.71E-07
   1     10    11.539    14.624    0.73E-04    0.13E-03    0.64E-07
 Optimization of the real space projectors (new method)

 maximal supplied QI-value         = 24.76
 optimisation between [QCUT,QGAM] = [ 11.64, 23.27] = [ 37.91,151.63] Ry
 Optimized for a Real-space Cutoff    1.14 Angstroem

   l    n(q)    QCUT    max X(q) W(low)/X(q) W(high)/X(q)  e(spline)
   0      8    11.635    20.381    0.10E-03    0.33E-03    0.24E-06
   0      8    11.635    15.268    0.11E-03    0.35E-03    0.26E-06
   1      7    11.635     5.964    0.24E-03    0.31E-03    0.30E-06
   1      7    11.635     5.382    0.22E-03    0.25E-03    0.26E-06
  PAW_PBE La 06Sep2000                  :
  PAW_PBE Mn 06Sep2000                  :
  PAW_PBE Ni 02Aug2007                  :
  PAW_PBE O 08Apr2002                   :

 POSCAR: SCEL2_1_2_1_1_0_0/0
  positions in direct lattice
  velocities in cartesian coordinates
 exchange correlation table for  LEXCH =        8
   RHO(1)=    0.500       N(1)  =     2000
   RHO(2)=  100.500       N(2)  =     4000

 ion  position               nearest neighbor table
   1  0.000  0.000  0.000-   7 2.74   8 2.74   9 2.74  10 2.74   7 2.74   8 2.74   9 2.74  10 2.74
                             5 2.74   6 2.74   6 2.74   5 2.74   3 3.36   4 3.36   3 3.36   3 3.36
   2  0.000  0.500  0.500-   7 2.74   8 2.74   9 2.74  10 2.74   7 2.74   8 2.74   9 2.74  10 2.74
                             5 2.74   6 2.74   5 2.74   6 2.74   3 3.36   4 3.36   4 3.36   3 3.36
   3  0.500  0.000  0.500-   7 1.90   8 1.90   9 1.90  10 1.90   6 1.94   6 1.94   1 3.36   1 3.36
                             2 3.36   1 3.36   2 3.36   2 3.36   1 3.36   2 3.36
   4  0.500  0.500  0.000-   5 1.94   5 1.94   8 1.98   9 1.98  10 1.98   7 1.98   1 3.36   2 3.36
                             1 3.36   1 3.36   2 3.36   2 3.36   2 3.36   1 3.36
   5  0.000  0.500  0.000-   4 1.94   4 1.94   1 2.74   2 2.74   1 2.74   2 2.74
   6  0.000  0.000  0.500-   3 1.94   3 1.94   1 2.74   1 2.74   2 2.74   2 2.74
   7  0.500  0.245  0.745-   3 1.90   4 1.98   1 2.74   2 2.74   1 2.74   2 2.74
   8  0.500  0.755  0.255-   3 1.90   4 1.98   1 2.74   2 2.74   1 2.74   2 2.74
   9  0.500  0.245  0.255-   3 1.90   4 1.98   1 2.74   2 2.74   1 2.74   2 2.74
  10  0.500  0.755  0.745-   3 1.90   4 1.98   1 2.74   2 2.74   1 2.74   2 2.74

  LATTYP: Found a simple tetragonal cell.
 ALAT       =     5.4823890966
 C/A-ratio  =     0.7062038322

  Lattice vectors:

 A1 = (   0.0000000000,   3.8766345073,   3.8766345073)
 A2 = (   0.0000000000,  -3.8766345073,   3.8766345073)
 A3 = (   3.8716841898,   0.0000000000,   0.0000000000)

Analysis of symmetry for initial positions (statically):
 Subroutine PRICEL returns:
 Original cell was already a primitive cell.

 Routine SETGRP: Setting up the symmetry group for a
 simple tetragonal supercell.

 Subroutine GETGRP returns: Found 16 space group operations
 (whereof  8 operations were pure point group operations)
 out of a pool of 16 trial point group operations.

The static configuration has the point symmetry D_2h.
 The point group associated with its full space group is D_4h.

Analysis of symmetry for dynamics (positions and initial velocities):
 Subroutine PRICEL returns:
 Original cell was already a primitive cell.

[...]

The dynamic configuration has the point symmetry D_2h.
 The point group associated with its full space group is D_4h.

Analysis of structural, dynamic, and magnetic symmetry:
 Subroutine PRICEL returns:
 Original cell was already a primitive cell.

 Routine SETGRP: Setting up the symmetry group for a
 simple tetragonal supercell.

 Subroutine GETGRP returns: Found 16 space group operations
 (whereof  8 operations were pure point group operations)
 out of a pool of 16 trial point group operations.

The magnetic configuration has the point symmetry D_2h.
 The point group associated with its full space group is D_4h.

 Subroutine INISYM returns: Found 16 space group operations
 (whereof  8 operations are pure point group operations),
 and found     1 'primitive' translations

 KPOINTS: Automatic mesh

Automatic generation of k-mesh.
 generate k-points for:    5    4    4
Space group operators:
 irot       det(A)        alpha          n_x          n_y          n_z        tau_x        tau_y        tau_z
    1     1.000000     0.000000     1.000000     0.000000     0.000000     0.000000     0.000000     0.000000
    2    -1.000000     0.000000     1.000000     0.000000     0.000000     0.000000     0.000000     0.000000
    3     1.000000   180.000000     1.000000     0.000000     0.000000     0.000000     0.000000     0.000000
    4    -1.000000   180.000000     1.000000     0.000000     0.000000     0.000000     0.000000     0.000000
    5     1.000000   180.000000     0.000000    -0.707107     0.707107     0.000000     0.000000     0.000000
    6    -1.000000   180.000000     0.000000    -0.707107     0.707107     0.000000     0.000000     0.000000
    7     1.000000   180.000000     0.000000     0.707107     0.707107     0.000000     0.000000     0.000000
    8    -1.000000   180.000000     0.000000     0.707107     0.707107     0.000000     0.000000     0.000000
    9     1.000000    90.000000    -1.000000     0.000000     0.000000     0.000000     0.500000    -0.500000
   10    -1.000000    90.000000    -1.000000     0.000000     0.000000     0.000000     0.500000    -0.500000
   11     1.000000    90.000000     1.000000     0.000000     0.000000     0.000000     0.500000    -0.500000
   12    -1.000000    90.000000     1.000000     0.000000     0.000000     0.000000     0.500000    -0.500000
   13     1.000000   180.000000     0.000000     0.000000     1.000000     0.000000     0.500000    -0.500000
   14    -1.000000   180.000000     0.000000     0.000000     1.000000     0.000000     0.500000    -0.500000
   15     1.000000   180.000000     0.000000     1.000000     0.000000     0.000000     0.500000    -0.500000
   16    -1.000000   180.000000     0.000000     1.000000     0.000000     0.000000     0.500000    -0.500000

 Subroutine IBZKPT returns following result:

 Found     18 irreducible k-points:

 Following reciprocal coordinates:
            Coordinates               Weight
  0.000000  0.000000  0.000000      1.000000
  0.200000  0.000000  0.000000      2.000000
  0.400000  0.000000  0.000000      2.000000
  0.000000  0.250000  0.000000      4.000000
  0.200000  0.250000  0.000000      8.000000
  0.400000  0.250000  0.000000      8.000000
  0.000000  0.500000  0.000000      2.000000
  0.200000  0.500000  0.000000      4.000000
  0.400000  0.500000  0.000000      4.000000
  0.000000  0.250000  0.250000      4.000000
  0.200000  0.250000  0.250000      8.000000
  0.400000  0.250000  0.250000      8.000000
  0.000000  0.500000  0.250000      4.000000
  0.200000  0.500000  0.250000      8.000000
  0.400000  0.500000  0.250000      8.000000
  0.000000  0.500000  0.500000      1.000000
  0.200000  0.500000  0.500000      2.000000
  0.400000  0.500000  0.500000      2.000000

 Following cartesian coordinates:
            Coordinates               Weight
  0.000000  0.000000  0.000000      1.000000
 -0.051657  0.000000  0.000000      2.000000
 -0.103314  0.000000  0.000000      2.000000
  0.000000  0.032244  0.032244      4.000000
 -0.051657  0.032244  0.032244      8.000000
 -0.103314  0.032244  0.032244      8.000000
  0.000000  0.064489  0.064489      2.000000
 -0.051657  0.064489  0.064489      4.000000
 -0.103314  0.064489  0.064489      4.000000
  0.000000  0.064489  0.000000      4.000000
 -0.051657  0.064489  0.000000      8.000000
 -0.103314  0.064489  0.000000      8.000000
  0.000000  0.096733  0.032244      4.000000
 -0.051657  0.096733  0.032244      8.000000
 -0.103314  0.096733  0.032244      8.000000
  0.000000  0.128978  0.000000      1.000000
 -0.051657  0.128978  0.000000      2.000000
 -0.103314  0.128978  0.000000      2.000000

 TETIRR: Found    122 inequivalent tetrahedra from      480

 SYSTEM =  final
 POSCAR =  SCEL2_1_2_1_1_0_0/0

 Startparameter for this run:
   NWRITE =      2    write-flag & timer
   PREC   = accura    normal or accurate (medium, high low for compatibility)
   ISTART =      0    job   : 0-new  1-cont  2-samecut
   ICHARG =      1    charge: 1-file 2-atom 10-const
   ISPIN  =      2    spin polarized calculation?
   LNONCOLLINEAR =      F non collinear calculations
   LSORBIT =      F    spin-orbit coupling
   INIWAV =      1    electr: 0-lowe 1-rand  2-diag
   LASPH  =      F    aspherical Exc in radial PAW
   METAGGA=      F    non-selfconsistent MetaGGA calc.

 Electronic Relaxation 1
   ENCUT  =  520.0 eV  38.22 Ry    6.18 a.u.   7.20 10.19 10.19*2*pi/ulx,y,z
   ENINI  =  520.0     initial cutoff
   ENAUG  =  605.4 eV  augmentation charge cutoff
   NELM   =    100;   NELMIN=  2; NELMDL= -5     # of ELM steps
[...]
 k-point 10 :   0.0000 0.2500 0.2500  plane waves:    3132
 k-point 11 :   0.2000 0.2500 0.2500  plane waves:    3128
 k-point 12 :   0.4000 0.2500 0.2500  plane waves:    3126
 k-point 13 :   0.0000 0.5000 0.2500  plane waves:    3132
 k-point 14 :   0.2000 0.5000 0.2500  plane waves:    3124
 k-point 15 :   0.4000 0.5000 0.2500  plane waves:    3154
 k-point 16 :   0.0000 0.5000 0.5000  plane waves:    3084
 k-point 17 :   0.2000 0.5000 0.5000  plane waves:    3144
 k-point 18 :   0.4000 0.5000 0.5000  plane waves:    3152

 maximum and minimum number of plane-waves per node :       326      297

 maximum number of plane-waves:      3154
 maximum index in each direction:
   IXMAX=    7   IYMAX=   10   IZMAX=   10
   IXMIN=   -7   IYMIN=  -10   IZMIN=  -10

 real space projection operators:
  max/ min on nodes  :        708.19        654.56

 parallel 3D FFT for wavefunctions:
    minimum data exchange during FFTs selected (reduces bandwidth)
 parallel 3D FFT for charge:
    minimum data exchange during FFTs selected (reduces bandwidth)

 Broyden mixing: mesh for mixing (old mesh)
   NGX = 15   NGY = 21   NGZ = 21
  (NGX  = 60   NGY  = 84   NGZ  = 84)
  gives a total of   6615 points

 initial charge density was supplied:
 charge density of overlapping atoms calculated
 number of electron      75.0000000 magnetization       7.0000000
 keeping initial charge density in first step

 Maximum index for non-local projection operator          835
 Maximum index for augmentation-charges          973 (set IRDMAX)

 First call to EWALD:  gamma=   0.363
 Maximum number of real-space cells 3x 2x 2
 Maximum number of reciprocal cells 2x 3x 3

--------------------------------------- Iteration      1(   1)  ---------------------------------------

atom =   1  type =  1  l = 0

 onsite density matrix

spin component  1

  1.0989

[...]

 occupancies and eigenvectors

  o =  1.0989  v =  1.0000  0.0000      0.0000  0.0000
  o =  1.0989  v =  0.0000  1.0000      0.0000  0.0000
atom =   2  type =  1  l = 0

[...]

  o =  0.8190  v =  1.0000  0.0000      0.0000  0.0000
  o =  0.8190  v =  0.0000  1.0000      0.0000  0.0000
 BZINTS: Fermi energy: 23.443132; 75.000000 electrons
         Band energy: 888.486881;  BLOECHL correction: -0.752424

 eigenvalue-minimisations  :  3888
 total energy-change (2. order) : 0.9478164E+03  (-0.2962441E+04)
 number of electron      75.0000000 magnetization       7.0000000
 augmentation part       75.0000000 magnetization       7.0000000

 Free energy of the ion-electron system (eV)
  alpha Z        PSCENC =       329.72627686
  Ewald energy   TEWEN  =     -5186.91455083
  -Hartree energ DENC   =     -1125.56687899
  -exchange      EXHF   =         0.00000000
  -V(xc)+E(xc)   XCENC  =       251.52639992
  PAW double counting   =      4733.87840878    -4763.84139751
  entropy T*S    EENTRO =         0.00000000
  eigenvalues    EBANDS =       888.48688116
  atomic energy  EATOM  =      5820.52127124
  Solvation  Ediel_sol  =         0.00000000
  free energy    TOTEN  =       947.81641063 eV

  energy without entropy =      947.81641063  energy(sigma->0) =      947.81641063

[...]

 BZINTS: Fermi energy: 13.790215; 75.000000 electrons
         Band energy: 163.635717;  BLOECHL correction: -0.278924

 eigenvalue-minimisations  :  3896
 total energy-change (2. order) :-0.7248512E+03  (-0.6559767E+03)
 number of electron      75.0000000 magnetization       7.0000000
 augmentation part       75.0000000 magnetization       7.0000000

[...]

 BZINTS: Fermi energy: 11.764208; 75.000000 electrons
         Band energy: -88.033805;  BLOECHL correction: -0.021642

[...]

 BZINTS: Fermi energy: 11.332407; 75.000000 electrons
         Band energy:-141.111303;  BLOECHL correction: -0.055204

[...]

 Broyden mixing:
  rms(total) = 0.40527E+01    rms(broyden)= 0.40524E+01
  rms(prec ) = 0.60862E+01
  weight for this iteration     100.00

[...]

  o =  0.8138  v =  0.0000  1.0000      0.0000  0.0000
  o =  0.8162  v =  1.0000  0.0000      0.0000  0.0000
 BZINTS: Fermi energy:  7.101713; 75.000000 electrons
         Band energy:-136.063618;  BLOECHL correction: -0.112775

[...]

 eigenvalues of (default mixing * dielectric matrix)
  average eigenvalue GAMMA=   0.0756
  0.0756

[...]

  o =  0.7976  v =  0.0000  1.0000      0.0000  0.0000
  o =  0.8069  v =  1.0000  0.0000      0.0000  0.0000
 BZINTS: Fermi energy:  7.576638; 75.000000 electrons
         Band energy: -99.295014;  BLOECHL correction: -0.053338

 eigenvalue-minimisations  :  5268
 total energy-change (2. order) : 0.4085177E+00  (-0.8218989E+00)
 number of electron      75.0000028 magnetization       4.9848647
 augmentation part        9.8477698 magnetization       3.6272105

[...]

 Broyden mixing:
  rms(total) = 0.23303E-01    rms(broyden)= 0.23302E-01
  rms(prec ) = 0.26150E-01
  weight for this iteration     100.00

 eigenvalues of (default mixing * dielectric matrix)
  average eigenvalue GAMMA=   1.1214
  2.6181  2.6181  1.2389  0.8427  0.8427  0.7003  0.7003  0.5611  0.5611  0.5305

[...]

--------------------------------------- Iteration      1(  16)  ---------------------------------------

atom =   1  type =  1  l = 0

[...]

  o =  0.7862  v =  0.0000  1.0000      0.0000  0.0000
  o =  0.7915  v =  1.0000  0.0000      0.0000  0.0000
atom =  10  type =  4  l = 0

 onsite density matrix

[...]

  0.7862

 occupancies and eigenvectors

  o =  0.7862  v =  0.0000  1.0000      0.0000  0.0000
  o =  0.7915  v =  1.0000  0.0000      0.0000  0.0000
 BZINTS: Fermi energy:  7.621423; 75.000000 electrons
         Band energy:-104.996440;  BLOECHL correction: -0.072157

 eigenvalue-minimisations  :  3739
 total energy-change (2. order) :-0.4706828E-03  (-0.7876920E-03)
 number of electron      75.0000027 magnetization       4.9995138
 augmentation part        9.6841519 magnetization       3.7635676

 Free energy of the ion-electron system (eV)
  alpha Z        PSCENC =       329.72627686
  Ewald energy   TEWEN  =     -5186.91455083
  -Hartree energ DENC   =     -1148.11667419
  -exchange      EXHF   =         0.00000000
  -V(xc)+E(xc)   XCENC  =       255.83812138
  PAW double counting   =      6234.46786761    -6274.06832743
  entropy T*S    EENTRO =         0.00000000
  eigenvalues    EBANDS =      -104.99644016
  atomic energy  EATOM  =      5820.52127124
  Solvation  Ediel_sol  =         0.00000000
  free energy    TOTEN  =       -73.54245552 eV

  energy without entropy =      -73.54245552  energy(sigma->0) =      -73.54245552

 average (electrostatic) potential at core
  the test charge radii are     1.1480  1.0210  0.9791  0.7215
  (the norm of the test charge is              1.0000)
       1 -95.3628       2 -95.3628       3 -43.1155       4 -83.4621       5 -66.3075
       6 -67.3235       7 -66.8411       8 -66.8411       9 -66.8411      10 -66.8411

 E-fermi :   7.6214     XC(G=0): -11.7592     alpha+bet :-16.6154

[...]

 k-point     1 :       0.0000    0.0000    0.0000
  band No.  band energies     occupation
      1     -23.8836      1.00000
      2     -23.7624      1.00000
      3     -10.9468      1.00000
      4     -10.2809      1.00000
      5     -10.2809      1.00000
      6     -10.1397      1.00000
      7      -9.5834      1.00000
      8      -9.3493      1.00000
      9      -7.3953      1.00000
     10      -7.3936      1.00000
     11      -7.3936      1.00000
     12      -7.1611      1.00000
     13      -6.8986      1.00000
     14      -6.8986      1.00000
     15       0.5415      1.00000
     16       0.6696      1.00000
     17       0.9876      1.00000
     18       1.9296      1.00000
     19       1.9296      1.00000
     20       2.8935      1.00000
     21       2.9129      1.00000
     22       2.9129      1.00000
     23       3.2311      1.00000
     24       3.3552      1.00000
     25       3.3552      1.00000
     26       3.7295      1.00000
     27       4.2748      1.00000
     28       4.3727      1.00000
     29       5.1113      1.00000
     30       5.1113      1.00000
     31       5.2590      1.00000
     32       5.3854      1.00000
     33       5.7399      1.00000
     34       5.7399      1.00000
     35       5.7615      1.00000
     36       5.7615      1.00000
     37       6.6260      1.00000
     38       6.6508      1.00000
     39       6.7119      1.00000
     40       6.7121      1.00000
     41       6.7122      0.97367
     42      10.2244      0.00000
     43      10.2385      0.00000
     44      10.2575      0.00000
     45      10.8568      0.00000
     46      10.9271      0.00000
     47      11.1013      0.00000
     48      11.1535      0.00000
     49      11.2064      0.00000
     50      11.3260      0.00000

[...]

 spin component 2

[...]

 k-point    18 :       0.4000    0.5000    0.5000
  band No.  band energies     occupation
      1     -23.7618      1.00000
      2     -23.7618      1.00000
      3     -10.8329      1.00000
      4     -10.2189      1.00000
      5     -10.2156      1.00000
      6     -10.2155      1.00000
      7      -9.9216      1.00000
      8      -9.5493      1.00000
      9      -7.2173      1.00000
     10      -7.1079      1.00000
     11      -7.0180      1.00000
     12      -6.9353      1.00000
     13      -6.9353      1.00000
     14      -6.7006      1.00000
     15       1.7712      1.00000
     16       1.8336      1.00000
     17       2.0137      1.00000
     18       2.0137      1.00000
     19       2.9356      1.00000
     20       3.2055      1.00000
     21       3.2056      1.00000
     22       3.3076      1.00000
     23       3.7554      1.00000
     24       4.1098      1.00000
     25       4.2871      1.00000
     26       4.2871      1.00000
     27       5.4071      1.00000
     28       5.4071      1.00000
     29       5.4283      1.00000
     30       5.5254      1.00000
     31       6.0506      1.00000
     32       6.0506      1.00000
     33       6.1017      1.00000
     34       6.6634      1.00000
     35       6.6634      1.00000
     36      10.8005      0.00000
     37      10.8361      0.00000
     38      10.8416      0.00000
     39      10.8519      0.00000
     40      10.8608      0.00000
     41      10.9535      0.00000
     42      11.0298      0.00000
     43      11.0549      0.00000
     44      11.1050      0.00000
     45      11.1582      0.00000
     46      11.1765      0.00000
     47      11.1886      0.00000
     48      11.1935      0.00000
     49      11.2162      0.00000
     50      11.2215      0.00000

 soft charge-density along one line, spin component           1
         0         1         2         3         4         5         6         7         8         9
 total charge-density along one line

 soft charge-density along one line, spin component           2
         0         1         2         3         4         5         6         7         8         9
 total charge-density along one line

------------------------ aborting loop because EDIFF is reached ----------------------------------------

 total charge

# of ion       s       p       d       f       tot
    1        2.000   5.698   0.496   0.189   8.382
    2        1.998   5.701   0.485   0.194   8.379
    3        0.351   0.559   4.874   0.000   5.784
    4        0.398   0.581   8.325   0.000   9.304
    5        1.556   3.448   0.000   0.000   5.004
    6        1.564   3.468   0.000   0.000   5.032
    7        1.562   3.454   0.000   0.000   5.016
    8        1.562   3.454   0.000   0.000   5.016
    9        1.563   3.462   0.000   0.000   5.025
   10        1.563   3.463   0.000   0.000   5.025
tot         14.117  33.287  14.180   0.383  61.968

 magnetization (x)

[...]

  FORCE on cell =-STRESS in cart. coord.  units (eV):
  Direction    XX          YY          ZZ          XY          YZ          ZX
  Alpha Z   329.72628   329.72628   329.72628
  Ewald   -1717.20507 -1734.85905 -1734.85905    -0.00000    -0.00000    -0.00000
  Hartree   393.78499   377.03731   377.03731     0.00000     0.00000    -0.00000
  E(xc)    -348.76363  -348.91474  -348.91474     0.00000    -0.00000    -0.00000
  Local    -241.40747  -207.88747  -207.88747    -0.00000    -0.00000     0.00000
  n-local   139.00012   138.55376   138.41320     0.35090    -0.60891    -0.14874
  augment   163.34294   163.30310   163.30310     0.00000     0.00000     0.00000
  Kinetic  1282.05718  1282.74646  1283.98252    -0.63441    -4.54338     0.44532
  Fock        0.00000     0.00000     0.00000     0.00000     0.00000     0.00000
  Total       0.53535     0.25341     0.25341     0.00000     0.00000     0.00000
  in kB       7.37063     3.48892     3.48892     0.00000     0.00000     0.00000

 VOLUME and BASIS-vectors are now :
  energy-cutoff  :      520.00
  volume of cell :      116.37
      direct lattice vectors                 reciprocal lattice vectors
    -3.871684190  0.000000000  0.000000000    -0.258285529  0.000000000  0.000000000
     0.000000000  3.876634507  3.876634507     0.000000000  0.128977854  0.128977854
     0.000000000  3.876634507 -3.876634507     0.000000000  0.128977854 -0.128977854

  length of vectors
     3.871684190  5.482389097  5.482389097     0.258285529  0.182402231  0.182402231

 FORCES acting on ions
    electron-ion (+dipol)            ewald-force                    non-local-force                 convergence-correction
   0.118E-13 0.368E-14 -.350E-13   0.103E-13 -.284E-13 -.293E-13   0.000E+00 0.108E-18 -.108E-18   -.249E-13 0.152E-13 0.318E-13
   0.145E-13 0.539E-14 -.193E-13   0.851E-14 0.142E-13 0.888E-15   0.000E+00 -.217E-18 0.217E-18   -.258E-13 -.174E-14 -.137E-13
   -.660E-13 0.257E-12 -.250E-12   0.431E-14 0.565E-13 0.000E+00   0.000E+00 -.847E-21 0.847E-21   0.534E-14 0.229E-13 -.179E-14
   -.297E-12 0.251E-12 0.643E-11   -.179E-13 -.791E-15 0.000E+00   0.000E+00 0.000E+00 0.000E+00   -.270E-13 -.157E-13 -.233E-13
   0.786E-14 0.197E-12 0.155E-12   0.238E-14 -.749E-14 -.711E-14   0.000E+00 0.000E+00 0.000E+00   -.129E-13 -.966E-14 -.152E-13
   0.689E-14 0.182E-12 -.177E-12   -.119E-14 0.502E-15 -.142E-13   0.000E+00 -.339E-20 0.339E-20   -.253E-13 0.908E-14 0.605E-14
   -.122E-12 0.385E+02 0.378E-06   0.735E-14 -.333E+02 0.133E-13   0.000E+00 -.547E+01 0.000E+00   -.182E-13 0.521E-01 -.507E-13
   -.122E-12 -.385E+02 -.378E-06   0.713E-14 0.333E+02 0.160E-13   0.000E+00 0.547E+01 0.000E+00   -.459E-16 -.521E-01 0.289E-13
   -.133E-12 -.486E-06 0.385E+02   0.120E-14 0.121E-14 -.333E+02   -.217E-18 0.000E+00 -.547E+01   0.169E-13 -.282E-13 0.521E-01
   -.110E-12 0.486E-06 -.385E+02   -.128E-13 0.172E-14 0.333E+02   0.217E-18 0.000E+00 0.547E+01   -.154E-13 0.648E-13 -.521E-01
   -.809E-12 0.202E-12 0.738E-11   0.925E-14 -.113E-13 -.284E-13   0.000E+00 0.000E+00 0.000E+00   -.127E-12 0.787E-13 -.940E-14

 POSITION                                       TOTAL-FORCE (eV/Angst)
      0.00000      0.00000      0.00000         0.000000      0.000000     -0.000000
      0.00000      3.87663      0.00000         0.000000      0.000000     -0.000000
     -1.93584      1.93832     -1.93832         0.000000      0.000000     -0.000000
     -1.93584      1.93832      1.93832         0.000000      0.000000     -0.000000
      0.00000      1.93832      1.93832         0.000000      0.000000     -0.000000
      0.00000      1.93832     -1.93832         0.000000      0.000000     -0.000000
     -1.93584      3.83876     -1.93832         0.000000     -0.216511     -0.000000
     -1.93584      3.91451      1.93832         0.000000      0.216511     -0.000000
     -1.93584      1.93832     -0.03787         0.000000      0.000000     -0.216511
     -1.93584      5.81495      0.03787         0.000000      0.000000      0.216511
    total drift:                               -0.000000      0.000000      0.000000

  FREE ENERGIE OF THE ION-ELECTRON SYSTEM (eV)
  free  energy   TOTEN  =       -73.54245552 eV

  energy  without entropy=      -73.54245552  energy(sigma->0) =      -73.54245552

 total charge

[...]

 magnetization (x)

# of ion       s       p       d       f       tot
    1       -0.000   0.002   0.007   0.003   0.011
    2       -0.000   0.000   0.007   0.004   0.011
    3        0.024   0.030   3.304   0.000   3.357
    4        0.010   0.003   1.633   0.000   1.647
    5        0.006  -0.009   0.000   0.000  -0.004
    6        0.003  -0.055   0.000   0.000  -0.052
    7        0.004  -0.013   0.000   0.000  -0.009
    8        0.004  -0.013   0.000   0.000  -0.009
    9        0.006  -0.014   0.000   0.000  -0.008
   10        0.006  -0.014   0.000   0.000  -0.008
tot          0.064  -0.084   4.951   0.007   4.937

 BZINTS: Fermi energy:  7.621423; 75.000000 electrons
         Band energy:-104.996440;  BLOECHL correction: -0.072157