 vasp.5.4.4.18Apr17-6-g9f103f2a35 (build Oct 03 2018 13:58:34) complex

 executed on             LinuxIFC date 2019.06.04  01:31:02

 INCAR:
 POTCAR:    PAW_PBE La 06Sep2000
 POTCAR:    PAW_PBE Mn 06Sep2000
 POTCAR:    PAW_PBE Ni 02Aug2007
 POTCAR:    PAW_PBE O 08Apr2002

 POTCAR:    PAW_PBE La 06Sep2000
   VRHFIN =La : [core=Kr4d]

   TITEL  = PAW_PBE La 06Sep2000
   POMASS =  138.900; ZVAL   =   11.000    mass and valenz
   ENMAX  =  219.292; ENMIN  =  164.469 eV

 POTCAR:    PAW_PBE Mn 06Sep2000
   VRHFIN =Mn: d6 s1

   TITEL  = PAW_PBE Mn 06Sep2000
   POMASS =   54.938; ZVAL   =    7.000    mass and valenz
   ENMAX  =  269.864; ENMIN  =  202.398 eV

 POTCAR:    PAW_PBE Ni 02Aug2007
   VRHFIN =Ni:

   TITEL  = PAW_PBE Ni 02Aug2007
   POMASS =   58.690; ZVAL   =   10.000    mass and valenz
   ENMAX  =  269.532; ENMIN  =  202.149 eV

 POTCAR:    PAW_PBE O 08Apr2002
   VRHFIN =O: s2p4

   TITEL  = PAW_PBE O 08Apr2002
   POMASS =   16.000; ZVAL   =    6.000    mass and valenz
   ENMAX  =  400.000; ENMIN  =  300.000 eV

 Optimization of the real space projectors (new method)

 maximal supplied QI-value         = 13.42
 optimisation between [QCUT,QGAM] = [ 11.67, 23.35] = [ 38.16,152.62] Ry
 Optimized for a Real-space Cutoff    1.63 Angstroem

   l    n(q)    QCUT    max X(q) W(low)/X(q) W(high)/X(q)  e(spline)
   0     11    11.673    13.882    0.27E-04    0.79E-05    0.11E-06
   0     11    11.673    12.184    0.39E-04    0.13E-04    0.19E-06
   1     11    11.673     4.523    0.73E-05    0.76E-05    0.12E-06
   1     11    11.673     4.424    0.87E-05    0.13E-04    0.19E-06
   2     10    11.673    52.481    0.65E-04    0.36E-04    0.18E-06
   2     10    11.673    38.501    0.61E-04    0.33E-04    0.17E-06
   3     10    11.673    65.631    0.17E-03    0.14E-03    0.37E-06
   3     10    11.673    56.854    0.17E-03    0.14E-03    0.37E-06
 Optimization of the real space projectors (new method)

[...]

   l    n(q)    QCUT    max X(q) W(low)/X(q) W(high)/X(q)  e(spline)
   2      9    11.539    60.317    0.19E-03    0.47E-04    0.16E-06
   2      9    11.539    55.921    0.19E-03    0.48E-04    0.16E-06
   0     10    11.539    51.690    0.80E-04    0.50E-04    0.24E-06
   0     10    11.539    30.015    0.73E-04    0.45E-04    0.22E-06
   1     10    11.539    18.849    0.87E-04    0.16E-03    0.71E-07
   1     10    11.539    14.624    0.73E-04    0.13E-03    0.64E-07
 Optimization of the real space projectors (new method)

 maximal supplied QI-value         = 24.76
 optimisation between [QCUT,QGAM] = [ 11.64, 23.27] = [ 37.91,151.63] Ry
 Optimized for a Real-space Cutoff    1.14 Angstroem

   l    n(q)    QCUT    max X(q) W(low)/X(q) W(high)/X(q)  e(spline)
   0      8    11.635    20.381    0.10E-03    0.33E-03    0.24E-06
   0      8    11.635    15.268    0.11E-03    0.35E-03    0.26E-06
   1      7    11.635     5.964    0.24E-03    0.31E-03    0.30E-06
   1      7    11.635     5.382    0.22E-03    0.25E-03    0.26E-06
  PAW_PBE La 06Sep2000                  :
  PAW_PBE Mn 06Sep2000                  :
  PAW_PBE Ni 02Aug2007                  :
  PAW_PBE O 08Apr2002                   :

 POSCAR: SCEL6_6_1_1_0_4_1/4
  positions in direct lattice
  velocities in cartesian coordinates
 exchange correlation table for  LEXCH =        8
   RHO(1)=    0.500       N(1)  =     2000
   RHO(2)=  100.500       N(2)  =     4000

 ion  position               nearest neighbor table
   1  0.500  0.331  0.841-  18 2.69  23 2.70  30 2.70  29 2.73  22 2.73  17 2.75  17 2.75  28 2.77
                            21 2.77  16 2.81  20 2.82  27 2.82  12 3.30  11 3.33  11 3.33   9 3.34
   2  0.000  0.661  0.674-  17 2.65  22 2.68  29 2.68  27 2.74  20 2.74  28 2.75  21 2.75  16 2.75
                            16 2.75  19 2.80  26 2.80  15 2.82  11 3.27  10 3.32   9 3.35   9 3.35
   3  0.500  0.004  0.502-  21 2.71  28 2.71  27 2.71  20 2.71  14 2.73  16 2.74  15 2.75  15 2.75
                            25 2.75  24 2.75  26 2.77  19 2.77   7 3.32  10 3.33  10 3.33  12 3.35
   4  0.000  0.331  0.324-  23 2.65  30 2.65  13 2.70  25 2.70  24 2.70  14 2.75  14 2.75  15 2.79
                            19 2.79  26 2.79  20 2.82  27 2.82  11 3.28  12 3.31  12 3.31   8 3.34
   5  0.500  0.657  0.160-  23 2.67  30 2.67  29 2.69  22 2.69  14 2.73  13 2.75  13 2.75  18 2.77
                            26 2.80  19 2.80  11 3.31  11 3.31  12 3.31   9 3.32   7 3.40   8 3.42
   6  0.000  0.015  0.998-  23 2.67  30 2.67  17 2.68  18 2.75  18 2.75  21 2.75  28 2.75  25 2.77
                            24 2.77  11 3.27  10 3.33  12 3.34  12 3.34   9 3.39   9 3.39   8 3.41
   7  0.500  0.497  0.500-  14 1.88  20 1.88  27 1.88  16 1.94  26 1.95  19 1.95   3 3.32   2 3.39
                             2 3.39   5 3.40   3 3.41   4 3.41   4 3.41
   8  0.000  0.834  0.333-  13 1.89  24 1.89  25 1.89  15 1.90  19 1.95  26 1.95   4 3.34   3 3.38
                             3 3.38   4 3.39   6 3.41   5 3.42   5 3.42
   9  0.500  0.834  0.834-  18 1.89  22 1.89  29 1.89  28 1.90  21 1.90  16 1.95   5 3.32   1 3.34
                             2 3.35   2 3.35   3 3.35   1 3.38   6 3.39   6 3.39
  10  0.000  0.166  0.665-  17 1.94  15 1.96  21 1.98  28 1.98  27 1.99  20 1.99   2 3.32   6 3.33
                             3 3.33   3 3.33
  11  0.000  0.502  1.000-  23 1.96  30 1.96  17 1.97  29 1.98  22 1.98  13 1.99   6 3.27   2 3.27
                             4 3.28   5 3.31   5 3.31   1 3.33   1 3.33
  12  0.500  0.164  0.168-  23 1.94  30 1.94  25 1.97  24 1.97  18 1.99  14 1.99   1 3.30   4 3.31
                             4 3.31   5 3.31   6 3.34   6 3.34   3 3.35
  13  0.000  0.670  0.172-   8 1.89  11 1.99   4 2.70   5 2.75   5 2.75
  14  0.500  0.338  0.338-   7 1.88  12 1.99   3 2.73   5 2.73   4 2.75   4 2.75
  15  0.000  0.996  0.497-   8 1.90  10 1.96   3 2.75   3 2.75   4 2.79   2 2.82
  16  0.500  0.667  0.665-   7 1.94   9 1.95   3 2.74   2 2.75   2 2.75   1 2.81
  17  0.000  0.335  0.830-  10 1.94  11 1.97   2 2.65   6 2.68   1 2.75   1 2.75
  18  0.500  0.996  0.996-   9 1.89  12 1.99   1 2.69   6 2.75   6 2.75   5 2.77
  19  0.749  0.667  0.418-   7 1.95   8 1.95   3 2.77   4 2.79   2 2.80   5 2.80
  20  0.257  0.338  0.580-   7 1.88  10 1.99   3 2.71   2 2.74   1 2.82   4 2.82
  21  0.745  0.995  0.750-   9 1.90  10 1.98   3 2.71   2 2.75   6 2.75   1 2.77
  22  0.257  0.670  0.914-   9 1.89  11 1.98   2 2.68   5 2.69   1 2.73
  23  0.749  0.333  0.086-  12 1.94  11 1.96   4 2.65   5 2.67   6 2.67   1 2.70
  24  0.244  0.997  0.253-   8 1.89  12 1.97   4 2.70   3 2.75   6 2.77
  25  0.756  0.997  0.253-   8 1.89  12 1.97   4 2.70   3 2.75   6 2.77
  26  0.251  0.667  0.418-   7 1.95   8 1.95   3 2.77   4 2.79   2 2.80   5 2.80
  27  0.743  0.338  0.580-   7 1.88  10 1.99   3 2.71   2 2.74   1 2.82   4 2.82
  28  0.255  0.995  0.750-   9 1.90  10 1.98   3 2.71   2 2.75   6 2.75   1 2.77
  29  0.743  0.670  0.914-   9 1.89  11 1.98   2 2.68   5 2.69   1 2.73
  30  0.251  0.333  0.086-  12 1.94  11 1.96   4 2.65   5 2.67   6 2.67   1 2.70

  LATTYP: Found a simple monoclinic cell.
 ALAT       =    11.6436203924
 B/A-ratio  =     0.4714766935
 C/A-ratio  =     1.4143659207
 COS(beta)  =    -0.9428647909

  Lattice vectors:

 A1 = (   0.0019407007,  -0.0019407007, -11.6436200690)
 A2 = (  -3.8818010157,  -3.8818010157,   0.0000000000)
 A3 = (  -3.8823761728,   3.8823761728,  15.5261240748)

Analysis of symmetry for initial positions (statically):
 Subroutine PRICEL returns:
 Original cell was already a primitive cell.

 Routine SETGRP: Setting up the symmetry group for a
 simple monoclinic supercell.

 Subroutine GETGRP returns: Found  2 space group operations
 (whereof  2 operations were pure point group operations)
 out of a pool of  4 trial point group operations.

The static configuration has the point symmetry C_1h.

Analysis of symmetry for dynamics (positions and initial velocities):
 Subroutine PRICEL returns:
 Original cell was already a primitive cell.

[...]

The dynamic configuration has the point symmetry C_1h.

Analysis of structural, dynamic, and magnetic symmetry:
 Subroutine PRICEL returns:
 Original cell was already a primitive cell.

 Routine SETGRP: Setting up the symmetry group for a
 simple monoclinic supercell.

 Subroutine GETGRP returns: Found  2 space group operations
 (whereof  2 operations were pure point group operations)
 out of a pool of  4 trial point group operations.

The magnetic configuration has the point symmetry C_1h.

 Subroutine INISYM returns: Found  2 space group operations
 (whereof  2 operations are pure point group operations),
 and found     1 'primitive' translations

 KPOINTS: Automatic mesh

Automatic generation of k-mesh.
 generate k-points for:    4    3    2
Space group operators:
 irot       det(A)        alpha          n_x          n_y          n_z        tau_x        tau_y        tau_z
    1     1.000000     0.000001     1.000000     0.000000     0.000000     0.000000     0.000000     0.000000
    2    -1.000000   180.000000     0.707107     0.707107     0.000000     0.000000     0.000000     0.000000

 Subroutine IBZKPT returns following result:

 Found     12 irreducible k-points:

 Following reciprocal coordinates:
            Coordinates               Weight
  0.000000  0.000000  0.000000      1.000000
  0.250000  0.000000  0.000000      2.000000
  0.500000  0.000000  0.000000      1.000000
  0.000000  0.333333  0.000000      2.000000
  0.250000  0.333333  0.000000      4.000000
  0.500000  0.333333  0.000000      2.000000
  0.000000  0.000000  0.500000      1.000000
  0.250000 -0.000000  0.500000      2.000000
  0.500000 -0.000000  0.500000      1.000000
  0.000000  0.333333  0.500000      2.000000
  0.250000  0.333333  0.500000      4.000000
  0.500000  0.333333  0.500000      2.000000

 Following cartesian coordinates:
            Coordinates               Weight
  0.000000  0.000000  0.000000      1.000000
  0.032202  0.032202  0.000000      2.000000
  0.064403  0.064403  0.000000      1.000000
 -0.028634  0.028634  0.028618      2.000000
  0.003568  0.060835  0.028618      4.000000
  0.035769  0.093037  0.028618      2.000000
  0.021486 -0.021486  0.042949      1.000000
  0.053688  0.010716  0.042949      2.000000
  0.085889  0.042917  0.042949      1.000000
 -0.007148  0.007148  0.071568      2.000000
  0.025054  0.039349  0.071568      4.000000
  0.057255  0.071551  0.071568      2.000000

 TETIRR: Found     72 inequivalent tetrahedra from      144

 SYSTEM =  final
 POSCAR =  SCEL6_6_1_1_0_4_1/4

 Startparameter for this run:
   NWRITE =      2    write-flag & timer
   PREC   = accura    normal or accurate (medium, high low for compatibility)
   ISTART =      0    job   : 0-new  1-cont  2-samecut
   ICHARG =      1    charge: 1-file 2-atom 10-const
   ISPIN  =      2    spin polarized calculation?
   LNONCOLLINEAR =      F non collinear calculations
   LSORBIT =      F    spin-orbit coupling
   INIWAV =      1    electr: 0-lowe 1-rand  2-diag
   LASPH  =      F    aspherical Exc in radial PAW
   METAGGA=      F    non-selfconsistent MetaGGA calc.

 Electronic Relaxation 1
[...]
     30      -7.4583      1.00000
     31      -7.4339      1.00000
     32      -7.4283      1.00000
     33      -7.3781      1.00000
     34      -7.2230      1.00000
     35      -7.1982      1.00000
     36      -7.1611      1.00000
     37      -7.1356      1.00000
     38      -7.0251      1.00000
     39      -6.9629      1.00000
     40      -6.9379      1.00000
     41      -6.8651      1.00000
     42      -6.7404      1.00000
     43       0.3533      1.00000
     44       0.3995      1.00000
     45       0.5399      1.00000
     46       0.6179      1.00000
     47       0.8030      1.00000
     48       0.9065      1.00000
     49       1.1625      1.00000
     50       1.2017      1.00000
     51       1.3107      1.00000
     52       1.3591      1.00000
     53       1.4793      1.00000
     54       1.6350      1.00000
     55       1.6532      1.00000
     56       1.7220      1.00000
     57       1.7459      1.00000
     58       1.7727      1.00000
     59       1.7917      1.00000
     60       1.8607      1.00000
[...]
    132      10.9051      0.00000
    133      10.9355      0.00000
    134      10.9591      0.00000
    135      10.9861      0.00000
    136      10.9922      0.00000
    137      10.9983      0.00000
    138      11.0278      0.00000
    139      11.0497      0.00000
    140      11.0771      0.00000
    141      11.0963      0.00000
    142      11.1136      0.00000
    143      11.1298      0.00000
    144      11.1506      0.00000
    145      11.1761      0.00000
    146      11.2266      0.00000

[...]

 spin component 2

[...]

 k-point    12 :       0.5000    0.3333    0.5000
  band No.  band energies     occupation
      1     -23.8889      1.00000
      2     -23.8693      1.00000
      3     -23.8669      1.00000
      4     -23.8342      1.00000
      5     -23.8049      1.00000
      6     -23.7951      1.00000
      7     -11.3313      1.00000
      8     -11.1297      1.00000
      9     -10.8604      1.00000
     10     -10.6570      1.00000
     11     -10.6535      1.00000
     12     -10.5110      1.00000
     13     -10.2561      1.00000
     14     -10.0908      1.00000
     15      -9.9673      1.00000
     16      -9.8327      1.00000
     17      -9.8108      1.00000
     18      -9.7427      1.00000
     19      -9.7213      1.00000
     20      -9.6593      1.00000
     21      -9.6466      1.00000
     22      -9.5049      1.00000
     23      -9.3728      1.00000
     24      -9.1383      1.00000
     25      -7.4521      1.00000
     26      -7.4192      1.00000
     27      -7.4030      1.00000
     28      -7.3772      1.00000
     29      -7.3554      1.00000
     30      -7.3258      1.00000
     31      -7.3166      1.00000
     32      -7.3025      1.00000
     33      -7.2812      1.00000
     34      -7.2454      1.00000
     35      -7.1192      1.00000
     36      -7.0072      1.00000
     37      -6.9867      1.00000
     38      -6.9238      1.00000
     39      -6.8508      1.00000
     40      -6.8261      1.00000
     41      -6.6131      1.00000
     42      -6.5132      1.00000
     43       1.7872      1.00000
     44       1.8084      1.00000
     45       1.8924      1.00000
     46       1.9301      1.00000
     47       2.2487      1.00000
     48       2.2553      1.00000
     49       2.4825      1.00000
     50       2.5862      1.00000
     51       2.8969      1.00000
     52       2.9281      1.00000
     53       2.9364      1.00000
     54       2.9548      1.00000
     55       2.9791      1.00000
     56       3.0431      1.00000
     57       3.0489      1.00000
     58       3.0711      1.00000
     59       3.1255      1.00000
     60       3.1541      1.00000
[...]
    132      11.0875      0.00000
    133      11.0910      0.00000
    134      11.0987      0.00000
    135      11.1005      0.00000
    136      11.1182      0.00000
    137      11.1272      0.00000
    138      11.1402      0.00000
    139      11.1591      0.00000
    140      11.1656      0.00000
    141      11.1859      0.00000
    142      11.2035      0.00000
    143      11.2271      0.00000
    144      11.2759      0.00000
    145      11.3043      0.00000
    146      11.3526      0.00000

 soft charge-density along one line, spin component           1
         0         1         2         3         4         5         6         7         8         9
 total charge-density along one line

 soft charge-density along one line, spin component           2
         0         1         2         3         4         5         6         7         8         9
 total charge-density along one line

------------------------ aborting loop because EDIFF is reached ----------------------------------------

 total charge

# of ion       s       p       d       f       tot
    1        2.000   5.697   0.493   0.190   8.380
    2        2.000   5.700   0.491   0.192   8.382
    3        1.999   5.700   0.489   0.192   8.380
    4        2.000   5.699   0.498   0.194   8.391
    5        2.000   5.698   0.490   0.191   8.379
    6        2.000   5.697   0.489   0.189   8.375
    7        0.353   0.557   4.862   0.000   5.773
    8        0.353   0.562   4.855   0.000   5.770
    9        0.360   0.581   4.866   0.000   5.807
   10        0.388   0.555   8.317   0.000   9.261
   11        0.392   0.565   8.334   0.000   9.290
   12        0.396   0.571   8.330   0.000   9.298
   13        1.562   3.455   0.000   0.000   5.017
   14        1.564   3.454   0.000   0.000   5.018
   15        1.560   3.457   0.000   0.000   5.017
   16        1.561   3.468   0.000   0.000   5.030
   17        1.555   3.457   0.000   0.000   5.012
   18        1.563   3.454   0.000   0.000   5.017
   19        1.562   3.463   0.000   0.000   5.024
   20        1.564   3.449   0.000   0.000   5.013
   21        1.562   3.458   0.000   0.000   5.020
   22        1.562   3.461   0.000   0.000   5.022
   23        1.556   3.466   0.000   0.000   5.022
   24        1.563   3.453   0.000   0.000   5.015
   25        1.562   3.452   0.000   0.000   5.014
   26        1.561   3.462   0.000   0.000   5.023
   27        1.564   3.448   0.000   0.000   5.012
   28        1.561   3.459   0.000   0.000   5.019
   29        1.561   3.464   0.000   0.000   5.025
   30        1.556   3.462   0.000   0.000   5.018
tot         42.338  99.824  42.514   1.148 185.823

 magnetization (x)

[...]

  FORCE on cell =-STRESS in cart. coord.  units (eV):
  Direction    XX          YY          ZZ          XY          YZ          ZX
  Alpha Z   984.63751   984.63751   984.63751
  Ewald   -5161.90111 -5161.90111 -5192.39813    13.52861    -4.14789     4.14789
  Hartree  1166.33011  1166.33011  1139.27040    14.69941    -3.16730     3.16730
  E(xc)   -1046.25605 -1046.25605 -1046.25891    -0.01592    -0.00091     0.00091
  Local    -696.64828  -696.64828  -638.06954   -28.62936     7.36376    -7.36376
  n-local   415.78272   416.07890   416.07145     0.15835     0.14861     0.23075
  augment   489.92791   489.92791   489.71432    -0.00372    -0.01351     0.01429
  Kinetic  3848.32898  3847.80938  3847.15789     0.26560    -0.55607    -0.47842
  Fock        0.00000     0.00000     0.00000     0.00000     0.00000     0.00000
  Total       0.09007     0.09007     0.12500     0.00221    -0.01919     0.01919
  in kB       0.41148     0.41148     0.57103     0.01012    -0.08767     0.08767

 VOLUME and BASIS-vectors are now :
  energy-cutoff  :      520.00
  volume of cell :      350.72
      direct lattice vectors                 reciprocal lattice vectors
     3.881801016  3.881801016  0.000000000     0.128806190  0.128806190  0.000000000
    -3.880435472  3.880435472  3.882504006    -0.085900981  0.085900981  0.085855308
     3.878494771 -3.878494771  7.761116063     0.042972029 -0.042972029  0.085898268

  length of vectors
     5.489695643  6.722305874  9.503702748     0.182159461  0.148758498  0.105222159

 FORCES acting on ions
    electron-ion (+dipol)            ewald-force                    non-local-force                 convergence-correction
   0.323E+02 -.323E+02 0.498E+02   -.319E+02 0.319E+02 -.493E+02   -.333E+00 0.333E+00 -.538E+00   -.195E-01 0.195E-01 -.422E-01
   0.396E+02 -.396E+02 0.417E+02   -.390E+02 0.390E+02 -.413E+02   -.481E+00 0.481E+00 -.358E+00   -.229E-01 0.229E-01 -.349E-01
   -.185E+02 0.185E+02 0.283E+02   0.184E+02 -.184E+02 -.280E+02   0.308E-01 -.308E-01 -.297E+00   0.718E-03 -.718E-03 -.446E-02
   -.179E+02 0.179E+02 -.814E+02   0.175E+02 -.175E+02 0.804E+02   0.295E+00 -.295E+00 0.939E+00   0.194E-01 -.194E-01 0.480E-01
   0.610E+01 -.610E+01 -.811E+02   -.589E+01 0.589E+01 0.801E+02   -.195E+00 0.195E+00 0.933E+00   0.676E-02 -.676E-02 0.471E-01
   -.389E+02 0.389E+02 0.371E+02   0.382E+02 -.382E+02 -.365E+02   0.600E+00 -.600E+00 -.472E+00   0.143E-01 -.143E-01 -.137E-01
   0.213E+02 -.213E+02 -.218E+02   -.208E+02 0.208E+02 0.214E+02   -.468E+00 0.468E+00 0.387E+00   -.758E-02 0.758E-02 0.367E-02
   -.258E+02 0.258E+02 -.856E+01   0.254E+02 -.254E+02 0.848E+01   0.416E+00 -.416E+00 0.980E-01   0.186E-01 -.186E-01 0.125E-01
   0.618E+01 -.618E+01 0.260E+02   -.618E+01 0.618E+01 -.255E+02   -.200E-01 0.200E-01 -.490E+00   -.106E-01 0.106E-01 -.215E-01
   0.100E+02 -.100E+02 0.388E+02   -.963E+01 0.963E+01 -.371E+02   -.372E+00 0.372E+00 -.166E+01   -.164E-01 0.164E-01 -.510E-01
   0.296E+02 -.296E+02 -.262E+02   -.283E+02 0.283E+02 0.248E+02   -.122E+01 0.122E+01 0.137E+01   -.283E-01 0.283E-01 0.320E-01
   -.429E+02 0.429E+02 -.433E+01   0.411E+02 -.411E+02 0.421E+01   0.183E+01 -.183E+01 0.886E-01   0.449E-01 -.449E-01 0.258E-01
   0.488E+01 -.488E+01 -.495E+02   -.532E+01 0.532E+01 0.437E+02   0.464E+00 -.464E+00 0.573E+01   0.438E-02 -.438E-02 -.872E-02
   -.309E+01 0.309E+01 -.484E+02   0.272E+01 -.272E+01 0.420E+02   0.340E+00 -.340E+00 0.641E+01   0.897E-02 -.897E-02 -.251E-02
   -.921E+01 0.921E+01 0.385E+02   0.951E+01 -.951E+01 -.340E+02   -.301E+00 0.301E+00 -.454E+01   0.221E-02 -.221E-02 0.327E-01
   0.882E+01 -.882E+01 0.159E+02   -.879E+01 0.879E+01 -.158E+02   -.124E-01 0.124E-01 -.115E+00   -.108E-01 0.108E-01 -.224E-01
   0.103E+02 -.103E+02 0.112E+02   -.103E+02 0.103E+02 -.103E+02   0.834E-02 -.834E-02 -.835E+00   -.104E-01 0.104E-01 -.241E-01
   -.122E+02 0.122E+02 0.320E+02   0.124E+02 -.124E+02 -.259E+02   -.302E+00 0.302E+00 -.615E+01   0.645E-02 -.645E-02 0.247E-01
   -.177E+01 0.120E+01 -.114E+02   0.185E+01 -.110E+01 0.115E+02   -.908E-01 -.944E-01 -.186E+00   0.356E-02 -.130E-01 0.995E-02
   0.117E+02 -.327E+02 0.198E+01   -.119E+02 0.263E+02 -.149E+01   0.218E+00 0.643E+01 -.464E+00   -.779E-02 -.171E-01 -.122E-01
   0.191E+01 0.260E+02 0.204E+02   -.177E+01 -.207E+02 -.203E+02   -.134E+00 -.539E+01 -.398E-01   -.746E-02 0.348E-01 -.214E-01
   0.142E+02 -.365E+02 -.243E+01   -.145E+02 0.311E+02 0.265E+01   0.356E+00 0.547E+01 -.240E+00   -.103E-01 -.156E-01 -.203E-02
   -.428E+00 -.215E+01 -.845E+01   0.334E+00 0.289E+01 0.832E+01   0.103E+00 -.723E+00 0.110E+00   0.592E-02 -.923E-02 0.125E-01
   -.262E+02 0.443E+02 0.878E+00   0.264E+02 -.390E+02 -.143E+01   -.253E+00 -.532E+01 0.543E+00   0.161E-01 0.211E-01 0.139E-01
   -.443E+02 0.262E+02 0.878E+00   0.390E+02 -.264E+02 -.143E+01   0.532E+01 0.253E+00 0.543E+00   -.211E-01 -.161E-01 0.139E-01
   -.120E+01 0.177E+01 -.114E+02   0.110E+01 -.185E+01 0.115E+02   0.944E-01 0.908E-01 -.186E+00   0.130E-01 -.356E-02 0.995E-02
   0.327E+02 -.117E+02 0.198E+01   -.263E+02 0.119E+02 -.149E+01   -.643E+01 -.218E+00 -.464E+00   0.171E-01 0.779E-02 -.122E-01
   -.260E+02 -.191E+01 0.204E+02   0.207E+02 0.177E+01 -.203E+02   0.539E+01 0.134E+00 -.398E-01   -.348E-01 0.746E-02 -.214E-01
   0.365E+02 -.142E+02 -.243E+01   -.311E+02 0.145E+02 0.265E+01   -.547E+01 -.356E+00 -.240E+00   0.156E-01 0.103E-01 -.203E-02
   0.215E+01 0.428E+00 -.845E+01   -.289E+01 -.334E+00 0.832E+01   0.723E+00 -.103E+00 0.110E+00   0.923E-02 -.592E-02 0.125E-01
   -.116E+00 0.116E+00 0.405E-01   -.128E-12 0.929E-13 -.160E-12   0.112E+00 -.112E+00 -.569E-01   -.741E-03 0.741E-03 0.229E-02

 POSITION                                       TOTAL-FORCE (eV/Angst)
      3.91869     -0.03689      7.81653         0.009930     -0.009930     -0.010383
      0.05122     -0.05122      7.79685         0.055571     -0.055571     -0.023185
      3.87221      0.00959      3.91235         0.009287     -0.009287      0.023418
     -0.02863      0.02863      3.79579        -0.015312      0.015312     -0.032590
      0.01350      3.86830      3.79053         0.017683     -0.017683     -0.035130
      3.81276     -3.81276      7.80664        -0.083533      0.083533      0.051302
      1.94934      1.93246      5.81131        -0.008128      0.008128      0.012652
     -1.94495      1.94495      5.82577         0.015040     -0.015040      0.037439
      1.93604      1.94576      9.70848        -0.035044      0.035044     -0.016680
      1.93349     -1.93349      5.80650        -0.003829      0.003829     -0.024400
      1.92987     -1.92987      9.70944        -0.014812      0.014812      0.022490
      1.95764      1.92416      1.94152         0.025737     -0.025737     -0.004751
     -1.93293      1.93293      3.94023         0.028971     -0.028971     -0.015113
      1.94285      1.93895      3.93543        -0.018371      0.018371     -0.002584
     -1.93879      1.93879      7.72576         0.001767     -0.001767     -0.021539
      1.93193      1.94987      7.75442         0.002717     -0.002717     -0.001531
      1.92141     -1.92141      7.74202         0.006263     -0.006263      0.019078
      1.93610      1.94570     11.59423        -0.032245      0.032245      0.001757
      1.93826      3.87786      5.83087        -0.006814     -0.005893     -0.000483
      1.93837      0.05580      5.81609         0.003057      0.015066      0.013087
      1.93767      3.84379      9.68350        -0.006685     -0.011310      0.011639
      1.94080      0.05260      9.69833         0.032204     -0.007543     -0.015106
      1.94997      3.86578      1.95891         0.014388      0.001695     -0.001902
     -1.94065      3.83451      5.83590        -0.012118     -0.006290      0.002640
      0.04729      5.82245      5.83590         0.006290      0.012118      0.002640
      0.00395      1.94355      5.83087         0.005893      0.006814     -0.000483
      3.82600      1.94343      5.81609        -0.015066     -0.003057      0.013087
      0.03801      1.94413      9.68350         0.011310      0.006685      0.011639
      3.82920      1.94100      9.69833         0.007543     -0.032204     -0.015106
      0.01603      1.93183      1.95891        -0.001695     -0.014388     -0.001902
    total drift:                               -0.005025      0.005025     -0.014036

  FREE ENERGIE OF THE ION-ELECTRON SYSTEM (eV)
  free  energy   TOTEN  =      -220.81014554 eV

  energy  without entropy=     -220.81014554  energy(sigma->0) =     -220.81014554

 total charge

[...]

 magnetization (x)

# of ion       s       p       d       f       tot
    1        0.000   0.001   0.005   0.002   0.008
    2        0.001   0.001   0.008   0.004   0.014
    3        0.001   0.001   0.011   0.004   0.017
    4        0.000   0.001   0.008   0.003   0.013
    5        0.001   0.001   0.007   0.003   0.012
    6        0.000   0.001   0.006   0.002   0.009
    7        0.022   0.024   3.232   0.000   3.279
    8        0.023   0.029   3.226   0.000   3.278
    9        0.024   0.035   3.200   0.000   3.259
   10        0.009  -0.003   1.677   0.000   1.683
   11        0.011   0.006   1.705   0.000   1.722
   12        0.011   0.001   1.656   0.000   1.667
   13        0.005  -0.011   0.000   0.000  -0.006
   14        0.005  -0.040   0.000   0.000  -0.035
   15        0.004  -0.009   0.000   0.000  -0.006
   16        0.002  -0.011   0.000   0.000  -0.010
   17        0.007   0.024   0.000   0.000   0.031
   18        0.005  -0.039   0.000   0.000  -0.034
   19        0.002  -0.010   0.000   0.000  -0.008
   20        0.005  -0.039   0.000   0.000  -0.034
   21        0.005  -0.005   0.000   0.000   0.000
   22        0.005  -0.010   0.000   0.000  -0.005
   23        0.007   0.031   0.000   0.000   0.038
   24        0.004  -0.042   0.000   0.000  -0.037
   25        0.004  -0.042   0.000   0.000  -0.038
   26        0.002  -0.013   0.000   0.000  -0.011
   27        0.005  -0.041   0.000   0.000  -0.036
   28        0.005  -0.005   0.000   0.000  -0.001
   29        0.005  -0.008   0.000   0.000  -0.003
   30        0.007   0.028   0.000   0.000   0.035
tot          0.185  -0.144  14.741   0.019  14.800

 BZINTS: Fermi energy:  7.649370;225.000000 electrons
         Band energy:-326.782933;  BLOECHL correction:  0.000000