 vasp.5.4.4.18Apr17-6-g9f103f2a35 (build Oct 03 2018 13:58:34) complex

 executed on             LinuxIFC date 2019.06.04  01:52:21

 INCAR:
 POTCAR:    PAW_PBE La 06Sep2000
 POTCAR:    PAW_PBE Mn 06Sep2000
 POTCAR:    PAW_PBE Ni 02Aug2007
 POTCAR:    PAW_PBE O 08Apr2002

 POTCAR:    PAW_PBE La 06Sep2000
   VRHFIN =La : [core=Kr4d]

   TITEL  = PAW_PBE La 06Sep2000
   POMASS =  138.900; ZVAL   =   11.000    mass and valenz
   ENMAX  =  219.292; ENMIN  =  164.469 eV

 POTCAR:    PAW_PBE Mn 06Sep2000
   VRHFIN =Mn: d6 s1

   TITEL  = PAW_PBE Mn 06Sep2000
   POMASS =   54.938; ZVAL   =    7.000    mass and valenz
   ENMAX  =  269.864; ENMIN  =  202.398 eV

 POTCAR:    PAW_PBE Ni 02Aug2007
   VRHFIN =Ni:

   TITEL  = PAW_PBE Ni 02Aug2007
   POMASS =   58.690; ZVAL   =   10.000    mass and valenz
   ENMAX  =  269.532; ENMIN  =  202.149 eV

 POTCAR:    PAW_PBE O 08Apr2002
   VRHFIN =O: s2p4

   TITEL  = PAW_PBE O 08Apr2002
   POMASS =   16.000; ZVAL   =    6.000    mass and valenz
   ENMAX  =  400.000; ENMIN  =  300.000 eV

 Optimization of the real space projectors (new method)

 maximal supplied QI-value         = 13.42
 optimisation between [QCUT,QGAM] = [ 11.67, 23.35] = [ 38.16,152.62] Ry
 Optimized for a Real-space Cutoff    1.63 Angstroem

   l    n(q)    QCUT    max X(q) W(low)/X(q) W(high)/X(q)  e(spline)
   0     11    11.673    13.882    0.27E-04    0.79E-05    0.11E-06
   0     11    11.673    12.184    0.39E-04    0.13E-04    0.19E-06
   1     11    11.673     4.523    0.73E-05    0.76E-05    0.12E-06
   1     11    11.673     4.424    0.87E-05    0.13E-04    0.19E-06
   2     10    11.673    52.481    0.65E-04    0.36E-04    0.18E-06
   2     10    11.673    38.501    0.61E-04    0.33E-04    0.17E-06
   3     10    11.673    65.631    0.17E-03    0.14E-03    0.37E-06
   3     10    11.673    56.854    0.17E-03    0.14E-03    0.37E-06
 Optimization of the real space projectors (new method)

[...]

   l    n(q)    QCUT    max X(q) W(low)/X(q) W(high)/X(q)  e(spline)
   2      9    11.539    60.317    0.19E-03    0.47E-04    0.16E-06
   2      9    11.539    55.921    0.19E-03    0.48E-04    0.16E-06
   0     10    11.539    51.690    0.80E-04    0.50E-04    0.24E-06
   0     10    11.539    30.015    0.73E-04    0.45E-04    0.22E-06
   1     10    11.539    18.849    0.87E-04    0.16E-03    0.71E-07
   1     10    11.539    14.624    0.73E-04    0.13E-03    0.64E-07
 Optimization of the real space projectors (new method)

 maximal supplied QI-value         = 24.76
 optimisation between [QCUT,QGAM] = [ 11.64, 23.27] = [ 37.91,151.63] Ry
 Optimized for a Real-space Cutoff    1.14 Angstroem

   l    n(q)    QCUT    max X(q) W(low)/X(q) W(high)/X(q)  e(spline)
   0      8    11.635    20.381    0.10E-03    0.33E-03    0.24E-06
   0      8    11.635    15.268    0.11E-03    0.35E-03    0.26E-06
   1      7    11.635     5.964    0.24E-03    0.31E-03    0.30E-06
   1      7    11.635     5.382    0.22E-03    0.25E-03    0.26E-06
  PAW_PBE La 06Sep2000                  :
  PAW_PBE Mn 06Sep2000                  :
  PAW_PBE Ni 02Aug2007                  :
  PAW_PBE O 08Apr2002                   :

 POSCAR: SCEL5_5_1_1_0_1_1/0
  positions in direct lattice
  velocities in cartesian coordinates
 exchange correlation table for  LEXCH =        8
   RHO(1)=    0.500       N(1)  =     2000
   RHO(2)=  100.500       N(2)  =     4000

 ion  position               nearest neighbor table
   1  0.800  0.800  0.600-  24 2.77  23 2.77  12 2.77  17 2.77  16 2.77  11 2.77  14 2.77  19 2.77
                            14 2.77  21 2.77  19 2.77  21 2.77   7 3.39   9 3.39   9 3.39   9 3.39
   2  0.602  0.602  0.194-  22 2.71  15 2.71  20 2.71  13 2.77  18 2.77  25 2.77  25 2.77  18 2.77
                            13 2.77   6 3.31  10 3.37  10 3.37  10 3.37   8 3.41   8 3.41   8 3.41
   3  0.398  0.398  0.807-  22 2.70  20 2.70  15 2.70  12 2.77  17 2.77  24 2.77  24 2.77  17 2.77
                            12 2.77  10 3.31   6 3.37   6 3.37   6 3.37   9 3.42   9 3.42   9 3.42
   4  0.202  0.202  0.393-  25 2.70  18 2.70  13 2.70  11 2.77  16 2.77  23 2.77  23 2.77  16 2.77
                            11 2.77  10 3.31   8 3.37   8 3.37   8 3.37   7 3.42   7 3.42   7 3.42
   5  0.998  0.998  0.006-  25 2.71  13 2.71  18 2.71  20 2.77  15 2.77  22 2.77  22 2.77  20 2.77
                            15 2.77   8 3.31  10 3.37  10 3.37  10 3.37   6 3.41   6 3.41   6 3.41
   6  0.700  0.700  0.901-  15 1.94  20 1.94  22 1.94  12 1.94  17 1.94  24 1.94   2 3.31   3 3.37
                             3 3.37   3 3.37   1 3.40   5 3.41   5 3.41   5 3.41
   7  0.500  0.500  0.500-  14 1.96  19 1.96  21 1.96  11 1.98  16 1.98  23 1.98   1 3.39   1 3.39
                             1 3.39   4 3.42   4 3.42   4 3.42
   8  0.900  0.900  0.299-  13 1.94  18 1.94  25 1.94  11 1.94  16 1.94  23 1.94   5 3.31   4 3.37
                             4 3.37   4 3.37   1 3.40   2 3.41   2 3.41   2 3.41
   9  0.100  0.100  0.700-  14 1.96  19 1.96  21 1.96  12 1.98  17 1.98  24 1.98   1 3.39   1 3.39
                             1 3.39   3 3.42   3 3.42   3 3.42
  10  0.300  0.300  0.100-  15 1.97  20 1.97  18 1.97  13 1.97  25 1.97  22 1.97   4 3.31   3 3.31
                             5 3.37   2 3.37   2 3.37   2 3.37   5 3.37   5 3.37
  11  0.196  0.702  0.399-   8 1.94   7 1.98   1 2.77   4 2.77   4 2.77
  12  0.404  0.898  0.801-   6 1.94   9 1.98   1 2.77   3 2.77   3 2.77
  13  0.602  0.098  0.201-   8 1.94  10 1.97   4 2.70   5 2.71   2 2.77   2 2.77
  14  0.800  0.300  0.600-   7 1.96   9 1.96   1 2.77   1 2.77
  15  0.998  0.502  0.999-   6 1.94  10 1.97   3 2.70   2 2.71   5 2.77   5 2.77
  16  0.702  0.196  0.399-   8 1.94   7 1.98   1 2.77   4 2.77   4 2.77
  17  0.898  0.404  0.801-   6 1.94   9 1.98   1 2.77   3 2.77   3 2.77
  18  0.098  0.602  0.201-   8 1.94  10 1.97   4 2.70   5 2.71   2 2.77   2 2.77
  19  0.300  0.800  0.600-   7 1.96   9 1.96   1 2.77   1 2.77
  20  0.502  0.998  0.999-   6 1.94  10 1.97   3 2.70   2 2.71   5 2.77   5 2.77
  21  0.300  0.300  0.600-   9 1.96   7 1.96   1 2.77   1 2.77
  22  0.502  0.502  0.999-   6 1.94  10 1.97   3 2.70   2 2.71   5 2.77   5 2.77
  23  0.702  0.702  0.399-   8 1.94   7 1.98   1 2.77   4 2.77   4 2.77
  24  0.898  0.898  0.801-   6 1.94   9 1.98   1 2.77   3 2.77   3 2.77
  25  0.098  0.098  0.201-   8 1.94  10 1.97   4 2.70   5 2.71   2 2.77   2 2.77

  LATTYP: Found a trigonal (rhomboedric) cell.
 ALAT       =    11.7513963839
 COS(alpha) =     0.8889596522

  Lattice vectors:

 A1 = (   7.8340147231,  -3.9181301361,  -7.8340147132)
 A2 = (   7.8340147231,  -7.8340147132,  -3.9181301361)
 A3 = (   3.9181301460,  -7.8340147132,  -7.8340147132)

Analysis of symmetry for initial positions (statically):
 Subroutine PRICEL returns:
 Original cell was already a primitive cell.

 Routine SETGRP: Setting up the symmetry group for a
 trigonal (rhombohedral) supercell.

 Subroutine GETGRP returns: Found 12 space group operations
 (whereof  6 operations were pure point group operations)
 out of a pool of 12 trial point group operations.

The static configuration has the point symmetry C_3v.
 The point group associated with its full space group is D_3d.

Analysis of symmetry for dynamics (positions and initial velocities):
 Subroutine PRICEL returns:
 Original cell was already a primitive cell.

[...]

The dynamic configuration has the point symmetry C_3v.
 The point group associated with its full space group is D_3d.

Analysis of structural, dynamic, and magnetic symmetry:
 Subroutine PRICEL returns:
 Original cell was already a primitive cell.

 Routine SETGRP: Setting up the symmetry group for a
 trigonal (rhombohedral) supercell.

 Subroutine GETGRP returns: Found 12 space group operations
 (whereof  6 operations were pure point group operations)
 out of a pool of 12 trial point group operations.

The magnetic configuration has the point symmetry C_3v.
 The point group associated with its full space group is D_3d.

 Subroutine INISYM returns: Found 12 space group operations
 (whereof  6 operations are pure point group operations),
 and found     1 'primitive' translations

 KPOINTS: Automatic mesh

Automatic generation of k-mesh.
 generate k-points for:    4    4    2
Space group operators:
 irot       det(A)        alpha          n_x          n_y          n_z        tau_x        tau_y        tau_z
    1     1.000000     0.000000     1.000000     0.000000     0.000000     0.000000     0.000000     0.000000
    2    -1.000000   180.000000     0.707107     0.000000     0.707107     0.000000     0.000000     0.000000
    3     1.000000   120.000000    -0.577350     0.577350     0.577350     0.000000     0.000000     0.000000
    4    -1.000000   180.000000    -0.000000    -0.707107     0.707107     0.000000     0.000000     0.000000
    5     1.000000   120.000000     0.577350    -0.577350    -0.577350     0.000000     0.000000     0.000000
    6    -1.000000   180.000000     0.707107     0.707107     0.000000     0.000000     0.000000     0.000000
    7    -1.000000     0.000000     1.000000     0.000000     0.000000     0.600000     0.600000    -1.800000
    8     1.000000   180.000000     0.707107     0.000000     0.707107     0.600000     0.600000    -1.800000
    9    -1.000000   120.000000    -0.577350     0.577350     0.577350     0.600000     0.600000    -1.800000
   10     1.000000   180.000000    -0.000000    -0.707107     0.707107     0.600000     0.600000    -1.800000
   11    -1.000000   120.000000     0.577350    -0.577350    -0.577350     0.600000     0.600000    -1.800000
   12     1.000000   180.000000     0.707107     0.707107     0.000000     0.600000     0.600000    -1.800000

 Subroutine IBZKPT returns following result:

 Found     11 irreducible k-points:

 Following reciprocal coordinates:
            Coordinates               Weight
  0.000000  0.000000  0.000000      1.000000
  0.250000 -0.000000 -0.000000      4.000000
  0.500000 -0.000000 -0.000000      3.000000
  0.250000  0.250000 -0.000000      2.000000
  0.500000  0.250000 -0.000000      8.000000
 -0.250000  0.250000  0.000000      2.000000
  0.500000  0.500000 -0.000000      3.000000
  0.000000  0.000000  0.500000      1.000000
  0.250000  0.000000  0.500000      4.000000
  0.250000  0.250000  0.500000      2.000000
 -0.250000  0.250000  0.500000      2.000000

 Following cartesian coordinates:
            Coordinates               Weight
  0.000000  0.000000  0.000000      1.000000
  0.025536 -0.025536  0.038307      4.000000
  0.051071 -0.051071  0.076614      3.000000
  0.051071  0.012771  0.012771      2.000000
  0.076607 -0.012764  0.051078      8.000000
  0.000000  0.063843 -0.063843      2.000000
  0.102142  0.025543  0.025543      3.000000
 -0.025528  0.025528  0.025528      1.000000
  0.000007 -0.000007  0.063835      4.000000
  0.025543  0.038300  0.038300      2.000000
 -0.025528  0.089371 -0.038314      2.000000

 TETIRR: Found     48 inequivalent tetrahedra from      192

 SYSTEM =  final
 POSCAR =  SCEL5_5_1_1_0_1_1/0

 Startparameter for this run:
   NWRITE =      2    write-flag & timer
   PREC   = accura    normal or accurate (medium, high low for compatibility)
[...]
       1 -96.0180       2 -96.0028       3 -96.0088       4 -96.0087       5 -96.0028
       6 -42.8670       7 -42.2397       8 -42.8670       9 -42.2397      10 -83.8621
      11 -67.2956      12 -67.2956      13 -67.1376      14 -67.1979      15 -67.1376
      16 -67.2956      17 -67.2956      18 -67.1376      19 -67.1979      20 -67.1376
      21 -67.1979      22 -67.1376      23 -67.2956      24 -67.2956      25 -67.1376

 E-fermi :   8.1724     XC(G=0): -11.5806     alpha+bet :-16.0447

[...]

 k-point     1 :       0.0000    0.0000    0.0000
  band No.  band energies     occupation
      1     -24.4880      1.00000
      2     -24.4350      1.00000
      3     -24.4304      1.00000
      4     -24.3622      1.00000
      5     -24.3428      1.00000
      6     -11.2165      1.00000
      7     -11.1211      1.00000
      8     -11.0805      1.00000
      9     -10.4374      1.00000
     10     -10.3097      1.00000
     11     -10.1355      1.00000
     12     -10.1355      1.00000
     13     -10.1083      1.00000
     14     -10.1083      1.00000
     15     -10.0737      1.00000
     16     -10.0737      1.00000
     17     -10.0259      1.00000
     18     -10.0259      1.00000
     19      -9.8883      1.00000
     20      -9.8883      1.00000
     21      -8.3420      1.00000
     22      -8.3419      1.00000
     23      -8.2578      1.00000
     24      -8.2578      1.00000
     25      -8.1374      1.00000
     26      -7.9955      1.00000
     27      -7.9927      1.00000
     28      -7.9927      1.00000
     29      -7.9326      1.00000
     30      -7.8682      1.00000
     31      -7.8682      1.00000
     32      -7.8635      1.00000
     33      -7.8635      1.00000
     34      -7.4464      1.00000
     35      -7.4264      1.00000
     36       0.3608      1.00000
     37       0.3608      1.00000
     38       0.8839      1.00000
     39       0.9825      1.00000
     40       1.3749      1.00000
     41       1.3749      1.00000
     42       1.5507      1.00000
     43       1.5881      1.00000
     44       1.6589      1.00000
     45       1.6993      1.00000
     46       1.6993      1.00000
     47       1.7386      1.00000
     48       1.8102      1.00000
     49       1.8102      1.00000
     50       1.9920      1.00000
     51       1.9920      1.00000
     52       2.2459      1.00000
     53       2.2459      1.00000
     54       2.2606      1.00000
     55       2.2606      1.00000
     56       2.3519      1.00000
     57       2.3519      1.00000
     58       2.6823      1.00000
     59       2.8957      1.00000
     60       3.0442      1.00000
[...]
    106      10.2389      0.00000
    107      10.2704      0.00000
    108      10.3065      0.00000
    109      10.3321      0.00000
    110      10.3542      0.00000
    111      10.3788      0.00000
    112      10.4052      0.00000
    113      10.4284      0.00000
    114      10.4487      0.00000
    115      10.4823      0.00000
    116      10.5074      0.00000
    117      10.5186      0.00000
    118      10.5468      0.00000
    119      10.5854      0.00000
    120      10.6664      0.00000

[...]

 spin component 2

[...]

 k-point    11 :      -0.2500    0.2500    0.5000
  band No.  band energies     occupation
      1     -24.4196      1.00000
      2     -24.4190      1.00000
      3     -24.3925      1.00000
      4     -24.3913      1.00000
      5     -24.3741      1.00000
      6     -11.2894      1.00000
      7     -11.2692      1.00000
      8     -11.0607      1.00000
      9     -11.0532      1.00000
     10     -10.9005      1.00000
     11     -10.4092      1.00000
     12     -10.4062      1.00000
     13     -10.3213      1.00000
     14     -10.1675      1.00000
     15     -10.1434      1.00000
     16      -9.9424      1.00000
     17      -9.9081      1.00000
     18      -9.8508      1.00000
     19      -9.7819      1.00000
     20      -9.7261      1.00000
     21      -8.1668      1.00000
     22      -7.9477      1.00000
     23      -7.9205      1.00000
     24      -7.8493      1.00000
     25      -7.8448      1.00000
     26      -7.7387      1.00000
     27      -7.7132      1.00000
     28      -7.6415      1.00000
     29      -7.6270      1.00000
     30      -7.5990      1.00000
     31      -7.5794      1.00000
     32      -7.4232      1.00000
     33      -7.4097      1.00000
     34      -7.3576      1.00000
     35      -7.3056      1.00000
     36       1.6504      1.00000
     37       1.8557      1.00000
     38       1.9552      1.00000
     39       2.1456      1.00000
     40       2.1653      1.00000
     41       2.2531      1.00000
     42       2.2725      1.00000
     43       2.6532      1.00000
     44       2.7480      1.00000
     45       2.9643      1.00000
     46       3.0276      1.00000
     47       3.0587      1.00000
     48       3.0918      1.00000
     49       3.1258      1.00000
     50       3.1394      1.00000
     51       3.2328      1.00000
     52       3.2848      1.00000
     53       3.3147      1.00000
     54       3.4803      1.00000
     55       3.5208      1.00000
     56       3.5873      1.00000
     57       3.6224      1.00000
     58       3.7277      1.00000
     59       3.8077      1.00000
     60       3.8372      1.00000
[...]
    106      10.5027      0.00000
    107      10.5109      0.00000
    108      10.5242      0.00000
    109      10.5359      0.00000
    110      10.5468      0.00000
    111      10.5515      0.00000
    112      10.5690      0.00000
    113      10.5775      0.00000
    114      10.5875      0.00000
    115      10.6368      0.00000
    116      10.6683      0.00000
    117      10.6871      0.00000
    118      10.6953      0.00000
    119      10.7661      0.00000
    120      10.9679      0.00000

 soft charge-density along one line, spin component           1
         0         1         2         3         4         5         6         7         8         9
 total charge-density along one line

 soft charge-density along one line, spin component           2
         0         1         2         3         4         5         6         7         8         9
 total charge-density along one line

------------------------ aborting loop because EDIFF is reached ----------------------------------------

 total charge

# of ion       s       p       d       f       tot
    1        1.998   5.696   0.474   0.184   8.353
    2        1.999   5.695   0.477   0.185   8.356
    3        1.999   5.696   0.476   0.185   8.355
    4        1.999   5.696   0.476   0.185   8.355
    5        1.999   5.695   0.477   0.185   8.356
    6        0.332   0.515   4.874   0.000   5.721
    7        0.308   0.452   4.907   0.000   5.668
    8        0.332   0.515   4.873   0.000   5.720
    9        0.308   0.452   4.908   0.000   5.669
   10        0.395   0.562   8.323   0.000   9.279
   11        1.564   3.474   0.000   0.000   5.038
   12        1.564   3.475   0.000   0.000   5.039
   13        1.560   3.483   0.000   0.000   5.043
   14        1.565   3.471   0.000   0.000   5.037
   15        1.560   3.483   0.000   0.000   5.044
   16        1.563   3.436   0.000   0.000   4.999
   17        1.563   3.436   0.000   0.000   4.999
   18        1.560   3.420   0.000   0.000   4.981
   19        1.564   3.417   0.000   0.000   4.981
   20        1.560   3.420   0.000   0.000   4.981
   21        1.565   3.464   0.000   0.000   5.028
   22        1.561   3.461   0.000   0.000   5.022
   23        1.564   3.456   0.000   0.000   5.021
   24        1.564   3.456   0.000   0.000   5.021
   25        1.561   3.462   0.000   0.000   5.022
tot         35.108  82.789  30.266   0.923 149.086

 magnetization (x)

[...]

  FORCE on cell =-STRESS in cart. coord.  units (eV):
  Direction    XX          YY          ZZ          XY          YZ          ZX
  Alpha Z   804.78753   804.78753   804.78753
  Ewald   -4073.89367 -4073.89367 -4073.89367    22.89505   -22.89505    22.89505
  Hartree   858.49732   858.49731   858.49731    23.44685   -23.44685    23.44685
  E(xc)    -841.25376  -841.25377  -841.25377    -0.00731     0.00733    -0.00731
  Local    -451.86502  -451.86517  -451.86517   -46.38752    46.38821   -46.38752
  n-local   327.32122   326.22010   327.94724     0.81216    -0.23247    -0.79215
  augment   189.69400   189.69410   189.69410     0.02410    -0.02458     0.02410
  Kinetic  3186.30091  3194.38768  3180.17501     4.23258    -0.72404    -5.30120
  Fock        0.00000     0.00000     0.00000     0.00000     0.00000     0.00000
  Total       0.08373     0.08373     0.08373    -0.05804     0.05804    -0.05804
  in kB       0.44668     0.44668     0.44668    -0.30964     0.30964    -0.30964

 VOLUME and BASIS-vectors are now :
  energy-cutoff  :      520.00
  volume of cell :      300.34
      direct lattice vectors                 reciprocal lattice vectors
     3.915884577  0.000000000  3.915884577     0.102142201 -0.102142201  0.153227941
     3.915884577  3.915884577  0.000000000     0.102142201  0.153227941 -0.102142201
    -3.918130146  7.834014713  7.834014713    -0.051056461  0.051056461  0.051056461

  length of vectors
     5.537897078  5.537897078 11.751396381     0.210582194  0.210582194  0.088432385

 FORCES acting on ions
    electron-ion (+dipol)            ewald-force                    non-local-force                 convergence-correction
   -.679E-05 0.836E-05 0.836E-05   -.858E-11 0.215E-10 0.215E-10   -.434E-18 0.217E-18 0.271E-18   0.261E-05 0.409E-06 0.409E-06
   0.449E+02 -.449E+02 -.449E+02   -.446E+02 0.446E+02 0.446E+02   -.344E+00 0.344E+00 0.344E+00   0.282E-02 -.282E-02 -.282E-02
   -.615E+02 0.615E+02 0.615E+02   0.612E+02 -.612E+02 -.612E+02   0.372E+00 -.372E+00 -.372E+00   -.109E-01 0.109E-01 0.109E-01
   0.615E+02 -.615E+02 -.615E+02   -.612E+02 0.612E+02 0.612E+02   -.372E+00 0.372E+00 0.372E+00   0.109E-01 -.109E-01 -.109E-01
   -.449E+02 0.449E+02 0.449E+02   0.446E+02 -.446E+02 -.446E+02   0.344E+00 -.344E+00 -.344E+00   -.282E-02 0.282E-02 0.282E-02
   -.299E+02 0.299E+02 0.299E+02   0.297E+02 -.297E+02 -.297E+02   0.227E+00 -.227E+00 -.227E+00   -.339E-02 0.339E-02 0.339E-02
   0.987E+01 -.987E+01 -.987E+01   -.103E+02 0.103E+02 0.103E+02   0.331E+00 -.331E+00 -.331E+00   0.108E-01 -.108E-01 -.108E-01
   0.299E+02 -.299E+02 -.299E+02   -.297E+02 0.297E+02 0.297E+02   -.227E+00 0.227E+00 0.227E+00   0.339E-02 -.339E-02 -.339E-02
   -.987E+01 0.987E+01 0.987E+01   0.103E+02 -.103E+02 -.103E+02   -.331E+00 0.331E+00 0.331E+00   -.108E-01 0.108E-01 0.108E-01
   -.460E-05 0.452E-06 0.452E-06   0.691E-11 0.116E-10 0.115E-10   -.244E-18 0.271E-18 0.298E-18   -.391E-06 0.394E-06 0.394E-06
   0.187E+02 -.187E+02 -.347E+02   -.187E+02 0.187E+02 0.362E+02   -.637E-01 0.637E-01 -.147E+01   0.506E-02 -.506E-02 -.168E-01
   -.187E+02 0.187E+02 0.347E+02   0.187E+02 -.187E+02 -.362E+02   0.637E-01 -.637E-01 0.147E+01   -.506E-02 0.506E-02 0.168E-01
   0.154E+02 -.154E+02 -.589E+02   -.155E+02 0.155E+02 0.554E+02   0.101E+00 -.101E+00 0.348E+01   0.262E-03 -.262E-03 0.339E-02
   0.422E-06 0.127E-04 0.122E-04   -.647E-11 0.833E-11 0.130E-10   0.542E-19 0.108E-18 -.271E-19   0.318E-06 -.312E-06 -.309E-06
   -.154E+02 0.154E+02 0.589E+02   0.155E+02 -.155E+02 -.554E+02   -.101E+00 0.101E+00 -.348E+01   -.262E-03 0.262E-03 -.339E-02
   0.187E+02 -.347E+02 -.187E+02   -.187E+02 0.362E+02 0.187E+02   -.637E-01 -.147E+01 0.637E-01   0.506E-02 -.168E-01 -.506E-02
   -.187E+02 0.347E+02 0.187E+02   0.187E+02 -.362E+02 -.187E+02   0.637E-01 0.147E+01 -.637E-01   -.506E-02 0.168E-01 0.506E-02
   0.154E+02 -.589E+02 -.154E+02   -.155E+02 0.554E+02 0.155E+02   0.101E+00 0.348E+01 -.101E+00   0.262E-03 0.339E-02 -.262E-03
   0.422E-06 0.122E-04 0.127E-04   -.584E-11 0.606E-11 0.271E-11   0.108E-18 -.542E-19 -.271E-18   0.318E-06 -.309E-06 -.312E-06
   -.154E+02 0.589E+02 0.154E+02   0.155E+02 -.554E+02 -.155E+02   -.101E+00 -.348E+01 0.101E+00   -.262E-03 -.339E-02 0.262E-03
   -.694E-05 0.146E-04 0.146E-04   0.236E-12 -.799E-13 -.302E-13   0.352E-18 0.542E-19 0.000E+00   0.310E-06 -.317E-06 -.317E-06
   -.589E+02 0.154E+02 0.154E+02   0.554E+02 -.155E+02 -.155E+02   0.348E+01 0.101E+00 0.101E+00   0.339E-02 0.262E-03 0.262E-03
   0.347E+02 -.187E+02 -.187E+02   -.362E+02 0.187E+02 0.187E+02   0.147E+01 0.637E-01 0.637E-01   0.168E-01 -.506E-02 -.506E-02
   -.347E+02 0.187E+02 0.187E+02   0.362E+02 -.187E+02 -.187E+02   -.147E+01 -.637E-01 -.637E-01   -.168E-01 0.506E-02 0.506E-02
   0.589E+02 -.154E+02 -.154E+02   -.554E+02 0.155E+02 0.155E+02   -.348E+01 -.101E+00 -.101E+00   -.339E-02 -.262E-03 -.262E-03
   -.618E-04 -.441E-05 -.441E-05   -.213E-13 -.178E-14 0.533E-14   0.888E-15 0.874E-15 0.860E-15   0.327E-06 -.410E-06 -.410E-06

 POSITION                                       TOTAL-FORCE (eV/Angst)
      3.91454      7.83312      7.83312         0.000000     -0.000000     -0.000000
      3.95690      3.87486      3.87486         0.016311     -0.016311     -0.016311
     -0.05015      7.88192      7.88192        -0.003565      0.003565      0.003565
      0.04745      3.86843      3.86843         0.003565     -0.003565     -0.003565
      7.79030      3.95735      3.95735        -0.016311      0.016311      0.016311
      1.95099      9.79667      9.79667         0.036823     -0.036823     -0.036823
      1.95824      5.87353      5.87353        -0.050703      0.050703      0.050703
      5.87809      5.86957      5.86957        -0.036823      0.036823      0.036823
     -1.96093      5.87682      5.87682         0.050703     -0.050703     -0.050703
      1.95772      1.95817      1.95817         0.000000     -0.000000     -0.000000
      1.95409      5.87768      3.89596         0.018433     -0.018433     -0.028474
      1.95910      9.78855      7.85439        -0.018433      0.018433      0.028474
      1.95527      1.96061      3.93282         0.021855     -0.021855      0.003453
      1.95659      5.87517      7.83312         0.000000     -0.000000     -0.000000
      1.95792      9.78974     11.73342        -0.021855      0.021855     -0.003453
      1.95409      3.89596      5.87768         0.018433     -0.028474     -0.018433
      1.95910      7.85439      9.78855        -0.018433      0.028474      0.018433
      1.95527      3.93282      1.96061         0.021855      0.003453     -0.021855
      1.95659      7.83312      5.87517         0.000000     -0.000000     -0.000000
      1.95792     11.73342      9.78974        -0.021855     -0.003453      0.021855
     -0.00135      5.87517      5.87517         0.000000     -0.000000     -0.000000
      0.01424      9.78974      9.78974         0.003453      0.021855      0.021855
      3.93581      5.87768      5.87768         0.028474     -0.018433     -0.018433
      3.89326      9.78855      9.78855        -0.028474      0.018433      0.018433
     -0.01693      1.96061      1.96061        -0.003453     -0.021855     -0.021855
    total drift:                               -0.000061     -0.000005     -0.000005

  FREE ENERGIE OF THE ION-ELECTRON SYSTEM (eV)
  free  energy   TOTEN  =      -192.66362717 eV

  energy  without entropy=     -192.66362717  energy(sigma->0) =     -192.66362717

 total charge

[...]

 magnetization (x)

# of ion       s       p       d       f       tot
    1        0.001   0.001   0.013   0.008   0.023
    2        0.001   0.001   0.008   0.005   0.015
    3        0.001   0.001   0.011   0.007   0.020
    4        0.001   0.001   0.011   0.007   0.020
    5        0.001   0.001   0.008   0.005   0.015
    6        0.026   0.035   3.588   0.000   3.649
    7        0.026   0.023   3.881   0.000   3.930
    8        0.026   0.035   3.588   0.000   3.648
    9        0.026   0.023   3.882   0.000   3.931
   10        0.013  -0.001   1.685   0.000   1.697
   11        0.006  -0.036   0.000   0.000  -0.030
   12        0.006  -0.035   0.000   0.000  -0.029
   13        0.006  -0.001   0.000   0.000   0.005
   14        0.007  -0.043   0.000   0.000  -0.036
   15        0.006  -0.001   0.000   0.000   0.005
   16        0.004  -0.040   0.000   0.000  -0.035
   17        0.004  -0.040   0.000   0.000  -0.035
   18        0.005  -0.021   0.000   0.000  -0.016
   19        0.005  -0.061   0.000   0.000  -0.056
   20        0.005  -0.021   0.000   0.000  -0.016
   21        0.007  -0.038   0.000   0.000  -0.031
   22        0.006  -0.007   0.000   0.000  -0.001
   23        0.006  -0.041   0.000   0.000  -0.035
   24        0.006  -0.041   0.000   0.000  -0.035
   25        0.006  -0.007   0.000   0.000  -0.001
tot          0.209  -0.316  16.676   0.032  16.601

 BZINTS: Fermi energy:  8.172368;183.000000 electrons
         Band energy:-341.062254;  BLOECHL correction: -0.025757