 vasp.5.4.4.18Apr17-6-g9f103f2a35 (build Oct 03 2018 13:58:34) complex

 executed on             LinuxIFC date 2019.06.04  01:28:49

 INCAR:
 POTCAR:    PAW_PBE La 06Sep2000
 POTCAR:    PAW_PBE Mn 06Sep2000
 POTCAR:    PAW_PBE Ni 02Aug2007
 POTCAR:    PAW_PBE O 08Apr2002

 POTCAR:    PAW_PBE La 06Sep2000
   VRHFIN =La : [core=Kr4d]

   TITEL  = PAW_PBE La 06Sep2000
   POMASS =  138.900; ZVAL   =   11.000    mass and valenz
   ENMAX  =  219.292; ENMIN  =  164.469 eV

 POTCAR:    PAW_PBE Mn 06Sep2000
   VRHFIN =Mn: d6 s1

   TITEL  = PAW_PBE Mn 06Sep2000
   POMASS =   54.938; ZVAL   =    7.000    mass and valenz
   ENMAX  =  269.864; ENMIN  =  202.398 eV

 POTCAR:    PAW_PBE Ni 02Aug2007
   VRHFIN =Ni:

   TITEL  = PAW_PBE Ni 02Aug2007
   POMASS =   58.690; ZVAL   =   10.000    mass and valenz
   ENMAX  =  269.532; ENMIN  =  202.149 eV

 POTCAR:    PAW_PBE O 08Apr2002
   VRHFIN =O: s2p4

   TITEL  = PAW_PBE O 08Apr2002
   POMASS =   16.000; ZVAL   =    6.000    mass and valenz
   ENMAX  =  400.000; ENMIN  =  300.000 eV

 Optimization of the real space projectors (new method)

 maximal supplied QI-value         = 13.42
 optimisation between [QCUT,QGAM] = [ 11.67, 23.35] = [ 38.16,152.62] Ry
 Optimized for a Real-space Cutoff    1.63 Angstroem

   l    n(q)    QCUT    max X(q) W(low)/X(q) W(high)/X(q)  e(spline)
   0     11    11.673    13.882    0.27E-04    0.79E-05    0.11E-06
   0     11    11.673    12.184    0.39E-04    0.13E-04    0.19E-06
   1     11    11.673     4.523    0.73E-05    0.76E-05    0.12E-06
   1     11    11.673     4.424    0.87E-05    0.13E-04    0.19E-06
   2     10    11.673    52.481    0.65E-04    0.36E-04    0.18E-06
   2     10    11.673    38.501    0.61E-04    0.33E-04    0.17E-06
   3     10    11.673    65.631    0.17E-03    0.14E-03    0.37E-06
   3     10    11.673    56.854    0.17E-03    0.14E-03    0.37E-06
 Optimization of the real space projectors (new method)

[...]

   l    n(q)    QCUT    max X(q) W(low)/X(q) W(high)/X(q)  e(spline)
   2      9    11.539    60.317    0.19E-03    0.47E-04    0.16E-06
   2      9    11.539    55.921    0.19E-03    0.48E-04    0.16E-06
   0     10    11.539    51.690    0.80E-04    0.50E-04    0.24E-06
   0     10    11.539    30.015    0.73E-04    0.45E-04    0.22E-06
   1     10    11.539    18.849    0.87E-04    0.16E-03    0.71E-07
   1     10    11.539    14.624    0.73E-04    0.13E-03    0.64E-07
 Optimization of the real space projectors (new method)

 maximal supplied QI-value         = 24.76
 optimisation between [QCUT,QGAM] = [ 11.64, 23.27] = [ 37.91,151.63] Ry
 Optimized for a Real-space Cutoff    1.14 Angstroem

   l    n(q)    QCUT    max X(q) W(low)/X(q) W(high)/X(q)  e(spline)
   0      8    11.635    20.381    0.10E-03    0.33E-03    0.24E-06
   0      8    11.635    15.268    0.11E-03    0.35E-03    0.26E-06
   1      7    11.635     5.964    0.24E-03    0.31E-03    0.30E-06
   1      7    11.635     5.382    0.22E-03    0.25E-03    0.26E-06
  PAW_PBE La 06Sep2000                  :
  PAW_PBE Mn 06Sep2000                  :
  PAW_PBE Ni 02Aug2007                  :
  PAW_PBE O 08Apr2002                   :

 POSCAR: SCEL6_1_2_3_1_0_0/0
  positions in direct lattice
  velocities in cartesian coordinates
 exchange correlation table for  LEXCH =        8
   RHO(1)=    0.500       N(1)  =     2000
   RHO(2)=  100.500       N(2)  =     4000

 ion  position               nearest neighbor table
   1  0.000  0.171  0.328-  30 2.70  24 2.73  24 2.73  17 2.74  17 2.74  27 2.77  29 2.79  14 2.81
                            14 2.81  23 2.82  23 2.82  12 3.33  12 3.33   9 3.39   9 3.39  11 3.40
   2  0.000  0.333  0.667-  26 2.76  28 2.76  22 2.76  22 2.76  23 2.76  23 2.76  25 2.77  29 2.77
                            13 2.77  16 2.77  13 2.77  16 2.77   8 3.40   8 3.40  11 3.40  11 3.40
   3  0.000  0.496  0.005-  30 2.70  21 2.73  21 2.73  18 2.74  18 2.74  27 2.77  25 2.79  15 2.81
                            15 2.81  22 2.82  22 2.82  12 3.33  12 3.33   9 3.39   9 3.39   8 3.40
   4  0.000  0.657  0.328-  30 2.70  21 2.73  21 2.73  17 2.74  17 2.74  27 2.77  29 2.79  14 2.81
                            14 2.81  20 2.82  20 2.82  12 3.33  12 3.33   9 3.39   9 3.39  11 3.40
   5  0.000  0.833  0.667-  28 2.76  26 2.76  19 2.76  19 2.76  20 2.76  20 2.76  29 2.77  25 2.77
                            13 2.77  16 2.77  13 2.77  16 2.77   8 3.40   8 3.40  11 3.40  11 3.40
   6  0.000  0.009  0.005-  30 2.70  24 2.73  24 2.73  18 2.74  18 2.74  27 2.77  25 2.79  15 2.81
                            15 2.81  19 2.82  19 2.82  12 3.33  12 3.33   9 3.39   9 3.39   8 3.40
   7  0.500  1.000  0.499-  26 1.96  26 1.96  23 1.96  20 1.96  14 1.98  13 2.01   2 3.40   2 3.40
                             5 3.40   5 3.40
   8  0.500  0.167  0.834-  18 1.93  13 1.93  25 1.96  25 1.96  19 1.96  22 1.96   3 3.40   3 3.40
                             6 3.40   6 3.40   2 3.40   2 3.40   5 3.40   5 3.40
   9  0.500  0.833  0.167-  21 1.91  24 1.91  14 1.94  15 1.94  27 1.96  27 1.96   4 3.39   4 3.39
                             3 3.39   3 3.39   1 3.39   1 3.39   6 3.39   6 3.39
  10  0.500  0.667  0.834-  28 1.96  28 1.96  22 1.96  19 1.96  15 1.98  16 2.01   5 3.40   5 3.40
                             2 3.40   2 3.40
  11  0.500  0.500  0.500-  17 1.93  16 1.93  29 1.96  29 1.96  20 1.96  23 1.96   1 3.40   1 3.40
                             4 3.40   4 3.40   5 3.40   5 3.40   2 3.40   2 3.40
  12  0.500  0.333  0.167-  30 1.96  30 1.96  17 1.99  18 1.99  21 2.01  24 2.01   1 3.33   1 3.33
                             6 3.33   6 3.33   4 3.33   4 3.33   3 3.33   3 3.33
  13  0.500  0.085  0.670-   8 1.93   7 2.01   5 2.77   5 2.77   2 2.77   2 2.77
  14  0.500  0.916  0.331-   9 1.94   7 1.98   4 2.81   4 2.81   1 2.81   1 2.81
  15  0.500  0.751  0.002-   9 1.94  10 1.98   6 2.81   6 2.81   3 2.81   3 2.81
  16  0.500  0.582  0.664-  11 1.93  10 2.01   5 2.77   5 2.77   2 2.77   2 2.77
  17  0.500  0.418  0.336-  11 1.93  12 1.99   1 2.74   1 2.74   4 2.74   4 2.74
  18  0.500  0.249  0.997-   8 1.93  12 1.99   3 2.74   3 2.74   6 2.74   6 2.74
  19  0.500  0.916  0.832-   8 1.96  10 1.96   5 2.76   5 2.76   6 2.82   6 2.82
  20  0.500  0.750  0.501-  11 1.96   7 1.96   5 2.76   5 2.76   4 2.82   4 2.82
  21  0.500  0.589  0.167-   9 1.91  12 2.01   4 2.73   4 2.73   3 2.73   3 2.73
  22  0.500  0.416  0.832-   8 1.96  10 1.96   2 2.76   2 2.76   3 2.82   3 2.82
  23  0.500  0.251  0.501-  11 1.96   7 1.96   2 2.76   2 2.76   1 2.82   1 2.82
  24  0.500  0.077  0.167-   9 1.91  12 2.01   1 2.73   1 2.73   6 2.73   6 2.73
  25  0.000  0.166  0.833-   8 1.96   8 1.96   2 2.77   5 2.77   3 2.79   6 2.79
  26  0.000  0.001  0.502-   7 1.96   7 1.96   2 2.76   5 2.76
  27  0.000  0.833  0.167-   9 1.96   9 1.96   4 2.77   3 2.77   1 2.77   6 2.77
  28  0.000  0.666  0.832-  10 1.96  10 1.96   5 2.76   2 2.76
  29  0.000  0.500  0.501-  11 1.96  11 1.96   5 2.77   2 2.77   1 2.79   4 2.79
  30  0.000  0.333  0.167-  12 1.96  12 1.96   1 2.70   6 2.70   4 2.70   3 2.70

  LATTYP: Found a base centered orthorhombic cell.
 ALAT       =     7.8418842240
 B/A-ratio  =     3.0036668006
 C/A-ratio  =     0.4994611144

  Lattice vectors:

 A1 = (   0.0000000000,   3.9209421070,  11.7772036489)
 A2 = (   0.0000000000,   3.9209421170, -11.7772036489)
 A3 = (  -3.9167162337,   0.0000000000,   0.0000000000)

Analysis of symmetry for initial positions (statically):
 Subroutine PRICEL returns:
 Original cell was already a primitive cell.

 Routine SETGRP: Setting up the symmetry group for a
 base centered orthorhombic supercell.

 Subroutine GETGRP returns: Found  8 space group operations
 (whereof  2 operations were pure point group operations)
 out of a pool of  8 trial point group operations.

The static configuration has the point symmetry C_1h.
 The point group associated with its full space group is D_2h.

Analysis of symmetry for dynamics (positions and initial velocities):
 Subroutine PRICEL returns:
 Original cell was already a primitive cell.

[...]

The dynamic configuration has the point symmetry C_1h.
 The point group associated with its full space group is D_2h.

Analysis of structural, dynamic, and magnetic symmetry:
 Subroutine PRICEL returns:
 Original cell was already a primitive cell.

 Routine SETGRP: Setting up the symmetry group for a
 base centered orthorhombic supercell.

 Subroutine GETGRP returns: Found  8 space group operations
 (whereof  2 operations were pure point group operations)
 out of a pool of  8 trial point group operations.

The magnetic configuration has the point symmetry C_1h.
 The point group associated with its full space group is D_2h.

 Subroutine INISYM returns: Found  8 space group operations
 (whereof  2 operations are pure point group operations),
 and found     1 'primitive' translations

 KPOINTS: Automatic mesh

Automatic generation of k-mesh.
 generate k-points for:    5    3    2
Space group operators:
 irot       det(A)        alpha          n_x          n_y          n_z        tau_x        tau_y        tau_z
    1     1.000000     0.000001     1.000000     0.000000     0.000000     0.000000     0.000000     0.000000
    2    -1.000000   180.000000     1.000000     0.000000     0.000000     0.000000     0.000000     0.000000
    3    -1.000000     0.000001     1.000000     0.000000     0.000000     0.000000     0.666667     0.333333
    4     1.000000   180.000000     1.000000     0.000000     0.000000     0.000000     0.666667     0.333333
    5     1.000000   180.000000     0.000000    -0.000000     1.000000     0.000000     0.500000    -0.000000
    6    -1.000000   180.000000     0.000000    -0.000000     1.000000     0.000000     0.166667    -0.666667
    7     1.000000   180.000000     0.000000    -1.000000    -0.000000     0.000000     0.166667    -0.666667
    8    -1.000000   180.000000     0.000000    -1.000000    -0.000000     0.000000     0.500000    -0.000000

 Subroutine IBZKPT returns following result:

 Found     12 irreducible k-points:

 Following reciprocal coordinates:
            Coordinates               Weight
  0.000000  0.000000  0.000000      1.000000
  0.200000  0.000000  0.000000      2.000000
  0.400000  0.000000  0.000000      2.000000
  0.000000  0.333333  0.000000      2.000000
  0.200000  0.333333  0.000000      4.000000
  0.400000  0.333333  0.000000      4.000000
  0.000000 -0.000000  0.500000      1.000000
  0.200000 -0.000000  0.500000      2.000000
  0.400000 -0.000000  0.500000      2.000000
  0.000000  0.333333  0.500000      2.000000
  0.200000  0.333333  0.500000      4.000000
  0.400000  0.333333  0.500000      4.000000

 Following cartesian coordinates:
            Coordinates               Weight
  0.000000  0.000000  0.000000      1.000000
  0.051063  0.000000  0.000000      2.000000
  0.102126  0.000000  0.000000      2.000000
  0.000000  0.042507  0.014152      2.000000
  0.051063  0.042507  0.014152      4.000000
  0.102126  0.042507  0.014152      4.000000
  0.000000 -0.000000  0.042455      1.000000
  0.051063 -0.000000  0.042455      2.000000
  0.102126 -0.000000  0.042455      2.000000
  0.000000  0.042507  0.056607      2.000000
[...]
     30      -7.9644      1.00000
     31      -7.9643      1.00000
     32      -7.9389      1.00000
     33      -7.9270      1.00000
     34      -7.8466      1.00000
     35      -7.8394      1.00000
     36      -7.8373      1.00000
     37      -7.5716      1.00000
     38      -7.5683      1.00000
     39      -7.4100      1.00000
     40      -7.3913      1.00000
     41      -7.3747      1.00000
     42      -7.2610      1.00000
     43       0.2397      1.00000
     44       0.5197      1.00000
     45       0.8334      1.00000
     46       1.0054      1.00000
     47       1.0382      1.00000
     48       1.2536      1.00000
     49       1.4703      1.00000
     50       1.6760      1.00000
     51       1.7946      1.00000
     52       1.8515      1.00000
     53       1.8772      1.00000
     54       2.1225      1.00000
     55       2.1549      1.00000
     56       2.2649      1.00000
     57       2.2754      1.00000
     58       2.2975      1.00000
     59       2.3253      1.00000
     60       2.3500      1.00000
[...]
    130      10.1791      0.00000
    131      10.2475      0.00000
    132      10.2662      0.00000
    133      10.3301      0.00000
    134      10.3612      0.00000
    135      10.3774      0.00000
    136      10.3920      0.00000
    137      10.4133      0.00000
    138      10.4275      0.00000
    139      10.4326      0.00000
    140      10.4612      0.00000
    141      10.4860      0.00000
    142      10.5164      0.00000
    143      10.5543      0.00000
    144      10.5914      0.00000

[...]

 spin component 2

[...]

 k-point    12 :       0.4000    0.3333    0.5000
  band No.  band energies     occupation
      1     -24.4766      1.00000
      2     -24.4643      1.00000
      3     -24.4541      1.00000
      4     -24.4344      1.00000
      5     -24.4317      1.00000
      6     -24.4105      1.00000
      7     -11.3165      1.00000
      8     -11.1646      1.00000
      9     -11.0489      1.00000
     10     -10.7818      1.00000
     11     -10.7574      1.00000
     12     -10.5725      1.00000
     13     -10.5307      1.00000
     14     -10.4471      1.00000
     15     -10.4022      1.00000
     16     -10.3062      1.00000
     17     -10.2018      1.00000
     18     -10.1224      1.00000
     19     -10.1052      1.00000
     20     -10.0328      1.00000
     21     -10.0215      1.00000
     22      -9.9416      1.00000
     23      -9.9104      1.00000
     24      -9.8085      1.00000
     25      -8.3178      1.00000
     26      -8.2530      1.00000
     27      -8.1779      1.00000
     28      -8.0889      1.00000
     29      -8.0563      1.00000
     30      -8.0250      1.00000
     31      -7.9900      1.00000
     32      -7.9242      1.00000
     33      -7.9045      1.00000
     34      -7.7767      1.00000
     35      -7.7504      1.00000
     36      -7.7358      1.00000
     37      -7.7028      1.00000
     38      -7.6789      1.00000
     39      -7.5566      1.00000
     40      -7.5326      1.00000
     41      -7.4720      1.00000
     42      -7.3613      1.00000
     43       1.2497      1.00000
     44       1.4700      1.00000
     45       1.5838      1.00000
     46       1.8281      1.00000
     47       1.8750      1.00000
     48       2.0737      1.00000
     49       2.2188      1.00000
     50       2.2400      1.00000
     51       2.6319      1.00000
     52       2.7419      1.00000
     53       2.8101      1.00000
     54       2.9258      1.00000
     55       2.9971      1.00000
     56       3.0397      1.00000
     57       3.0876      1.00000
     58       3.1084      1.00000
     59       3.1152      1.00000
     60       3.1484      1.00000
[...]
    130      10.4771      0.00000
    131      10.4836      0.00000
    132      10.4891      0.00000
    133      10.4980      0.00000
    134      10.5199      0.00000
    135      10.5249      0.00000
    136      10.5385      0.00000
    137      10.5753      0.00000
    138      10.6063      0.00000
    139      10.6192      0.00000
    140      10.6742      0.00000
    141      10.7584      0.00000
    142      10.9379      0.00000
    143      11.1790      0.00000
    144      11.3765      0.00000

 soft charge-density along one line, spin component           1
         0         1         2         3         4         5         6         7         8         9
 total charge-density along one line

 soft charge-density along one line, spin component           2
         0         1         2         3         4         5         6         7         8         9
 total charge-density along one line

------------------------ aborting loop because EDIFF is reached ----------------------------------------

 total charge

# of ion       s       p       d       f       tot
    1        1.999   5.694   0.473   0.182   8.348
    2        1.999   5.696   0.477   0.184   8.355
    3        1.999   5.694   0.473   0.182   8.348
    4        1.999   5.694   0.473   0.182   8.348
    5        1.999   5.696   0.477   0.184   8.354
    6        1.999   5.694   0.473   0.182   8.349
    7        0.305   0.452   4.895   0.000   5.652
    8        0.323   0.492   4.885   0.000   5.700
    9        0.335   0.514   4.875   0.000   5.724
   10        0.305   0.452   4.895   0.000   5.652
   11        0.323   0.492   4.885   0.000   5.700
   12        0.388   0.551   8.324   0.000   9.263
   13        1.563   3.459   0.000   0.000   5.022
   14        1.565   3.452   0.000   0.000   5.017
   15        1.565   3.453   0.000   0.000   5.018
   16        1.563   3.459   0.000   0.000   5.022
   17        1.560   3.459   0.000   0.000   5.019
   18        1.560   3.459   0.000   0.000   5.019
   19        1.564   3.457   0.000   0.000   5.021
   20        1.564   3.457   0.000   0.000   5.021
   21        1.560   3.459   0.000   0.000   5.019
   22        1.564   3.456   0.000   0.000   5.020
   23        1.564   3.456   0.000   0.000   5.020
   24        1.560   3.459   0.000   0.000   5.019
   25        1.564   3.460   0.000   0.000   5.024
   26        1.563   3.457   0.000   0.000   5.020
   27        1.565   3.457   0.000   0.000   5.023
   28        1.563   3.457   0.000   0.000   5.020
   29        1.564   3.460   0.000   0.000   5.024
   30        1.554   3.460   0.000   0.000   5.014
tot         42.096  99.360  35.605   1.096 178.157

 magnetization (x)

[...]

  FORCE on cell =-STRESS in cart. coord.  units (eV):
  Direction    XX          YY          ZZ          XY          YZ          ZX
  Alpha Z   962.95145   962.95145   962.95145
  Ewald   -4805.06992 -4863.18004 -4908.78009    -0.00000    -0.00002    -0.00000
  Hartree  1063.06681  1010.07835   970.18812     0.00000    -0.00002    -0.00000
  E(xc)   -1005.24805 -1005.34034 -1005.28315     0.00000     0.00001    -0.00000
  Local    -626.27285  -513.77688  -428.45514     0.00000    -0.00028    -0.00000
  n-local   389.20509   389.36615   389.23346     0.73308     0.01961     0.00580
  augment   199.11414   197.93158   197.95743    -0.00000     0.00052     0.00000
  Kinetic  3824.08222  3822.89187  3822.39053    -2.03349    -0.04624    -0.02446
  Fock        0.00000     0.00000     0.00000     0.00000     0.00000     0.00000
  Total       1.82889     0.92214     0.20261     0.00000    -0.00000     0.00000
  in kB       8.10055     4.08434     0.89739     0.00000    -0.00000     0.00000

 VOLUME and BASIS-vectors are now :
  energy-cutoff  :      520.00
  volume of cell :      361.73
      direct lattice vectors                 reciprocal lattice vectors
     3.916716234  0.000000000  0.000000000     0.255315918  0.000000000  0.000000000
     0.000000000  7.841884224  0.000000000     0.000000000  0.127520373  0.042454900
     0.000000000 -3.920942117 11.777203649     0.000000000 -0.000000000  0.084909799

  length of vectors
     3.916716234  7.841884224 12.412747998     0.255315918  0.134401875  0.084909799

 FORCES acting on ions
    electron-ion (+dipol)            ewald-force                    non-local-force                 convergence-correction
   0.169E-14 0.644E+02 -.920E+02   0.584E-13 -.639E+02 0.912E+02   0.000E+00 -.465E+00 0.544E+00   0.190E-13 -.654E-01 0.149E+00
   -.113E-14 -.250E-04 -.778E-05   0.443E-13 0.834E-04 -.308E-03   0.000E+00 0.339E-20 0.000E+00   0.542E-14 -.309E-06 0.124E-04
   -.540E-14 -.644E+02 0.920E+02   -.406E-13 0.639E+02 -.912E+02   0.000E+00 0.465E+00 -.544E+00   0.407E-14 0.654E-01 -.149E+00
   -.128E-13 -.644E+02 -.920E+02   -.311E-13 0.639E+02 0.912E+02   0.000E+00 0.465E+00 0.544E+00   0.155E-13 0.654E-01 0.149E+00
   0.209E-14 -.261E-04 -.667E-05   -.203E-13 0.778E-04 -.303E-03   0.000E+00 0.271E-19 0.000E+00   0.110E-13 0.208E-06 0.119E-04
   0.922E-15 0.644E+02 0.920E+02   -.483E-14 -.639E+02 -.912E+02   0.000E+00 -.465E+00 -.544E+00   0.953E-14 -.654E-01 -.149E+00
   0.587E-13 0.451E-04 -.123E+02   -.106E-14 -.146E-05 0.118E+02   -.136E-19 -.169E-09 0.401E+00   0.617E-14 -.248E-06 0.582E-01
   0.556E-13 0.444E-04 0.317E+02   -.178E-14 0.321E-04 -.314E+02   0.542E-19 0.127E-09 -.301E+00   0.744E-14 0.720E-07 -.726E-01
   0.580E-13 0.165E-04 0.594E-04   0.595E-14 -.159E-04 -.336E-03   0.000E+00 0.000E+00 0.000E+00   0.565E-14 -.612E-06 -.227E-05
   0.577E-13 0.711E-04 0.123E+02   -.237E-14 0.118E-04 -.118E+02   0.678E-20 0.169E-09 -.401E+00   0.345E-14 -.467E-06 -.582E-01
   0.575E-13 0.316E-04 -.317E+02   -.178E-13 -.108E-05 0.314E+02   -.542E-19 -.127E-09 0.301E+00   0.133E-14 0.302E-06 0.726E-01
   0.308E-12 0.196E-04 0.814E-04   0.355E-13 -.259E-04 -.465E-03   0.000E+00 0.271E-19 0.847E-21   0.420E-13 0.557E-06 -.310E-05
   0.112E-12 0.592E-05 0.196E+02   -.140E-13 -.423E-04 -.221E+02   0.542E-19 -.101E-08 0.240E+01   0.120E-13 0.325E-06 -.751E-02
   0.120E-12 -.947E-03 -.430E+02   0.133E-13 0.342E-04 0.444E+02   0.000E+00 0.606E-09 -.144E+01   0.179E-13 -.427E-06 0.563E-01
   0.120E-12 -.465E-03 0.430E+02   -.183E-13 -.314E-05 -.444E+02   0.000E+00 -.606E-09 0.144E+01   0.819E-14 -.124E-06 -.563E-01
   0.109E-12 0.484E-04 -.196E+02   0.481E-14 -.413E-04 0.221E+02   -.542E-19 0.101E-08 -.240E+01   0.209E-13 -.208E-06 0.752E-02
   0.117E-12 -.101E-02 -.785E+02   -.257E-13 0.685E-04 0.742E+02   0.000E+00 -.174E-08 0.414E+01   0.736E-14 0.131E-07 0.200E+00
   0.117E-12 -.472E-03 0.785E+02   0.163E-13 0.106E-04 -.742E+02   0.000E+00 0.174E-08 -.414E+01   0.245E-13 0.115E-05 -.200E+00
   0.119E-12 0.149E+02 0.167E+02   -.669E-14 -.151E+02 -.163E+02   0.000E+00 0.102E+00 -.402E+00   0.179E-13 -.142E-01 -.539E-01
   0.118E-12 -.150E+02 -.167E+02   0.278E-13 0.151E+02 0.163E+02   0.000E+00 -.102E+00 0.402E+00   0.479E-14 0.142E-01 0.539E-01
   0.120E-12 -.559E+02 0.129E-04   0.156E-14 0.507E+02 -.194E-03   0.867E-18 0.498E+01 0.802E-11   0.117E-13 0.158E+00 -.110E-05
   0.121E-12 -.150E+02 0.167E+02   -.121E-14 0.151E+02 -.163E+02   0.434E-18 -.102E+00 -.402E+00   0.208E-13 0.142E-01 -.539E-01
   0.116E-12 0.149E+02 -.167E+02   -.344E-13 -.151E+02 0.163E+02   -.434E-18 0.102E+00 0.402E+00   0.112E-13 -.142E-01 0.539E-01
   0.121E-12 0.559E+02 0.436E-04   0.198E-13 -.507E+02 -.191E-03   -.867E-18 -.498E+01 -.802E-11   0.106E-13 -.158E+00 -.246E-05
   -.232E-14 -.974E-03 0.279E+02   -.293E-13 -.464E-04 -.278E+02   -.542E-19 -.424E-10 0.101E+00   0.149E-13 0.534E-06 -.602E-01
   -.235E-14 -.461E-03 -.595E+01   -.295E-13 -.356E-05 0.512E+01   0.000E+00 -.364E-09 0.864E+00   0.106E-13 -.104E-06 0.471E-01
   -.222E-14 0.172E-04 0.293E-04   0.164E-13 0.638E-04 -.186E-03   0.000E+00 0.000E+00 0.000E+00   0.185E-13 -.615E-06 -.176E-05
   -.565E-15 -.955E-03 0.595E+01   0.290E-13 -.576E-04 -.512E+01   0.000E+00 0.364E-09 -.864E+00   0.183E-13 0.273E-06 -.471E-01
   -.519E-14 -.467E-03 -.279E+02   0.350E-14 -.284E-05 0.278E+02   0.542E-19 0.424E-10 -.101E+00   0.122E-13 0.411E-06 0.602E-01
   -.524E-14 0.157E-04 0.272E-04   0.247E-14 0.598E-04 -.200E-03   0.000E+00 -.136E-19 -.136E-19   0.807E-14 0.297E-06 -.180E-05
   0.197E-11 -.108E-01 0.107E-01   0.308E-15 0.146E-12 -.853E-13   -.678E-20 0.888E-15 -.694E-16   0.381E-12 0.294E-05 -.279E-05

 POSITION                                       TOTAL-FORCE (eV/Angst)
      0.00000      0.05266      3.86765         0.000000      0.030512     -0.083826
      0.00000     -0.00000      7.85147        -0.000000     -0.000000      0.000000
      0.00000      3.86829      0.05808        -0.000000     -0.030512      0.083826
      0.00000      3.86829      3.86765         0.000000     -0.030512     -0.083826
      0.00000      3.92094      7.85147        -0.000000     -0.000000     -0.000000
      0.00000      0.05266      0.05808        -0.000000      0.030512      0.083826
      1.95836      5.88141      5.88138        -0.000000      0.000000     -0.031546
      1.95836     -1.96047      9.81811        -0.000000      0.000000     -0.035638
      1.95836      5.88141      1.96287        -0.000000     -0.000000      0.000000
      1.95836      1.96047      9.82156        -0.000000     -0.000000      0.031546
      1.95836      1.96047      5.88482        -0.000000     -0.000000      0.035638
      1.95836      1.96047      1.96287        -0.000000     -0.000000      0.000000
      1.95836     -1.96047      7.88776        -0.000000      0.000000     -0.045269
      1.95836      5.88141      3.90178        -0.000000     -0.000000      0.091266
      1.95836      5.88141      0.02396        -0.000000      0.000000     -0.091266
      1.95836      1.96047      7.81518        -0.000000     -0.000000      0.045269
      1.95836      1.96047      3.95570        -0.000000     -0.000000      0.008407
      1.95836     -1.96047     11.74724        -0.000000      0.000000     -0.008407
      1.95836      3.92227      9.80156        -0.000000     -0.080377     -0.009423
      1.95836      3.91961      5.90137        -0.000000      0.080377      0.009423
      1.95836      3.96783      1.96287        -0.000000     -0.047771     -0.000000
      1.95836     -0.00133      9.80156        -0.000000      0.080377     -0.009423
      1.95836      0.00133      5.90137        -0.000000     -0.080377      0.009423
      1.95836     -0.04689      1.96287        -0.000000      0.047771      0.000000
      0.00000     -1.96047      9.80557        -0.000000     -0.000000      0.051126
      0.00000     -1.96047      5.90679         0.000000     -0.000000      0.084359
      0.00000      5.88141      1.96287        -0.000000     -0.000000      0.000000
      0.00000      1.96047      9.79615        -0.000000      0.000000     -0.084359
      0.00000      1.96047      5.89737        -0.000000      0.000000     -0.051126
      0.00000      1.96047      1.96287        -0.000000      0.000000     -0.000000
    total drift:                                0.000000     -0.010814      0.010662

  FREE ENERGIE OF THE ION-ELECTRON SYSTEM (eV)
  free  energy   TOTEN  =      -232.32268409 eV

  energy  without entropy=     -232.32268409  energy(sigma->0) =     -232.32268409

 total charge

[...]

 magnetization (x)

# of ion       s       p       d       f       tot
    1        0.001   0.001   0.009   0.006   0.016
    2        0.001   0.001   0.013   0.007   0.022
    3        0.001   0.001   0.009   0.006   0.016
    4        0.001   0.001   0.009   0.006   0.016
    5        0.001   0.001   0.013   0.007   0.022
    6        0.001   0.001   0.009   0.006   0.016
    7        0.024   0.024   3.870   0.000   3.918
    8        0.025   0.029   3.707   0.000   3.761
    9        0.028   0.031   3.592   0.000   3.650
   10        0.024   0.024   3.870   0.000   3.919
   11        0.025   0.029   3.707   0.000   3.761
   12        0.011   0.004   1.721   0.000   1.736
   13        0.005  -0.039   0.000   0.000  -0.034
   14        0.007  -0.036   0.000   0.000  -0.029
   15        0.007  -0.036   0.000   0.000  -0.029
   16        0.005  -0.039   0.000   0.000  -0.034
   17        0.005  -0.002   0.000   0.000   0.003
   18        0.005  -0.002   0.000   0.000   0.003
   19        0.006  -0.033   0.000   0.000  -0.027
   20        0.006  -0.033   0.000   0.000  -0.027
   21        0.005  -0.009   0.000   0.000  -0.004
   22        0.006  -0.034   0.000   0.000  -0.028
   23        0.006  -0.034   0.000   0.000  -0.028
   24        0.005  -0.008   0.000   0.000  -0.004
   25        0.005  -0.036   0.000   0.000  -0.031
   26        0.005  -0.038   0.000   0.000  -0.033
   27        0.006  -0.041   0.000   0.000  -0.035
   28        0.005  -0.038   0.000   0.000  -0.033
   29        0.005  -0.036   0.000   0.000  -0.031
   30        0.006   0.036   0.000   0.000   0.042
tot          0.243  -0.313  20.530   0.037  20.497

 BZINTS: Fermi energy:  7.980462;219.000000 electrons
         Band energy:-420.340257;  BLOECHL correction: -0.132963