 vasp.5.4.4.18Apr17-6-g9f103f2a35 (build Oct 03 2018 13:58:34) complex

 executed on             LinuxIFC date 2019.06.04  02:03:59

 INCAR:
 POTCAR:    PAW_PBE La 06Sep2000
 POTCAR:    PAW_PBE Mn 06Sep2000
 POTCAR:    PAW_PBE Ni 02Aug2007
 POTCAR:    PAW_PBE O 08Apr2002

 POTCAR:    PAW_PBE La 06Sep2000
   VRHFIN =La : [core=Kr4d]

   TITEL  = PAW_PBE La 06Sep2000
   POMASS =  138.900; ZVAL   =   11.000    mass and valenz
   ENMAX  =  219.292; ENMIN  =  164.469 eV

 POTCAR:    PAW_PBE Mn 06Sep2000
   VRHFIN =Mn: d6 s1

   TITEL  = PAW_PBE Mn 06Sep2000
   POMASS =   54.938; ZVAL   =    7.000    mass and valenz
   ENMAX  =  269.864; ENMIN  =  202.398 eV

 POTCAR:    PAW_PBE Ni 02Aug2007
   VRHFIN =Ni:

   TITEL  = PAW_PBE Ni 02Aug2007
   POMASS =   58.690; ZVAL   =   10.000    mass and valenz
   ENMAX  =  269.532; ENMIN  =  202.149 eV

 POTCAR:    PAW_PBE O 08Apr2002
   VRHFIN =O: s2p4

   TITEL  = PAW_PBE O 08Apr2002
   POMASS =   16.000; ZVAL   =    6.000    mass and valenz
   ENMAX  =  400.000; ENMIN  =  300.000 eV

 Optimization of the real space projectors (new method)

 maximal supplied QI-value         = 13.42
 optimisation between [QCUT,QGAM] = [ 11.67, 23.35] = [ 38.16,152.62] Ry
 Optimized for a Real-space Cutoff    1.63 Angstroem

   l    n(q)    QCUT    max X(q) W(low)/X(q) W(high)/X(q)  e(spline)
   0     11    11.673    13.882    0.27E-04    0.79E-05    0.11E-06
   0     11    11.673    12.184    0.39E-04    0.13E-04    0.19E-06
   1     11    11.673     4.523    0.73E-05    0.76E-05    0.12E-06
   1     11    11.673     4.424    0.87E-05    0.13E-04    0.19E-06
   2     10    11.673    52.481    0.65E-04    0.36E-04    0.18E-06
   2     10    11.673    38.501    0.61E-04    0.33E-04    0.17E-06
   3     10    11.673    65.631    0.17E-03    0.14E-03    0.37E-06
   3     10    11.673    56.854    0.17E-03    0.14E-03    0.37E-06
 Optimization of the real space projectors (new method)

[...]

   l    n(q)    QCUT    max X(q) W(low)/X(q) W(high)/X(q)  e(spline)
   2      9    11.539    60.317    0.19E-03    0.47E-04    0.16E-06
   2      9    11.539    55.921    0.19E-03    0.48E-04    0.16E-06
   0     10    11.539    51.690    0.80E-04    0.50E-04    0.24E-06
   0     10    11.539    30.015    0.73E-04    0.45E-04    0.22E-06
   1     10    11.539    18.849    0.87E-04    0.16E-03    0.71E-07
   1     10    11.539    14.624    0.73E-04    0.13E-03    0.64E-07
 Optimization of the real space projectors (new method)

 maximal supplied QI-value         = 24.76
 optimisation between [QCUT,QGAM] = [ 11.64, 23.27] = [ 37.91,151.63] Ry
 Optimized for a Real-space Cutoff    1.14 Angstroem

   l    n(q)    QCUT    max X(q) W(low)/X(q) W(high)/X(q)  e(spline)
   0      8    11.635    20.381    0.10E-03    0.33E-03    0.24E-06
   0      8    11.635    15.268    0.11E-03    0.35E-03    0.26E-06
   1      7    11.635     5.964    0.24E-03    0.31E-03    0.30E-06
   1      7    11.635     5.382    0.22E-03    0.25E-03    0.26E-06
  PAW_PBE La 06Sep2000                  :
  PAW_PBE Mn 06Sep2000                  :
  PAW_PBE Ni 02Aug2007                  :
  PAW_PBE O 08Apr2002                   :

 POSCAR: SCEL6_1_3_2_1_0_0/2
  positions in direct lattice
  velocities in cartesian coordinates
 exchange correlation table for  LEXCH =        8
   RHO(1)=    0.500       N(1)  =     2000
   RHO(2)=  100.500       N(2)  =     4000

 ion  position               nearest neighbor table
   1  0.000  0.656  0.172-  22 2.67  22 2.67  28 2.69  30 2.69  13 2.78  13 2.78  17 2.78  17 2.78
                            11 3.31  11 3.31  12 3.31  12 3.31   2 3.65
   2  0.000  0.344  0.328-  22 2.67  22 2.67  30 2.69  28 2.69  16 2.78  16 2.78  18 2.78  18 2.78
                            12 3.31  12 3.31  11 3.31  11 3.31   1 3.65
   3  0.000  0.992  0.496-  28 2.67  17 2.70  17 2.70  29 2.73  20 2.74  20 2.74  21 2.77  21 2.77
                            26 2.78  15 2.81  15 2.81  11 3.31  11 3.31  10 3.36  10 3.36   7 3.40
   4  0.000  0.664  0.659-  28 2.66  16 2.70  16 2.70  20 2.73  20 2.73  27 2.73  26 2.78  19 2.78
                            19 2.78  14 2.81  14 2.81  25 2.82  11 3.31  11 3.31   9 3.37   9 3.37
   5  0.000  0.336  0.841-  30 2.66  13 2.70  13 2.70  24 2.73  24 2.73  25 2.73  26 2.78  19 2.78
                            19 2.78  15 2.81  15 2.81  27 2.82  12 3.31  12 3.31   8 3.37   8 3.37
   6  0.000  0.008  0.004-  30 2.67  18 2.70  18 2.70  29 2.73  24 2.74  24 2.74  23 2.77  23 2.77
                            26 2.78  14 2.81  14 2.81  12 3.31  12 3.31  10 3.36  10 3.36   7 3.40
   7  0.500  0.000  0.750-  20 1.90  24 1.90  26 1.95  26 1.95  14 1.97  15 1.97   4 3.39   4 3.39
                             5 3.39   5 3.39   6 3.40   3 3.40   6 3.40   3 3.40
   8  0.500  0.667  0.917-  13 1.91  14 1.92  23 1.94  25 1.95  25 1.95  19 1.96   5 3.37   5 3.37
                             6 3.43   6 3.43
   9  0.500  0.333  0.583-  16 1.91  15 1.92  21 1.94  27 1.95  27 1.95  19 1.96   4 3.37   4 3.37
                             3 3.43   3 3.43
  10  0.500  0.000  0.250-  17 1.90  18 1.90  29 1.95  29 1.95  21 1.95  23 1.95   3 3.36   3 3.36
                             6 3.36   6 3.36
  11  0.500  0.668  0.418-  28 1.95  28 1.95  22 1.96  20 1.99  16 1.99  17 1.99   4 3.31   4 3.31
                             3 3.31   3 3.31   1 3.31   1 3.31   2 3.31   2 3.31
  12  0.500  0.332  0.082-  30 1.95  30 1.95  22 1.96  24 1.99  13 1.99  18 1.99   5 3.31   5 3.31
                             6 3.31   6 3.31   2 3.31   2 3.31   1 3.31   1 3.31
  13  0.500  0.502  0.997-   8 1.91  12 1.99   5 2.70   5 2.70   1 2.78   1 2.78
  14  0.500  0.832  0.834-   8 1.92   7 1.97   4 2.81   4 2.81   6 2.81   6 2.81
  15  0.500  0.168  0.666-   9 1.92   7 1.97   5 2.81   5 2.81   3 2.81   3 2.81
  16  0.500  0.498  0.503-   9 1.91  11 1.99   4 2.70   4 2.70   2 2.78   2 2.78
  17  0.500  0.839  0.333-  10 1.90  11 1.99   3 2.70   3 2.70   1 2.78   1 2.78
  18  0.500  0.161  0.167-  10 1.90  12 1.99   6 2.70   6 2.70   2 2.78   2 2.78
  19  0.500  0.500  0.750-   8 1.96   9 1.96   4 2.78   5 2.78   4 2.78   5 2.78
  20  0.500  0.837  0.588-   7 1.90  11 1.99   4 2.73   4 2.73   3 2.74   3 2.74
  21  0.500  0.166  0.417-   9 1.94  10 1.95   3 2.77   3 2.77
  22  0.500  0.500  0.250-  11 1.96  12 1.96   1 2.67   2 2.67   1 2.67   2 2.67
  23  0.500  0.834  0.083-   8 1.94  10 1.95   6 2.77   6 2.77
  24  0.500  0.163  0.912-   7 1.90  12 1.99   5 2.73   5 2.73   6 2.74   6 2.74
  25  0.000  0.666  0.916-   8 1.95   8 1.95   5 2.73   4 2.82
  26  0.000  0.000  0.750-   7 1.95   7 1.95   4 2.78   5 2.78   3 2.78   6 2.78
  27  0.000  0.334  0.584-   9 1.95   9 1.95   4 2.73   5 2.82
  28  0.000  0.669  0.419-  11 1.95  11 1.95   4 2.66   3 2.67   1 2.69   2 2.69
  29  0.000  0.000  0.250-  10 1.95  10 1.95   3 2.73   6 2.73
  30  0.000  0.331  0.081-  12 1.95  12 1.95   5 2.66   6 2.67   2 2.69   1 2.69

  LATTYP: Found a simple monoclinic cell.
 ALAT       =    11.7044684749
 B/A-ratio  =     0.3331667646
 C/A-ratio  =     1.4898731332
 COS(beta)  =    -0.8947763924

  Lattice vectors:

 A1 = (   0.0000000000, -11.7044682999,   0.0020241661)
 A2 = (   3.8995398935,   0.0000000000,   0.0000000000)
 A3 = (   0.0000000000,  15.6046119760,   7.7836987873)

Analysis of symmetry for initial positions (statically):
 Subroutine PRICEL returns:
 Original cell was already a primitive cell.

 Routine SETGRP: Setting up the symmetry group for a
 simple monoclinic supercell.

 Subroutine GETGRP returns: Found  4 space group operations
 (whereof  2 operations were pure point group operations)
 out of a pool of  4 trial point group operations.

The static configuration has the point symmetry C_1h.
 The point group associated with its full space group is C_2h.

Analysis of symmetry for dynamics (positions and initial velocities):
 Subroutine PRICEL returns:
 Original cell was already a primitive cell.

[...]

The dynamic configuration has the point symmetry C_1h.
 The point group associated with its full space group is C_2h.

Analysis of structural, dynamic, and magnetic symmetry:
 Subroutine PRICEL returns:
 Original cell was already a primitive cell.

 Routine SETGRP: Setting up the symmetry group for a
 simple monoclinic supercell.

 Subroutine GETGRP returns: Found  4 space group operations
 (whereof  2 operations were pure point group operations)
 out of a pool of  4 trial point group operations.

The magnetic configuration has the point symmetry C_1h.
 The point group associated with its full space group is C_2h.

 Subroutine INISYM returns: Found  4 space group operations
 (whereof  2 operations are pure point group operations),
 and found     1 'primitive' translations

 KPOINTS: Automatic mesh

Automatic generation of k-mesh.
 generate k-points for:    5    2    2
Space group operators:
 irot       det(A)        alpha          n_x          n_y          n_z        tau_x        tau_y        tau_z
    1     1.000000     0.000000     1.000000     0.000000     0.000000     0.000000     0.000000     0.000000
    2    -1.000000   180.000000     1.000000     0.000000     0.000000     0.000000     0.000000     0.000000
    3    -1.000000     0.000000     1.000000     0.000000     0.000000     0.000000     1.000000     0.500000
    4     1.000000   180.000000     1.000000     0.000000     0.000000     0.000000     1.000000     0.500000

 Subroutine IBZKPT returns following result:

 Found     12 irreducible k-points:

 Following reciprocal coordinates:
            Coordinates               Weight
  0.000000  0.000000  0.000000      1.000000
  0.200000  0.000000  0.000000      2.000000
  0.400000  0.000000  0.000000      2.000000
  0.000000  0.500000 -0.000000      1.000000
  0.200000  0.500000 -0.000000      2.000000
  0.400000  0.500000 -0.000000      2.000000
  0.000000  0.000000  0.500000      1.000000
  0.200000  0.000000  0.500000      2.000000
  0.400000  0.000000  0.500000      2.000000
  0.000000  0.500000  0.500000      1.000000
  0.200000  0.500000  0.500000      2.000000
  0.400000  0.500000  0.500000      2.000000

 Following cartesian coordinates:
            Coordinates               Weight
  0.000000  0.000000  0.000000      1.000000
 -0.051288  0.000000  0.000000      2.000000
 -0.102576  0.000000  0.000000      2.000000
  0.000000  0.042726  0.042817      1.000000
 -0.051288  0.042726  0.042817      2.000000
 -0.102576  0.042726  0.042817      2.000000
  0.000000  0.042715 -0.021397      1.000000
 -0.051288  0.042715 -0.021397      2.000000
 -0.102576  0.042715 -0.021397      2.000000
  0.000000  0.085441  0.021420      1.000000
 -0.051288  0.085441  0.021420      2.000000
 -0.102576  0.085441  0.021420      2.000000

 TETIRR: Found     60 inequivalent tetrahedra from      120

 SYSTEM =  final
 POSCAR =  SCEL6_1_3_2_1_0_0/2

 Startparameter for this run:
   NWRITE =      2    write-flag & timer
   PREC   = accura    normal or accurate (medium, high low for compatibility)
   ISTART =      0    job   : 0-new  1-cont  2-samecut
   ICHARG =      1    charge: 1-file 2-atom 10-const
   ISPIN  =      2    spin polarized calculation?
   LNONCOLLINEAR =      F non collinear calculations
[...]
     30      -7.6044      1.00000
     31      -7.6042      1.00000
     32      -7.5747      1.00000
     33      -7.5159      1.00000
     34      -7.5000      1.00000
     35      -7.4920      1.00000
     36      -7.3431      1.00000
     37      -7.3075      1.00000
     38      -7.2294      1.00000
     39      -7.1952      1.00000
     40      -7.1197      1.00000
     41      -7.0136      1.00000
     42      -6.8439      1.00000
     43       0.4814      1.00000
     44       0.5224      1.00000
     45       0.9068      1.00000
     46       1.0581      1.00000
     47       1.2679      1.00000
     48       1.4010      1.00000
     49       1.4349      1.00000
     50       1.5068      1.00000
     51       1.5095      1.00000
     52       1.9294      1.00000
     53       2.0236      1.00000
     54       2.0706      1.00000
     55       2.1183      1.00000
     56       2.1212      1.00000
     57       2.1695      1.00000
     58       2.2483      1.00000
     59       2.2645      1.00000
     60       2.2878      1.00000
[...]
    130      10.5539      0.00000
    131      10.5988      0.00000
    132      10.6205      0.00000
    133      10.6741      0.00000
    134      10.6908      0.00000
    135      10.7437      0.00000
    136      10.7539      0.00000
    137      10.7716      0.00000
    138      10.7883      0.00000
    139      10.8055      0.00000
    140      10.8147      0.00000
    141      10.8410      0.00000
    142      10.8539      0.00000
    143      10.8649      0.00000
    144      10.9041      0.00000

[...]

 spin component 2

[...]

 k-point    12 :       0.4000    0.5000    0.5000
  band No.  band energies     occupation
      1     -24.1315      1.00000
      2     -24.1178      1.00000
      3     -24.1096      1.00000
      4     -24.0992      1.00000
      5     -24.0697      1.00000
      6     -24.0445      1.00000
      7     -11.0964      1.00000
      8     -11.0522      1.00000
      9     -10.8886      1.00000
     10     -10.8039      1.00000
     11     -10.3829      1.00000
     12     -10.3791      1.00000
     13     -10.3034      1.00000
     14     -10.2540      1.00000
     15     -10.2275      1.00000
     16     -10.1238      1.00000
     17     -10.0251      1.00000
     18      -9.9924      1.00000
     19      -9.8789      1.00000
     20      -9.8638      1.00000
     21      -9.8256      1.00000
     22      -9.7732      1.00000
     23      -9.7327      1.00000
     24      -9.4827      1.00000
     25      -8.0378      1.00000
     26      -8.0042      1.00000
     27      -7.9304      1.00000
     28      -7.8814      1.00000
     29      -7.6696      1.00000
     30      -7.6538      1.00000
     31      -7.6155      1.00000
     32      -7.5698      1.00000
     33      -7.5319      1.00000
     34      -7.5246      1.00000
     35      -7.4056      1.00000
     36      -7.4017      1.00000
     37      -7.2568      1.00000
     38      -7.2307      1.00000
     39      -7.1659      1.00000
     40      -7.1572      1.00000
     41      -7.1298      1.00000
     42      -6.9513      1.00000
     43       1.2814      1.00000
     44       1.2825      1.00000
     45       1.8394      1.00000
     46       1.9099      1.00000
     47       2.0143      1.00000
     48       2.1677      1.00000
     49       2.2644      1.00000
     50       2.3908      1.00000
     51       2.4201      1.00000
     52       2.6160      1.00000
     53       2.7899      1.00000
     54       2.8383      1.00000
     55       2.9397      1.00000
     56       3.0915      1.00000
     57       3.1076      1.00000
     58       3.1170      1.00000
     59       3.1301      1.00000
     60       3.1335      1.00000
[...]
    130      10.8204      0.00000
    131      10.8294      0.00000
    132      10.8385      0.00000
    133      10.8577      0.00000
    134      10.8666      0.00000
    135      10.8817      0.00000
    136      10.8863      0.00000
    137      10.8940      0.00000
    138      10.9009      0.00000
    139      10.9187      0.00000
    140      10.9283      0.00000
    141      10.9355      0.00000
    142      10.9950      0.00000
    143      11.0296      0.00000
    144      11.3783      0.00000

 soft charge-density along one line, spin component           1
         0         1         2         3         4         5         6         7         8         9
 total charge-density along one line

 soft charge-density along one line, spin component           2
         0         1         2         3         4         5         6         7         8         9
 total charge-density along one line

------------------------ aborting loop because EDIFF is reached ----------------------------------------

 total charge

# of ion       s       p       d       f       tot
    1        2.000   5.695   0.485   0.187   8.366
    2        2.000   5.695   0.485   0.187   8.366
    3        2.000   5.698   0.486   0.189   8.373
    4        2.000   5.698   0.488   0.189   8.375
    5        2.000   5.698   0.488   0.189   8.375
    6        2.000   5.698   0.486   0.189   8.373
    7        0.329   0.509   4.880   0.000   5.717
    8        0.328   0.504   4.872   0.000   5.704
    9        0.328   0.504   4.873   0.000   5.705
   10        0.334   0.517   4.875   0.000   5.725
   11        0.398   0.577   8.335   0.000   9.309
   12        0.398   0.577   8.335   0.000   9.309
   13        1.562   3.456   0.000   0.000   5.018
   14        1.563   3.458   0.000   0.000   5.021
   15        1.563   3.458   0.000   0.000   5.021
   16        1.562   3.456   0.000   0.000   5.018
   17        1.561   3.461   0.000   0.000   5.022
   18        1.561   3.461   0.000   0.000   5.022
   19        1.564   3.456   0.000   0.000   5.020
   20        1.561   3.461   0.000   0.000   5.022
   21        1.564   3.452   0.000   0.000   5.016
   22        1.556   3.461   0.000   0.000   5.016
   23        1.564   3.452   0.000   0.000   5.016
   24        1.561   3.461   0.000   0.000   5.022
   25        1.564   3.451   0.000   0.000   5.016
   26        1.564   3.460   0.000   0.000   5.024
   27        1.565   3.452   0.000   0.000   5.016
   28        1.556   3.461   0.000   0.000   5.017
   29        1.564   3.456   0.000   0.000   5.021
   30        1.556   3.461   0.000   0.000   5.017
tot         42.223  99.600  39.087   1.130 182.040

 magnetization (x)

[...]

  FORCE on cell =-STRESS in cart. coord.  units (eV):
  Direction    XX          YY          ZZ          XY          YZ          ZX
  Alpha Z   976.15664   976.15664   976.15664
  Ewald   -4934.43488 -5016.06364 -5073.85341     0.00000     3.39878    -0.00000
  Hartree  1166.20744  1091.69483  1027.72994     0.00000     3.55649    -0.00000
  E(xc)   -1025.90247 -1025.97810 -1026.08682    -0.00000     0.00078     0.00000
  Local    -766.29205  -608.26421  -483.97298    -0.00000    -6.85579    -0.00000
  n-local   402.93573   403.21845   403.60568    -0.00161     0.01901    -0.00097
  augment   344.80040   343.77377   342.81544    -0.00000    -0.00015    -0.00000
  Kinetic  3837.54982  3835.53244  3834.32716     0.00418    -0.10947    -0.00169
  Fock        0.00000     0.00000     0.00000     0.00000     0.00000     0.00000
  Total       1.02062     0.07018     0.72165     0.00000     0.00965     0.00000
  in kB       4.60123     0.31637     3.25340     0.00000     0.04348     0.00000

 VOLUME and BASIS-vectors are now :
  energy-cutoff  :      520.00
  volume of cell :      355.39
      direct lattice vectors                 reciprocal lattice vectors
    -3.899539893  0.000000000  0.000000000    -0.256440510  0.000000000  0.000000000
     0.000000000  3.900143676  7.785722953     0.000000000  0.085452266  0.085634165
     0.000000000  7.804324624 -7.787747120     0.000000000  0.085430055 -0.042794933

  length of vectors
     3.899539893  8.707962023 11.025265894     0.256440510  0.120976444  0.095549467

 FORCES acting on ions
    electron-ion (+dipol)            ewald-force                    non-local-force                 convergence-correction
   0.420E-14 0.661E+01 -.135E+03   -.374E-13 -.663E+01 0.134E+03   0.000E+00 -.612E-02 0.113E+01   -.346E-13 0.392E-02 0.493E-01
   0.110E-13 -.661E+01 0.135E+03   0.135E-13 0.663E+01 -.134E+03   0.000E+00 0.612E-02 -.113E+01   -.150E-13 -.392E-02 -.493E-01
   0.244E-14 -.836E+02 -.573E+02   0.272E-13 0.828E+02 0.569E+02   0.000E+00 0.684E+00 0.334E+00   -.357E-13 0.238E-01 0.184E-01
   0.211E-14 -.769E+02 0.674E+02   0.155E-13 0.761E+02 -.670E+02   0.000E+00 0.686E+00 -.373E+00   -.750E-14 0.289E-01 -.179E-01
   0.950E-14 0.769E+02 -.674E+02   -.140E-14 -.761E+02 0.670E+02   0.000E+00 -.686E+00 0.373E+00   -.412E-13 -.289E-01 0.179E-01
   0.759E-14 0.836E+02 0.573E+02   -.188E-13 -.828E+02 -.569E+02   0.000E+00 -.684E+00 -.334E+00   -.155E-13 -.238E-01 -.184E-01
   -.614E-13 0.110E-11 -.158E-11   0.306E-15 -.284E-13 0.666E-14   0.000E+00 0.339E-20 0.000E+00   0.161E-13 -.175E-12 0.105E-12
   -.635E-13 0.296E+01 -.288E+02   -.106E-13 -.282E+01 0.285E+02   0.000E+00 -.912E-01 0.377E+00   0.135E-13 -.534E-02 0.204E-01
   -.559E-13 -.296E+01 0.288E+02   -.602E-15 0.282E+01 -.285E+02   0.000E+00 0.912E-01 -.377E+00   0.197E-13 0.534E-02 -.204E-01
   -.630E-13 0.125E-13 -.299E-12   0.269E-14 -.142E-13 0.284E-13   0.000E+00 0.339E-20 0.000E+00   0.207E-13 0.236E-12 0.305E-13
   -.323E-12 -.442E+02 0.203E+01   0.775E-14 0.429E+02 -.212E+01   0.000E+00 0.137E+01 0.100E+00   -.653E-14 0.409E-01 -.323E-02
   -.335E-12 0.442E+02 -.203E+01   -.898E-14 -.429E+02 0.212E+01   0.000E+00 -.137E+01 -.100E+00   -.361E-14 -.409E-01 0.323E-02
   -.121E-12 0.976E+01 -.784E+02   -.278E-14 -.914E+01 0.737E+02   0.000E+00 -.642E+00 0.475E+01   0.966E-14 -.158E-01 0.128E-02
   -.118E-12 0.215E+01 0.673E+01   0.158E-13 -.222E+01 -.559E+01   0.000E+00 0.744E-01 -.115E+01   -.232E-13 -.131E-02 0.689E-02
   -.121E-12 -.215E+01 -.673E+01   -.511E-16 0.222E+01 0.559E+01   0.000E+00 -.744E-01 0.115E+01   0.630E-14 0.131E-02 -.689E-02
   -.115E-12 -.976E+01 0.784E+02   0.303E-14 0.914E+01 -.737E+02   0.000E+00 0.642E+00 -.475E+01   -.330E-13 0.158E-01 -.128E-02
   -.116E-12 -.756E+01 -.671E+02   0.208E-13 0.691E+01 0.618E+02   0.000E+00 0.668E+00 0.528E+01   0.994E-14 0.155E-01 0.212E-01
   -.118E-12 0.756E+01 0.671E+02   0.342E-14 -.691E+01 -.618E+02   0.000E+00 -.668E+00 -.528E+01   -.269E-13 -.155E-01 -.212E-01
   -.112E-12 0.554E-12 -.111E-11   -.851E-14 0.178E-13 -.817E-13   0.000E+00 -.169E-20 -.508E-20   -.147E-14 -.202E-12 0.887E-13
   -.103E-12 -.715E+02 0.117E+01   0.201E-13 0.666E+02 -.118E+01   0.000E+00 0.493E+01 0.180E-01   -.297E-14 0.968E-03 -.312E-03
   -.114E-12 -.145E+02 0.635E+01   -.247E-13 0.142E+02 -.579E+01   0.000E+00 0.344E+00 -.552E+00   0.608E-14 -.154E-01 -.128E-01
   -.113E-12 0.261E-11 0.170E-11   0.568E-14 -.284E-13 0.395E-13   0.000E+00 -.212E-20 0.424E-20   -.274E-14 -.412E-13 -.222E-12
   -.117E-12 0.145E+02 -.635E+01   0.152E-13 -.142E+02 0.579E+01   0.000E+00 -.344E+00 0.552E+00   0.378E-16 0.154E-01 0.128E-01
   -.114E-12 0.715E+02 -.117E+01   -.358E-13 -.666E+02 0.118E+01   0.000E+00 -.493E+01 -.180E-01   0.982E-14 -.968E-03 0.312E-03
   0.101E-13 0.449E+00 -.250E+02   0.378E-13 -.747E-01 0.254E+02   0.000E+00 -.399E+00 -.429E+00   -.217E-13 -.583E-02 0.161E-01
   0.401E-14 0.143E-11 -.164E-11   -.917E-14 -.426E-13 -.506E-13   0.000E+00 0.271E-19 0.000E+00   -.279E-13 -.137E-12 0.127E-12
   0.139E-14 -.449E+00 0.250E+02   -.993E-14 0.747E-01 -.254E+02   0.000E+00 0.399E+00 0.429E+00   -.346E-13 0.583E-02 -.161E-01
   0.226E-14 -.252E+02 0.172E+01   -.513E-14 0.251E+02 -.177E+01   0.000E+00 0.127E+00 0.515E-01   -.155E-13 0.211E-01 0.201E-03
   0.473E-14 0.100E-11 -.124E-11   -.450E-14 -.213E-13 0.178E-13   0.000E+00 0.169E-20 -.169E-20   -.298E-13 0.235E-12 0.626E-13
   0.108E-13 0.252E+02 -.172E+01   0.187E-13 -.251E+02 0.177E+01   0.000E+00 -.127E+00 -.515E-01   -.233E-13 -.211E-01 -.201E-03
   -.221E-11 0.311E-10 -.218E-10   0.291E-13 0.604E-13 0.417E-13   0.000E+00 0.833E-16 -.895E-15   -.291E-12 0.253E-12 0.175E-12

 POSITION                                       TOTAL-FORCE (eV/Angst)
      0.00000      3.90044      3.77218         0.000000     -0.019211     -0.158218
      0.00000      3.90187      0.11966         0.000000      0.019211      0.158218
      0.00000      7.73647      3.85994         0.000000     -0.066890     -0.042321
      0.00000      7.73608      0.03895         0.000000     -0.089963      0.061710
      0.00000      7.87055     -3.93484         0.000000      0.089963     -0.061710
      0.00000      0.06584      0.03191         0.000000      0.066890      0.042321
     -1.94977      5.85324     -5.84081         0.000000      0.000000      0.000000
     -1.94977      9.75852     -1.94506         0.000000      0.039848      0.023433
     -1.94977      5.84811     -1.95083         0.000000     -0.039848     -0.023433
     -1.94977      1.95108     -1.94694         0.000000      0.000000      0.000000
     -1.94977      5.86282      1.94741         0.000000      0.033984      0.009307
     -1.94977      1.93949      1.94444         0.000000     -0.033984     -0.009307
     -1.94977      9.73412     -3.85471         0.000000     -0.033079      0.040704
     -1.94977      9.75254     -0.02077         0.000000      0.007325      0.002660
     -1.94977      5.85409     -3.87513         0.000000     -0.007325     -0.002660
     -1.94977      5.87251     -0.04119         0.000000      0.033079     -0.040704
     -1.94977      5.87094      3.94089         0.000000      0.031494      0.025695
     -1.94977      1.93137     -0.04904         0.000000     -0.031494     -0.025695
     -1.94977      7.80332     -1.94795         0.000000      0.000000      0.000000
     -1.94977      7.85133      1.94388         0.000000      0.024916      0.004566
     -1.94977      3.90492     -1.95779         0.000000      0.072436      0.002249
     -1.94977      3.90115      1.94592         0.000000      0.000000      0.000000
     -1.94977      3.89738      5.84964         0.000000     -0.072436     -0.002249
     -1.94977      7.75530     -5.83978         0.000000     -0.024916     -0.004566
      0.00000      9.74349     -1.94812         0.000000     -0.030507     -0.050545
      0.00000      5.85324     -5.84081         0.000000      0.000000      0.000000
      0.00000      5.86314     -1.94778         0.000000      0.030507      0.050545
      0.00000      5.87702      1.94771         0.000000      0.017161      0.009768
      0.00000      1.95108     -1.94694         0.000000      0.000000      0.000000
      0.00000      1.92529      1.94414         0.000000     -0.017161     -0.009768
    total drift:                               -0.000000      0.000000     -0.000000

  FREE ENERGIE OF THE ION-ELECTRON SYSTEM (eV)
  free  energy   TOTEN  =      -226.56404852 eV

  energy  without entropy=     -226.56404852  energy(sigma->0) =     -226.56404852

 total charge

[...]

 magnetization (x)

# of ion       s       p       d       f       tot
    1        0.000   0.000   0.005   0.003   0.009
    2        0.000   0.000   0.005   0.003   0.009
    3        0.001   0.001   0.010   0.005   0.017
    4        0.001   0.001   0.010   0.005   0.017
    5        0.001   0.001   0.010   0.005   0.017
    6        0.001   0.001   0.010   0.005   0.017
    7        0.023   0.027   3.587   0.000   3.637
    8        0.023   0.024   3.583   0.000   3.630
    9        0.023   0.024   3.583   0.000   3.631
   10        0.024   0.027   3.542   0.000   3.593
   11        0.013   0.008   1.680   0.000   1.700
   12        0.013   0.008   1.680   0.000   1.700
   13        0.006  -0.018   0.000   0.000  -0.013
   14        0.004  -0.034   0.000   0.000  -0.030
   15        0.004  -0.034   0.000   0.000  -0.030
   16        0.006  -0.018   0.000   0.000  -0.013
   17        0.005  -0.009   0.000   0.000  -0.004
   18        0.005  -0.009   0.000   0.000  -0.004
   19        0.004  -0.043   0.000   0.000  -0.038
   20        0.005  -0.016   0.000   0.000  -0.011
   21        0.005  -0.046   0.000   0.000  -0.041
   22        0.007   0.033   0.000   0.000   0.040
   23        0.005  -0.046   0.000   0.000  -0.041
   24        0.005  -0.016   0.000   0.000  -0.011
   25        0.005  -0.049   0.000   0.000  -0.045
   26        0.005  -0.035   0.000   0.000  -0.030
   27        0.005  -0.049   0.000   0.000  -0.045
   28        0.006   0.015   0.000   0.000   0.021
   29        0.005  -0.044   0.000   0.000  -0.039
   30        0.006   0.015   0.000   0.000   0.021
tot          0.214  -0.284  17.706   0.027  17.663

 BZINTS: Fermi energy:  7.856481;222.000000 electrons
         Band energy:-368.436143;  BLOECHL correction: -0.126082