 vasp.5.4.4.18Apr17-6-g9f103f2a35 (build Oct 03 2018 13:58:34) complex

 executed on             LinuxIFC date 2019.06.04  02:14:04

 INCAR:
 POTCAR:    PAW_PBE La 06Sep2000
 POTCAR:    PAW_PBE Mn 06Sep2000
 POTCAR:    PAW_PBE Ni 02Aug2007
 POTCAR:    PAW_PBE O 08Apr2002

 POTCAR:    PAW_PBE La 06Sep2000
   VRHFIN =La : [core=Kr4d]

   TITEL  = PAW_PBE La 06Sep2000
   POMASS =  138.900; ZVAL   =   11.000    mass and valenz
   ENMAX  =  219.292; ENMIN  =  164.469 eV

 POTCAR:    PAW_PBE Mn 06Sep2000
   VRHFIN =Mn: d6 s1

   TITEL  = PAW_PBE Mn 06Sep2000
   POMASS =   54.938; ZVAL   =    7.000    mass and valenz
   ENMAX  =  269.864; ENMIN  =  202.398 eV

 POTCAR:    PAW_PBE Ni 02Aug2007
   VRHFIN =Ni:

   TITEL  = PAW_PBE Ni 02Aug2007
   POMASS =   58.690; ZVAL   =   10.000    mass and valenz
   ENMAX  =  269.532; ENMIN  =  202.149 eV

 POTCAR:    PAW_PBE O 08Apr2002
   VRHFIN =O: s2p4

   TITEL  = PAW_PBE O 08Apr2002
   POMASS =   16.000; ZVAL   =    6.000    mass and valenz
   ENMAX  =  400.000; ENMIN  =  300.000 eV

 Optimization of the real space projectors (new method)

 maximal supplied QI-value         = 13.42
 optimisation between [QCUT,QGAM] = [ 11.67, 23.35] = [ 38.16,152.62] Ry
 Optimized for a Real-space Cutoff    1.63 Angstroem

   l    n(q)    QCUT    max X(q) W(low)/X(q) W(high)/X(q)  e(spline)
   0     11    11.673    13.882    0.27E-04    0.79E-05    0.11E-06
   0     11    11.673    12.184    0.39E-04    0.13E-04    0.19E-06
   1     11    11.673     4.523    0.73E-05    0.76E-05    0.12E-06
   1     11    11.673     4.424    0.87E-05    0.13E-04    0.19E-06
   2     10    11.673    52.481    0.65E-04    0.36E-04    0.18E-06
   2     10    11.673    38.501    0.61E-04    0.33E-04    0.17E-06
   3     10    11.673    65.631    0.17E-03    0.14E-03    0.37E-06
   3     10    11.673    56.854    0.17E-03    0.14E-03    0.37E-06
 Optimization of the real space projectors (new method)

[...]

   l    n(q)    QCUT    max X(q) W(low)/X(q) W(high)/X(q)  e(spline)
   2      9    11.539    60.317    0.19E-03    0.47E-04    0.16E-06
   2      9    11.539    55.921    0.19E-03    0.48E-04    0.16E-06
   0     10    11.539    51.690    0.80E-04    0.50E-04    0.24E-06
   0     10    11.539    30.015    0.73E-04    0.45E-04    0.22E-06
   1     10    11.539    18.849    0.87E-04    0.16E-03    0.71E-07
   1     10    11.539    14.624    0.73E-04    0.13E-03    0.64E-07
 Optimization of the real space projectors (new method)

 maximal supplied QI-value         = 24.76
 optimisation between [QCUT,QGAM] = [ 11.64, 23.27] = [ 37.91,151.63] Ry
 Optimized for a Real-space Cutoff    1.14 Angstroem

   l    n(q)    QCUT    max X(q) W(low)/X(q) W(high)/X(q)  e(spline)
   0      8    11.635    20.381    0.10E-03    0.33E-03    0.24E-06
   0      8    11.635    15.268    0.11E-03    0.35E-03    0.26E-06
   1      7    11.635     5.964    0.24E-03    0.31E-03    0.30E-06
   1      7    11.635     5.382    0.22E-03    0.25E-03    0.26E-06
  PAW_PBE La 06Sep2000                  :
  PAW_PBE Mn 06Sep2000                  :
  PAW_PBE Ni 02Aug2007                  :
  PAW_PBE O 08Apr2002                   :

 POSCAR: SCEL6_3_2_1_0_1_0/2
  positions in direct lattice
  velocities in cartesian coordinates
 exchange correlation table for  LEXCH =        8
   RHO(1)=    0.500       N(1)  =     2000
   RHO(2)=  100.500       N(2)  =     4000

 ion  position               nearest neighbor table
   1  0.333  0.504  0.667-  30 2.73  16 2.73  14 2.73  26 2.73  21 2.75  19 2.75  23 2.76  23 2.76
                            27 2.77  13 2.77  17 2.77  29 2.77  12 3.35  11 3.35   7 3.36   7 3.36
   2  0.663  0.989  0.326-  28 2.67  18 2.67  24 2.71  16 2.74  26 2.74  22 2.77  22 2.77  25 2.79
                            15 2.79  20 2.82  12 3.29  11 3.33  11 3.33   7 3.38   9 3.39
   3  0.004  0.511  0.008-  18 2.67  28 2.67  19 2.71  14 2.74  30 2.74  21 2.77  21 2.77  15 2.79
                            25 2.79  23 2.82  11 3.29  12 3.33  12 3.33   7 3.38   8 3.39
   4  0.333  0.996  0.667-  30 2.73  16 2.73  14 2.73  26 2.73  24 2.75  22 2.75  20 2.76  20 2.76
                            27 2.77  13 2.77  17 2.77  29 2.77  12 3.35  11 3.35   7 3.36   7 3.36
   5  0.663  0.511  0.326-  28 2.67  18 2.67  21 2.71  16 2.74  26 2.74  19 2.77  19 2.77  25 2.79
                            15 2.79  23 2.82  12 3.29  11 3.33  11 3.33   7 3.38   9 3.39
   6  0.004  0.989  0.008-  18 2.67  28 2.67  22 2.71  14 2.74  30 2.74  24 2.77  24 2.77  15 2.79
                            25 2.79  20 2.82  11 3.29  12 3.33  12 3.33   7 3.38   8 3.39
   7  0.833  0.750  0.667-  14 1.91  26 1.91  30 1.91  16 1.91  20 1.93  23 1.93   1 3.36   4 3.36
                             1 3.36   4 3.36   3 3.38   6 3.38   5 3.38   2 3.38
   8  0.167  0.250  0.335-  19 1.90  22 1.90  29 1.94  13 1.94  15 1.96  25 1.96   3 3.39   6 3.39
                             4 3.39   1 3.39
   9  0.499  0.250  0.999-  21 1.90  24 1.90  27 1.94  17 1.94  25 1.96  15 1.96   2 3.39   5 3.39
                             4 3.39   1 3.39
  10  0.833  0.250  0.667-  17 1.95  29 1.95  27 1.95  13 1.95  20 1.96  23 1.96   1 3.40   4 3.40
                             1 3.40   4 3.40
  11  0.168  0.750  0.335-  18 1.96  28 1.96  26 1.99  16 1.99  19 1.99  22 1.99   3 3.29   6 3.29
                             5 3.33   2 3.33   2 3.33   5 3.33   1 3.35   4 3.35
  12  0.499  0.750  0.998-  28 1.96  18 1.96  30 1.99  14 1.99  21 1.99  24 1.99   2 3.29   5 3.29
                             3 3.33   6 3.33   3 3.33   6 3.33   1 3.35   4 3.35
  13  0.003  0.250  0.501-   8 1.94  10 1.95   1 2.77   4 2.77
  14  0.669  0.750  0.829-   7 1.91  12 1.99   1 2.73   4 2.73   3 2.74   6 2.74
  15  0.333  0.250  0.167-   8 1.96   9 1.96   3 2.79   6 2.79   5 2.79   2 2.79
  16  0.997  0.750  0.504-   7 1.91  11 1.99   1 2.73   4 2.73   2 2.74   5 2.74
  17  0.664  0.250  0.832-   9 1.94  10 1.95   1 2.77   4 2.77
  18  0.333  0.750  0.167-  11 1.96  12 1.96   3 2.67   6 2.67   5 2.67   2 2.67
  19  0.167  0.494  0.334-   8 1.90  11 1.99   3 2.71   1 2.75   5 2.77   5 2.77
  20  0.833  0.998  0.667-   7 1.93  10 1.96   4 2.76   4 2.76   6 2.82   2 2.82
  21  0.500  0.494  0.999-   9 1.90  12 1.99   5 2.71   1 2.75   3 2.77   3 2.77
  22  0.167  0.006  0.334-   8 1.90  11 1.99   6 2.71   4 2.75   2 2.77   2 2.77
  23  0.833  0.502  0.667-   7 1.93  10 1.96   1 2.76   1 2.76   3 2.82   5 2.82
  24  0.500  0.006  0.999-   9 1.90  12 1.99   2 2.71   4 2.75   6 2.77   6 2.77
  25  0.833  0.250  0.167-   8 1.96   9 1.96   2 2.79   5 2.79   3 2.79   6 2.79
  26  0.507  0.750  0.504-   7 1.91  11 1.99   1 2.73   4 2.73   2 2.74   5 2.74
  27  0.168  0.250  0.832-   9 1.94  10 1.95   1 2.77   4 2.77
  28  0.833  0.750  0.167-  11 1.96  12 1.96   2 2.67   5 2.67   3 2.67   6 2.67
  29  0.499  0.250  0.501-   8 1.94  10 1.95   1 2.77   4 2.77
  30  0.160  0.750  0.829-   7 1.91  12 1.99   1 2.73   4 2.73   3 2.74   6 2.74

  LATTYP: Found a base centered orthorhombic cell.
 ALAT       =     5.5255397641
 B/A-ratio  =     2.9962577550
 C/A-ratio  =     1.4101967314

  Lattice vectors:

 A1 = (   3.8998358919,   0.0000000000,  -7.8069825190)
 A2 = (  -7.8069825288,   0.0000000000,   3.8998358821)
 A3 = (   0.0000000000,   7.7920981147,   0.0000000000)

Analysis of symmetry for initial positions (statically):
 Subroutine PRICEL returns:
 Original cell was already a primitive cell.

 Routine SETGRP: Setting up the symmetry group for a
 base centered orthorhombic supercell.

 Subroutine GETGRP returns: Found  8 space group operations
 (whereof  2 operations were pure point group operations)
 out of a pool of  8 trial point group operations.

The static configuration has the point symmetry C_1h.
 The point group associated with its full space group is D_2h.

Analysis of symmetry for dynamics (positions and initial velocities):
 Subroutine PRICEL returns:
 Original cell was already a primitive cell.

[...]

The dynamic configuration has the point symmetry C_1h.
 The point group associated with its full space group is D_2h.

Analysis of structural, dynamic, and magnetic symmetry:
 Subroutine PRICEL returns:
 Original cell was already a primitive cell.

 Routine SETGRP: Setting up the symmetry group for a
 base centered orthorhombic supercell.

 Subroutine GETGRP returns: Found  8 space group operations
 (whereof  2 operations were pure point group operations)
 out of a pool of  8 trial point group operations.

The magnetic configuration has the point symmetry C_1h.
 The point group associated with its full space group is D_2h.

 Subroutine INISYM returns: Found  8 space group operations
 (whereof  2 operations are pure point group operations),
 and found     1 'primitive' translations

 KPOINTS: Automatic mesh

Automatic generation of k-mesh.
 generate k-points for:    4    3    2
Space group operators:
 irot       det(A)        alpha          n_x          n_y          n_z        tau_x        tau_y        tau_z
    1     1.000000     0.000000     1.000000     0.000000     0.000000     0.000000     0.000000     0.000000
    2    -1.000000   180.000000    -0.707107     0.000000    -0.707107     0.000000     0.000000     0.000000
    3    -1.000000     0.000000     1.000000     0.000000     0.000000    -0.333333    -0.500000     0.333333
    4     1.000000   180.000000     0.000000     1.000000     0.000000    -0.333333     0.000000     0.333333
    5    -1.000000   180.000000     0.000000     1.000000     0.000000     0.000000    -0.500000     0.000000
    6     1.000000   180.000000     0.707107     0.000000    -0.707107     0.000000    -0.500000     0.000000
    7    -1.000000   180.000000     0.707107     0.000000    -0.707107    -0.333333     0.000000     0.333333
    8     1.000000   180.000000    -0.707107     0.000000    -0.707107    -0.333333    -0.500000     0.333333

 Subroutine IBZKPT returns following result:

 Found     10 irreducible k-points:

 Following reciprocal coordinates:
            Coordinates               Weight
  0.000000  0.000000  0.000000      1.000000
  0.250000  0.000000  0.000000      2.000000
  0.500000  0.000000  0.000000      2.000000
  0.000000  0.333333  0.000000      2.000000
  0.250000  0.333333  0.000000      4.000000
  0.500000  0.333333  0.000000      4.000000
  0.000000  0.000000  0.500000      1.000000
  0.250000  0.000000  0.500000      2.000000
  0.000000  0.333333  0.500000      2.000000
  0.250000  0.333333  0.500000      4.000000

 Following cartesian coordinates:
            Coordinates               Weight
  0.000000  0.000000  0.000000      1.000000
  0.042670  0.000000  0.021315      2.000000
  0.085340  0.000000  0.042630      2.000000
  0.000000 -0.042778  0.000000      2.000000
  0.042670 -0.042778  0.021315      4.000000
  0.085340 -0.042778  0.042630      4.000000
  0.042710  0.000000 -0.042710      1.000000
  0.085380  0.000000 -0.021395      2.000000
  0.042710 -0.042778 -0.042710      2.000000
  0.085380 -0.042778 -0.021395      4.000000

 TETIRR: Found     65 inequivalent tetrahedra from      144

 SYSTEM =  final
 POSCAR =  SCEL6_3_2_1_0_1_0/2

 Startparameter for this run:
   NWRITE =      2    write-flag & timer
[...]
     30      -7.7484      1.00000
     31      -7.7419      1.00000
     32      -7.7243      1.00000
     33      -7.6874      1.00000
     34      -7.6459      1.00000
     35      -7.6177      1.00000
     36      -7.5964      1.00000
     37      -7.5407      1.00000
     38      -7.3774      1.00000
     39      -7.2948      1.00000
     40      -7.2310      1.00000
     41      -7.1915      1.00000
     42      -6.8841      1.00000
     43       0.2839      1.00000
     44       0.2894      1.00000
     45       0.3918      1.00000
     46       0.8721      1.00000
     47       0.9890      1.00000
     48       1.1516      1.00000
     49       1.1651      1.00000
     50       1.3736      1.00000
     51       1.3822      1.00000
     52       1.3919      1.00000
     53       1.5060      1.00000
     54       1.5121      1.00000
     55       1.5363      1.00000
     56       1.5922      1.00000
     57       1.6805      1.00000
     58       1.6807      1.00000
     59       1.7505      1.00000
     60       1.8435      1.00000
[...]
    130      10.5459      0.00000
    131      10.5699      0.00000
    132      10.6106      0.00000
    133      10.6212      0.00000
    134      10.6405      0.00000
    135      10.6785      0.00000
    136      10.7002      0.00000
    137      10.7037      0.00000
    138      10.7215      0.00000
    139      10.7438      0.00000
    140      10.7691      0.00000
    141      10.7983      0.00000
    142      10.8196      0.00000
    143      10.8254      0.00000
    144      10.8436      0.00000

[...]

 spin component 2

[...]

 k-point    10 :       0.2500    0.3333    0.5000
  band No.  band energies     occupation
      1     -24.2121      1.00000
      2     -24.1929      1.00000
      3     -24.1806      1.00000
      4     -24.1572      1.00000
      5     -24.1429      1.00000
      6     -24.1105      1.00000
      7     -11.2119      1.00000
      8     -11.1106      1.00000
      9     -11.0401      1.00000
     10     -10.8666      1.00000
     11     -10.7644      1.00000
     12     -10.4919      1.00000
     13     -10.2914      1.00000
     14     -10.2497      1.00000
     15     -10.1572      1.00000
     16     -10.0892      1.00000
     17     -10.0469      1.00000
     18      -9.9671      1.00000
     19      -9.8793      1.00000
     20      -9.8344      1.00000
     21      -9.7844      1.00000
     22      -9.7313      1.00000
     23      -9.6034      1.00000
     24      -9.3974      1.00000
     25      -8.0424      1.00000
     26      -7.8578      1.00000
     27      -7.7839      1.00000
     28      -7.6993      1.00000
     29      -7.6680      1.00000
     30      -7.6524      1.00000
     31      -7.6048      1.00000
     32      -7.5579      1.00000
     33      -7.5451      1.00000
     34      -7.5051      1.00000
     35      -7.4380      1.00000
     36      -7.4276      1.00000
     37      -7.3679      1.00000
     38      -7.2980      1.00000
     39      -7.2483      1.00000
     40      -7.2220      1.00000
     41      -7.1332      1.00000
     42      -7.0293      1.00000
     43       1.3939      1.00000
     44       1.7530      1.00000
     45       1.9239      1.00000
     46       2.0868      1.00000
     47       2.2514      1.00000
     48       2.3736      1.00000
     49       2.4467      1.00000
     50       2.5075      1.00000
     51       2.6609      1.00000
     52       2.7849      1.00000
     53       2.9064      1.00000
     54       2.9510      1.00000
     55       3.0699      1.00000
     56       3.1014      1.00000
     57       3.1281      1.00000
     58       3.1488      1.00000
     59       3.1800      1.00000
     60       3.1919      1.00000
[...]
    130      10.7651      0.00000
    131      10.7713      0.00000
    132      10.7808      0.00000
    133      10.7908      0.00000
    134      10.8050      0.00000
    135      10.8194      0.00000
    136      10.8273      0.00000
    137      10.8441      0.00000
    138      10.8627      0.00000
    139      10.8830      0.00000
    140      10.8852      0.00000
    141      10.9076      0.00000
    142      10.9434      0.00000
    143      10.9599      0.00000
    144      11.0800      0.00000

 soft charge-density along one line, spin component           1
         0         1         2         3         4         5         6         7         8         9
 total charge-density along one line

 soft charge-density along one line, spin component           2
         0         1         2         3         4         5         6         7         8         9
 total charge-density along one line

------------------------ aborting loop because EDIFF is reached ----------------------------------------

 total charge

# of ion       s       p       d       f       tot
    1        1.998   5.698   0.482   0.188   8.366
    2        1.999   5.696   0.485   0.187   8.367
    3        1.999   5.696   0.485   0.187   8.367
    4        1.998   5.698   0.482   0.188   8.366
    5        1.999   5.696   0.485   0.187   8.367
    6        1.999   5.696   0.485   0.187   8.367
    7        0.350   0.555   4.860   0.000   5.765
    8        0.334   0.517   4.864   0.000   5.715
    9        0.334   0.517   4.865   0.000   5.716
   10        0.311   0.465   4.898   0.000   5.674
   11        0.388   0.556   8.330   0.000   9.274
   12        0.388   0.556   8.330   0.000   9.274
   13        1.564   3.451   0.000   0.000   5.015
   14        1.560   3.461   0.000   0.000   5.021
   15        1.563   3.454   0.000   0.000   5.016
   16        1.560   3.461   0.000   0.000   5.021
   17        1.564   3.451   0.000   0.000   5.015
   18        1.555   3.463   0.000   0.000   5.018
   19        1.560   3.458   0.000   0.000   5.018
   20        1.565   3.455   0.000   0.000   5.020
   21        1.560   3.458   0.000   0.000   5.018
   22        1.560   3.458   0.000   0.000   5.018
   23        1.565   3.455   0.000   0.000   5.020
   24        1.560   3.458   0.000   0.000   5.018
   25        1.565   3.452   0.000   0.000   5.017
   26        1.560   3.458   0.000   0.000   5.018
   27        1.566   3.452   0.000   0.000   5.018
   28        1.555   3.466   0.000   0.000   5.020
   29        1.565   3.452   0.000   0.000   5.018
   30        1.560   3.458   0.000   0.000   5.018
tot         42.202  99.566  39.051   1.124 181.943

 magnetization (x)

[...]

  FORCE on cell =-STRESS in cart. coord.  units (eV):
  Direction    XX          YY          ZZ          XY          YZ          ZX
  Alpha Z   973.34798   973.34798   973.34798
  Ewald   -4978.53042 -5068.48889 -4978.53044    -0.00000     0.00000     4.63848
  Hartree  1123.27689  1028.08721  1123.27697     0.00000    -0.00000     6.42573
  E(xc)   -1025.69398 -1025.75637 -1025.69396    -0.00000     0.00000    -0.01581
  Local    -676.34742  -485.95034  -676.34692     0.00000     0.00000   -11.77054
  n-local   402.77269   403.41000   402.48699     0.09957     0.08628    -0.08187
  augment   345.20969   343.20205   345.20765     0.00000    -0.00000     0.12064
  Kinetic  3835.52265  3831.20438  3835.31872    -0.05505    -0.00459     0.57673
  Fock        0.00000     0.00000     0.00000     0.00000     0.00000     0.00000
  Total      -0.68747    -0.94399    -0.68747     0.00000     0.00000    -0.06286
  in kB      -3.09038    -4.24349    -3.09038     0.00000     0.00000    -0.28255

 VOLUME and BASIS-vectors are now :
  energy-cutoff  :      520.00
  volume of cell :      356.41
      direct lattice vectors                 reciprocal lattice vectors
     3.907146637  0.000000000  3.907146637     0.170680778  0.000000000  0.085260473
     0.000000000 -7.792098115  0.000000000     0.000000000 -0.128335140  0.000000000
     3.899835892  0.000000000 -7.806982519     0.085420305  0.000000000 -0.085420305

  length of vectors
     5.525539764  7.792098115  8.726837688     0.190791185  0.128335140  0.120802554

 FORCES acting on ions
    electron-ion (+dipol)            ewald-force                    non-local-force                 convergence-correction
   -.183E-04 -.634E+02 0.506E-03   -.154E-03 0.633E+02 0.167E-03   0.271E-19 0.166E+00 -.163E-18   0.559E-05 0.133E-02 -.697E-05
   -.372E+02 0.102E+03 0.372E+02   0.367E+02 -.101E+03 -.367E+02   0.422E+00 -.783E+00 -.422E+00   0.256E-02 0.171E-02 -.256E-02
   0.372E+02 -.102E+03 -.372E+02   -.367E+02 0.101E+03 0.367E+02   -.422E+00 0.783E+00 0.422E+00   -.257E-02 -.171E-02 0.257E-02
   -.184E-04 0.634E+02 0.506E-03   -.154E-03 -.633E+02 0.167E-03   -.271E-19 -.166E+00 -.108E-18   0.559E-05 -.133E-02 -.697E-05
   -.372E+02 -.102E+03 0.372E+02   0.367E+02 0.101E+03 -.367E+02   0.422E+00 0.783E+00 -.422E+00   0.256E-02 -.171E-02 -.256E-02
   0.372E+02 0.102E+03 -.372E+02   -.367E+02 -.101E+03 0.367E+02   -.422E+00 -.783E+00 0.422E+00   -.257E-02 0.171E-02 0.257E-02
   0.314E-04 -.176E-11 -.121E-03   -.599E-04 -.430E-13 0.223E-03   -.254E-19 0.000E+00 0.119E-19   0.349E-05 0.592E-13 -.312E-05
   -.410E+01 -.100E-12 0.410E+01   0.429E+01 -.703E-13 -.429E+01   -.154E+00 0.000E+00 0.154E+00   0.335E-02 -.104E-12 -.335E-02
   0.410E+01 0.705E-12 -.410E+01   -.429E+01 -.551E-13 0.429E+01   0.154E+00 -.271E-19 -.154E+00   -.335E-02 -.116E-12 0.335E-02
   0.132E-04 0.240E-11 -.999E-04   -.478E-04 0.158E-13 0.204E-03   0.169E-20 0.000E+00 -.339E-20   0.354E-05 -.101E-12 -.319E-05
   -.334E+02 -.211E-14 0.334E+02   0.320E+02 -.223E-13 -.320E+02   0.143E+01 0.000E+00 -.143E+01   0.328E-02 0.107E-12 -.328E-02
   0.334E+02 -.206E-11 -.334E+02   -.320E+02 -.290E-13 0.320E+02   -.143E+01 -.271E-19 0.143E+01   -.329E-02 0.150E-12 0.329E-02
   0.664E+01 -.675E-12 0.149E+02   -.725E+01 -.140E-13 -.156E+02   0.652E+00 0.000E+00 0.778E+00   0.112E-02 -.900E-13 -.116E-01
   0.938E+01 -.165E-11 -.430E+02   -.931E+01 0.607E-14 0.381E+02   -.568E-01 0.000E+00 0.496E+01   -.983E-03 0.537E-13 -.150E-01
   -.514E-04 -.125E-11 0.385E-03   -.844E-05 0.216E-13 0.218E-03   0.000E+00 0.136E-19 0.542E-19   -.261E-05 -.101E-12 0.271E-05
   -.938E+01 -.196E-11 0.430E+02   0.931E+01 0.143E-13 -.381E+02   0.568E-01 0.000E+00 -.496E+01   0.985E-03 0.138E-13 0.150E-01
   -.664E+01 -.655E-12 -.149E+02   0.725E+01 0.102E-14 0.156E+02   -.652E+00 0.000E+00 -.778E+00   -.112E-02 -.939E-13 0.115E-01
   -.560E-04 -.334E-12 0.308E-03   -.416E-05 -.224E-13 0.280E-03   0.813E-19 0.271E-19 0.000E+00   -.256E-05 0.302E-13 0.264E-05
   -.120E+02 -.647E+02 0.120E+02   0.122E+02 0.596E+02 -.122E+02   -.174E+00 0.508E+01 0.174E+00   0.180E-02 -.175E-01 -.180E-02
   -.697E-04 0.385E+02 0.501E-03   -.761E-04 -.400E+02 0.982E-04   0.407E-19 0.149E+01 -.407E-19   0.329E-05 -.105E-01 -.285E-05
   0.120E+02 -.647E+02 -.120E+02   -.122E+02 0.596E+02 0.122E+02   0.174E+00 0.508E+01 -.174E+00   -.180E-02 -.175E-01 0.180E-02
   -.120E+02 0.647E+02 0.120E+02   0.122E+02 -.596E+02 -.122E+02   -.174E+00 -.508E+01 0.174E+00   0.180E-02 0.175E-01 -.180E-02
   -.700E-04 -.385E+02 0.501E-03   -.761E-04 0.400E+02 0.982E-04   0.813E-19 -.149E+01 0.217E-18   0.329E-05 0.105E-01 -.285E-05
   0.120E+02 0.647E+02 -.120E+02   -.122E+02 -.596E+02 0.122E+02   0.174E+00 -.508E+01 -.174E+00   -.180E-02 0.175E-01 0.180E-02
   -.583E-04 0.235E-12 0.563E-03   -.829E-05 0.211E-13 -.160E-04   0.217E-18 0.136E-19 -.217E-18   -.257E-05 -.100E-12 0.251E-05
   -.430E+02 -.186E-11 0.938E+01   0.381E+02 -.116E-13 -.931E+01   0.496E+01 0.108E-18 -.568E-01   -.150E-01 0.155E-13 -.985E-03
   0.149E+02 -.819E-12 0.664E+01   -.156E+02 -.131E-14 -.725E+01   0.778E+00 0.000E+00 0.652E+00   -.115E-01 -.106E-12 0.112E-02
   -.637E-04 -.108E-11 0.581E-03   -.397E-05 0.627E-14 -.195E-04   0.108E-18 0.271E-19 0.000E+00   -.250E-05 0.284E-13 0.244E-05
   -.149E+02 0.121E-11 -.664E+01   0.156E+02 -.224E-13 0.725E+01   -.778E+00 0.000E+00 -.652E+00   0.116E-01 -.804E-13 -.112E-02
   0.430E+02 -.109E-11 -.938E+01   -.381E+02 0.258E-14 0.931E+01   -.496E+01 -.108E-18 0.568E-01   0.150E-01 0.324E-13 0.983E-03
   -.120E-02 -.251E-10 0.117E-02   0.142E-13 0.940E-13 -.533E-14   0.266E-14 0.888E-15 0.666E-15   -.752E-06 -.164E-12 0.210E-05

 POSITION                                       TOTAL-FORCE (eV/Angst)
      3.90227     -3.92613     -3.90227        -0.000000      0.059117      0.000000
      3.85987     -7.70852      0.04727        -0.046481      0.032010      0.046481
      0.04484     -3.97963     -0.04484         0.046481     -0.032010     -0.046481
      3.90227     -7.76202     -3.90227        -0.000000     -0.059117      0.000000
      3.85987     -3.97963      0.04727        -0.046481     -0.032010      0.046481
      0.04484     -7.70852     -0.04484         0.046481      0.032010     -0.046481
      5.85585     -5.84407     -1.94870        -0.000000     -0.000000      0.000000
      1.95943     -1.94802     -1.95943         0.035397     -0.000000     -0.035397
      5.84512     -1.94802     -5.84512        -0.035397     -0.000000      0.035397
      5.85585     -1.94802     -1.94870        -0.000000     -0.000000      0.000000
      1.96146     -5.84407     -1.96145         0.024098     -0.000000     -0.024098
      5.84309     -5.84407     -5.84309        -0.024098     -0.000000      0.024098
      1.96470     -1.94802     -3.90348         0.043317     -0.000000      0.092997
      5.84882     -5.84407     -3.85781         0.015828     -0.000000      0.050569
      1.95235     -1.94802      0.00122        -0.000000     -0.000000      0.000000
      5.86287     -5.84407     -0.03959        -0.015828     -0.000000     -0.050569
      5.83985     -1.94802     -3.90106        -0.043317     -0.000000     -0.092997
      1.95235     -5.84407      0.00122        -0.000000     -0.000000      0.000000
      1.95633     -3.85016     -1.95633        -0.010203      0.011034      0.010203
      5.85585     -7.77795     -1.94870        -0.000000      0.043942      0.000000
      5.84822     -3.85016     -5.84822         0.010203      0.011034     -0.010203
      1.95633     -0.04589     -1.95633        -0.010203     -0.011034      0.010203
      5.85585     -3.91019     -1.94870        -0.000000     -0.043942      0.000000
      5.84822     -0.04589     -5.84822         0.010203     -0.011034     -0.010203
      3.90593     -1.94802      1.95479        -0.000000     -0.000000      0.000000
      3.94673     -5.84407     -1.95572         0.050569     -0.000000      0.015828
      3.90106     -1.94802     -5.83985         0.092997     -0.000000      0.043317
      3.90593     -5.84407      1.95479        -0.000000     -0.000000      0.000000
      3.90348     -1.94802     -1.96470        -0.092997     -0.000000     -0.043317
      3.85781     -5.84407     -5.84882        -0.050569     -0.000000     -0.015828
    total drift:                               -0.001196     -0.000000      0.001171

  FREE ENERGIE OF THE ION-ELECTRON SYSTEM (eV)
  free  energy   TOTEN  =      -226.75629396 eV

  energy  without entropy=     -226.75629396  energy(sigma->0) =     -226.75629396

 total charge

[...]

 magnetization (x)

# of ion       s       p       d       f       tot
    1        0.001   0.001   0.011   0.005   0.018
    2        0.000   0.001   0.007   0.004   0.012
    3        0.000   0.001   0.007   0.004   0.012
    4        0.001   0.001   0.011   0.005   0.018
    5        0.001   0.001   0.007   0.004   0.012
    6        0.001   0.001   0.007   0.004   0.012
    7        0.025   0.034   3.339   0.000   3.398
    8        0.025   0.029   3.517   0.000   3.571
    9        0.025   0.029   3.517   0.000   3.571
   10        0.021   0.019   3.785   0.000   3.825
   11        0.009   0.003   1.713   0.000   1.725
   12        0.009   0.003   1.713   0.000   1.725
   13        0.004  -0.047   0.000   0.000  -0.043
   14        0.004  -0.008   0.000   0.000  -0.004
   15        0.004  -0.034   0.000   0.000  -0.031
   16        0.004  -0.008   0.000   0.000  -0.004
   17        0.004  -0.047   0.000   0.000  -0.043
   18        0.007   0.046   0.000   0.000   0.053
   19        0.005  -0.007   0.000   0.000  -0.002
   20        0.005  -0.047   0.000   0.000  -0.042
   21        0.005  -0.007   0.000   0.000  -0.003
   22        0.005  -0.007   0.000   0.000  -0.002
   23        0.005  -0.047   0.000   0.000  -0.042
   24        0.005  -0.007   0.000   0.000  -0.002
   25        0.006  -0.037   0.000   0.000  -0.032
   26        0.005  -0.012   0.000   0.000  -0.007
   27        0.006  -0.047   0.000   0.000  -0.041
   28        0.007   0.046   0.000   0.000   0.053
   29        0.006  -0.047   0.000   0.000  -0.041
   30        0.005  -0.012   0.000   0.000  -0.007
tot          0.207  -0.208  17.635   0.026  17.660

 BZINTS: Fermi energy:  7.834979;222.000000 electrons
         Band energy:-375.392778;  BLOECHL correction: -0.028891