 vasp.5.4.4.18Apr17-6-g9f103f2a35 (build Oct 03 2018 13:58:34) complex

 executed on             LinuxIFC date 2019.06.04  19:22:22

 INCAR:
 POTCAR:    PAW_PBE La 06Sep2000
 POTCAR:    PAW_PBE Mn 06Sep2000
 POTCAR:    PAW_PBE O 08Apr2002

 POTCAR:    PAW_PBE La 06Sep2000
   VRHFIN =La : [core=Kr4d]

   TITEL  = PAW_PBE La 06Sep2000
   POMASS =  138.900; ZVAL   =   11.000    mass and valenz
   ENMAX  =  219.292; ENMIN  =  164.469 eV

 POTCAR:    PAW_PBE Mn 06Sep2000
   VRHFIN =Mn: d6 s1

   TITEL  = PAW_PBE Mn 06Sep2000
   POMASS =   54.938; ZVAL   =    7.000    mass and valenz
   ENMAX  =  269.864; ENMIN  =  202.398 eV

 POTCAR:    PAW_PBE O 08Apr2002
   VRHFIN =O: s2p4

   TITEL  = PAW_PBE O 08Apr2002
   POMASS =   16.000; ZVAL   =    6.000    mass and valenz
   ENMAX  =  400.000; ENMIN  =  300.000 eV

 Optimization of the real space projectors (new method)

 maximal supplied QI-value         = 13.42
 optimisation between [QCUT,QGAM] = [ 11.67, 23.35] = [ 38.16,152.62] Ry
 Optimized for a Real-space Cutoff    1.63 Angstroem

   l    n(q)    QCUT    max X(q) W(low)/X(q) W(high)/X(q)  e(spline)
   0     11    11.673    13.882    0.27E-04    0.79E-05    0.11E-06
   0     11    11.673    12.184    0.39E-04    0.13E-04    0.19E-06
   1     11    11.673     4.523    0.73E-05    0.76E-05    0.12E-06
   1     11    11.673     4.424    0.87E-05    0.13E-04    0.19E-06
   2     10    11.673    52.481    0.65E-04    0.36E-04    0.18E-06
   2     10    11.673    38.501    0.61E-04    0.33E-04    0.17E-06
   3     10    11.673    65.631    0.17E-03    0.14E-03    0.37E-06
   3     10    11.673    56.854    0.17E-03    0.14E-03    0.37E-06
 Optimization of the real space projectors (new method)

[...]

   l    n(q)    QCUT    max X(q) W(low)/X(q) W(high)/X(q)  e(spline)
   2     10    11.539   110.144    0.12E-03    0.13E-03    0.25E-06
   2     10    11.539   103.200    0.12E-03    0.13E-03    0.25E-06
   0     11    11.539    68.437    0.46E-04    0.21E-04    0.32E-06
   0     11    11.539    33.971    0.37E-04    0.19E-04    0.29E-06
   1     10    11.539    17.065    0.51E-04    0.22E-04    0.13E-06
   1     10    11.539    12.540    0.41E-04    0.18E-04    0.11E-06
 Optimization of the real space projectors (new method)

 maximal supplied QI-value         = 24.76
 optimisation between [QCUT,QGAM] = [ 11.64, 23.27] = [ 37.91,151.63] Ry
 Optimized for a Real-space Cutoff    1.14 Angstroem

   l    n(q)    QCUT    max X(q) W(low)/X(q) W(high)/X(q)  e(spline)
   0      8    11.635    20.381    0.10E-03    0.33E-03    0.24E-06
   0      8    11.635    15.268    0.11E-03    0.35E-03    0.26E-06
   1      7    11.635     5.964    0.24E-03    0.31E-03    0.30E-06
   1      7    11.635     5.382    0.22E-03    0.25E-03    0.26E-06
  PAW_PBE La 06Sep2000                  :
  PAW_PBE Mn 06Sep2000                  :
  PAW_PBE O 08Apr2002                   :

 POSCAR: SCEL1_1_1_1_0_0_0/0
  positions in direct lattice
  velocities in cartesian coordinates
 exchange correlation table for  LEXCH =        8
   RHO(1)=    0.500       N(1)  =     2000
   RHO(2)=  100.500       N(2)  =     4000

 ion  position               nearest neighbor table
   1  0.000  0.000  0.000-   3 2.79   4 2.79   5 2.79   3 2.79   4 2.79   3 2.79   5 2.79   3 2.79
                             4 2.79   5 2.79   4 2.79   5 2.79   2 3.41   2 3.41   2 3.41   2 3.41
   2  0.500  0.500  0.500-   3 1.97   4 1.97   5 1.97   5 1.97   4 1.97   3 1.97   1 3.41   1 3.41
                             1 3.41   1 3.41   1 3.41   1 3.41   1 3.41   1 3.41
   3  0.000  0.500  0.500-   2 1.97   2 1.97   1 2.79   1 2.79   1 2.79   1 2.79
   4  0.500  0.000  0.500-   2 1.97   2 1.97   1 2.79   1 2.79   1 2.79   1 2.79
   5  0.500  0.500  0.000-   2 1.97   2 1.97   1 2.79   1 2.79   1 2.79   1 2.79

  LATTYP: Found a simple cubic cell.
 ALAT       =     3.9401447100

  Lattice vectors:

 A1 = (   3.9401447100,   0.0000000000,   0.0000000000)
 A2 = (   0.0000000000,   3.9401447100,   0.0000000000)
 A3 = (   0.0000000000,   0.0000000000,   3.9401447100)

Analysis of symmetry for initial positions (statically):
 Subroutine PRICEL returns:
 Original cell was already a primitive cell.

 Routine SETGRP: Setting up the symmetry group for a
 simple cubic supercell.

 Subroutine GETGRP returns: Found 48 space group operations
 (whereof 48 operations were pure point group operations)
 out of a pool of 48 trial point group operations.

The static configuration has the point symmetry O_h .

Analysis of symmetry for dynamics (positions and initial velocities):
 Subroutine PRICEL returns:
 Original cell was already a primitive cell.

[...]

The dynamic configuration has the point symmetry O_h .

Analysis of structural, dynamic, and magnetic symmetry:
 Subroutine PRICEL returns:
 Original cell was already a primitive cell.

 Routine SETGRP: Setting up the symmetry group for a
 simple cubic supercell.

 Subroutine GETGRP returns: Found 48 space group operations
 (whereof 48 operations were pure point group operations)
 out of a pool of 48 trial point group operations.

The magnetic configuration has the point symmetry O_h .

 Subroutine INISYM returns: Found 48 space group operations
 (whereof 48 operations are pure point group operations),
 and found     1 'primitive' translations

 KPOINTS: Automatic mesh

Automatic generation of k-mesh.
 generate k-points for:    5    5    5
Space group operators:
 irot       det(A)        alpha          n_x          n_y          n_z        tau_x        tau_y        tau_z
    1     1.000000     0.000000     1.000000     0.000000     0.000000     0.000000     0.000000     0.000000
    2    -1.000000     0.000000     1.000000     0.000000     0.000000     0.000000     0.000000     0.000000
    3     1.000000   120.000000    -0.577350    -0.577350    -0.577350     0.000000     0.000000     0.000000
    4    -1.000000   120.000000    -0.577350    -0.577350    -0.577350     0.000000     0.000000     0.000000
    5     1.000000   120.000000     0.577350     0.577350     0.577350     0.000000     0.000000     0.000000
    6    -1.000000   120.000000     0.577350     0.577350     0.577350     0.000000     0.000000     0.000000
    7     1.000000    90.000000     0.000000     0.000000    -1.000000     0.000000     0.000000     0.000000
    8    -1.000000    90.000000     0.000000     0.000000    -1.000000     0.000000     0.000000     0.000000
    9     1.000000   180.000000     0.000000     0.707107     0.707107     0.000000     0.000000     0.000000
   10    -1.000000   180.000000     0.000000     0.707107     0.707107     0.000000     0.000000     0.000000
   11     1.000000    90.000000     0.000000     1.000000     0.000000     0.000000     0.000000     0.000000
   12    -1.000000    90.000000     0.000000     1.000000     0.000000     0.000000     0.000000     0.000000
   13     1.000000   180.000000     0.000000     0.000000     1.000000     0.000000     0.000000     0.000000
   14    -1.000000   180.000000     0.000000     0.000000     1.000000     0.000000     0.000000     0.000000
   15     1.000000   120.000000    -0.577350     0.577350     0.577350     0.000000     0.000000     0.000000
   16    -1.000000   120.000000    -0.577350     0.577350     0.577350     0.000000     0.000000     0.000000
   17     1.000000   120.000000    -0.577350     0.577350    -0.577350     0.000000     0.000000     0.000000
   18    -1.000000   120.000000    -0.577350     0.577350    -0.577350     0.000000     0.000000     0.000000
   19     1.000000    90.000000     0.000000     0.000000     1.000000     0.000000     0.000000     0.000000
   20    -1.000000    90.000000     0.000000     0.000000     1.000000     0.000000     0.000000     0.000000
   21     1.000000    90.000000    -1.000000     0.000000     0.000000     0.000000     0.000000     0.000000
   22    -1.000000    90.000000    -1.000000     0.000000     0.000000     0.000000     0.000000     0.000000
   23     1.000000   180.000000     0.707107     0.000000     0.707107     0.000000     0.000000     0.000000
   24    -1.000000   180.000000     0.707107     0.000000     0.707107     0.000000     0.000000     0.000000
   25     1.000000   120.000000     0.577350    -0.577350     0.577350     0.000000     0.000000     0.000000
   26    -1.000000   120.000000     0.577350    -0.577350     0.577350     0.000000     0.000000     0.000000
   27     1.000000   120.000000    -0.577350    -0.577350     0.577350     0.000000     0.000000     0.000000
   28    -1.000000   120.000000    -0.577350    -0.577350     0.577350     0.000000     0.000000     0.000000
   29     1.000000   180.000000     1.000000     0.000000     0.000000     0.000000     0.000000     0.000000
   30    -1.000000   180.000000     1.000000     0.000000     0.000000     0.000000     0.000000     0.000000
   31     1.000000    90.000000     0.000000    -1.000000     0.000000     0.000000     0.000000     0.000000
   32    -1.000000    90.000000     0.000000    -1.000000     0.000000     0.000000     0.000000     0.000000
   33     1.000000   180.000000     0.707107     0.707107     0.000000     0.000000     0.000000     0.000000
   34    -1.000000   180.000000     0.707107     0.707107     0.000000     0.000000     0.000000     0.000000
   35     1.000000    90.000000     1.000000     0.000000     0.000000     0.000000     0.000000     0.000000
   36    -1.000000    90.000000     1.000000     0.000000     0.000000     0.000000     0.000000     0.000000
   37     1.000000   120.000000     0.577350    -0.577350    -0.577350     0.000000     0.000000     0.000000
   38    -1.000000   120.000000     0.577350    -0.577350    -0.577350     0.000000     0.000000     0.000000
   39     1.000000   180.000000     0.000000     1.000000     0.000000     0.000000     0.000000     0.000000
   40    -1.000000   180.000000     0.000000     1.000000     0.000000     0.000000     0.000000     0.000000
   41     1.000000   120.000000     0.577350     0.577350    -0.577350     0.000000     0.000000     0.000000
   42    -1.000000   120.000000     0.577350     0.577350    -0.577350     0.000000     0.000000     0.000000
   43     1.000000   180.000000     0.000000    -0.707107     0.707107     0.000000     0.000000     0.000000
   44    -1.000000   180.000000     0.000000    -0.707107     0.707107     0.000000     0.000000     0.000000
   45     1.000000   180.000000     0.707107    -0.707107     0.000000     0.000000     0.000000     0.000000
   46    -1.000000   180.000000     0.707107    -0.707107     0.000000     0.000000     0.000000     0.000000
   47     1.000000   180.000000     0.707107     0.000000    -0.707107     0.000000     0.000000     0.000000
   48    -1.000000   180.000000     0.707107     0.000000    -0.707107     0.000000     0.000000     0.000000

 Subroutine IBZKPT returns following result:

 Found     10 irreducible k-points:

 Following reciprocal coordinates:
            Coordinates               Weight
  0.000000  0.000000  0.000000      1.000000
  0.200000  0.000000  0.000000      6.000000
  0.400000  0.000000  0.000000      6.000000
  0.200000  0.200000  0.000000     12.000000
  0.400000  0.200000  0.000000     24.000000
[...]
   LEPSILON=     F    determine dielectric tensor
   LRPA    =     F    only Hartree local field effects (RPA)
   LNABLA  =     F    use nabla operator in PAW spheres
   LVEL    =     F    velocity operator in full k-point grid
   LINTERFAST=   F  fast interpolation
   KINTER  =     0    interpolate to denser k-point grid
   CSHIFT  =0.1000    complex shift for real part using Kramers Kronig
   OMEGAMAX=  -1.0    maximum frequency
   DEG_THRESHOLD= 0.2000000E-02 threshold for treating states as degnerate
   RTIME   =   -0.100 relaxation time in fs
  (WPLASMAI=    0.000 imaginary part of plasma frequency in eV, 0.658/RTIME)
   DFIELD  = 0.0000000 0.0000000 0.0000000 field for delta impulse in time

 Orbital magnetization related:
   ORBITALMAG=     F  switch on orbital magnetization
   LCHIMAG   =     F  perturbation theory with respect to B field
   DQ        =  0.001000  dq finite difference perturbation B field
   LLRAUG    =     F  two centre corrections for induced B field

 Static calculation
 charge density and potential will be updated during run
 spin polarized calculation
 RMM-DIIS sequential band-by-band and
  variant of blocked Davidson during initial phase
 perform sub-space diagonalisation
    before iterative eigenvector-optimisation
 modified Broyden-mixing scheme, WC =      100.0
 initial mixing is a Kerker type mixing with AMIX =  0.4000 and BMIX =      1.0000
 Hartree-type preconditioning will be used
 using additional bands            6
 real space projection scheme for non local part
 use partial core corrections
 calculate Harris-corrections to forces
   (improved forces if not selfconsistent)
 use gradient corrections
 use of overlap-Matrix (Vanderbilt PP)
 Fermi weights with tetrahedron method with Bloechl corrections

  energy-cutoff  :      520.00
  volume of cell :       61.17
      direct lattice vectors                 reciprocal lattice vectors
     3.940144710  0.000000000  0.000000000     0.253797785  0.000000000  0.000000000
     0.000000000  3.940144710  0.000000000     0.000000000  0.253797785  0.000000000
     0.000000000  0.000000000  3.940144710     0.000000000  0.000000000  0.253797785

  length of vectors
     3.940144710  3.940144710  3.940144710     0.253797785  0.253797785  0.253797785

 k-points in units of 2pi/SCALE and weight: Automatic mesh
   0.00000000  0.00000000  0.00000000       0.008
   0.05075956  0.00000000  0.00000000       0.048
   0.10151911  0.00000000  0.00000000       0.048
   0.05075956  0.05075956  0.00000000       0.096
   0.10151911  0.05075956  0.00000000       0.192
   0.10151911  0.10151911  0.00000000       0.096
   0.05075956  0.05075956  0.05075956       0.064
   0.10151911  0.05075956  0.05075956       0.192
   0.10151911  0.10151911  0.05075956       0.192
   0.10151911  0.10151911  0.10151911       0.064

 k-points in reciprocal lattice and weights: Automatic mesh
   0.00000000  0.00000000  0.00000000       0.008
   0.20000000  0.00000000  0.00000000       0.048
   0.40000000  0.00000000  0.00000000       0.048
   0.20000000  0.20000000  0.00000000       0.096
   0.40000000  0.20000000  0.00000000       0.192
   0.40000000  0.40000000  0.00000000       0.096
   0.20000000  0.20000000  0.20000000       0.064
   0.40000000  0.20000000  0.20000000       0.192
   0.40000000  0.40000000  0.20000000       0.192
   0.40000000  0.40000000  0.40000000       0.064

 position of ions in fractional coordinates (direct lattice)
   0.00000000  0.00000000  0.00000000
   0.50000000  0.50000000  0.50000000
   0.00000000  0.50000000  0.50000000
   0.50000000  0.00000000  0.50000000
   0.50000000  0.50000000  0.00000000

 position of ions in cartesian coordinates  (Angst):
   0.00000000  0.00000000  0.00000000
   1.97007236  1.97007236  1.97007236
   0.00000000  1.97007236  1.97007236
   1.97007236  0.00000000  1.97007236
   1.97007236  1.97007236  0.00000000

 k-point  1 :   0.0000 0.0000 0.0000  plane waves:    1647
 k-point  2 :   0.2000 0.0000 0.0000  plane waves:    1671
 k-point  3 :   0.4000 0.0000 0.0000  plane waves:    1654
 k-point  4 :   0.2000 0.2000 0.0000  plane waves:    1646
 k-point  5 :   0.4000 0.2000 0.0000  plane waves:    1639
 k-point  6 :   0.4000 0.4000 0.0000  plane waves:    1648
 k-point  7 :   0.2000 0.2000 0.2000  plane waves:    1650
 k-point  8 :   0.4000 0.2000 0.2000  plane waves:    1652
 k-point  9 :   0.4000 0.4000 0.2000  plane waves:    1645
 k-point 10 :   0.4000 0.4000 0.4000  plane waves:    1646

 maximum and minimum number of plane-waves per node :       177      148

 maximum number of plane-waves:      1671
 maximum index in each direction:
   IXMAX=    7   IYMAX=    7   IZMAX=    7
   IXMIN=   -7   IYMIN=   -7   IZMIN=   -7

 real space projection operators:
  max/ min on nodes  :        348.97        329.16

 parallel 3D FFT for wavefunctions:
    minimum data exchange during FFTs selected (reduces bandwidth)
 parallel 3D FFT for charge:
    minimum data exchange during FFTs selected (reduces bandwidth)

 Broyden mixing: mesh for mixing (old mesh)
   NGX = 15   NGY = 15   NGZ = 15
  (NGX  = 60   NGY  = 60   NGZ  = 60)
  gives a total of   3375 points

 initial charge density was supplied:
 charge density of overlapping atoms calculated
 number of electron      36.0000000 magnetization       4.0000000
 keeping initial charge density in first step

 Maximum index for non-local projection operator          803
 Maximum index for augmentation-charges          965 (set IRDMAX)

 First call to EWALD:  gamma=   0.450
 Maximum number of real-space cells 3x 3x 3
 Maximum number of reciprocal cells 3x 3x 3

--------------------------------------- Iteration      1(   1)  ---------------------------------------

atom =   1  type =  1  l = 0

 onsite density matrix

spin component  1

  1.0989

[...]

 occupancies and eigenvectors

  o =  1.0989  v =  1.0000  0.0000      0.0000  0.0000
  o =  1.0989  v =  0.0000  1.0000      0.0000  0.0000
atom =   2  type =  2  l = 2

[...]

  o =  0.8190  v =  1.0000  0.0000      0.0000  0.0000
  o =  0.8190  v =  0.0000  1.0000      0.0000  0.0000
 BZINTS: Fermi energy: 19.416144; 36.000000 electrons
         Band energy: 322.392104;  BLOECHL correction: -0.372691

 eigenvalue-minimisations  :  1000
 total energy-change (2. order) : 0.3823192E+03  (-0.1514717E+04)
 number of electron      36.0000000 magnetization       4.0000000
 augmentation part       36.0000000 magnetization       4.0000000

 Free energy of the ion-electron system (eV)
  alpha Z        PSCENC =       158.74615393
  Ewald energy   TEWEN  =     -2362.62040756
  -Hartree energ DENC   =      -437.13270834
  -exchange      EXHF   =         0.00000000
  -V(xc)+E(xc)   XCENC  =       103.85603888
  PAW double counting   =      2088.38994440    -2071.11293963
  entropy T*S    EENTRO =         0.00000000
  eigenvalues    EBANDS =       322.39210359
  atomic energy  EATOM  =      2579.80103561
  Solvation  Ediel_sol  =         0.00000000
  free energy    TOTEN  =       382.31922089 eV

  energy without entropy =      382.31922089  energy(sigma->0) =      382.31922089

[...]

 BZINTS: Fermi energy: 11.607344; 36.000000 electrons
         Band energy:   5.250784;  BLOECHL correction: -0.062204

 eigenvalue-minimisations  :  1024
 total energy-change (2. order) :-0.3171413E+03  (-0.2940069E+03)
 number of electron      36.0000000 magnetization       4.0000000
 augmentation part       36.0000000 magnetization       4.0000000

[...]

 BZINTS: Fermi energy: 10.223850; 36.000000 electrons
         Band energy:-105.807898;  BLOECHL correction: -0.067186

[...]

 BZINTS: Fermi energy: 10.103212; 36.000000 electrons
         Band energy:-106.481603;  BLOECHL correction: -0.063003

[...]

 Broyden mixing:
  rms(total) = 0.25080E+01    rms(broyden)= 0.25078E+01
  rms(prec ) = 0.48546E+01
  weight for this iteration     100.00

[...]

 eigenvalues of (default mixing * dielectric matrix)
  average eigenvalue GAMMA=   0.0213
  0.0213

[...]

 eigenvalue-minimisations  :  1437
 total energy-change (2. order) : 0.1068481E+00  (-0.2812246E+00)
 number of electron      35.9999992 magnetization       4.0012011
 augmentation part        3.4384900 magnetization       2.7519639

[...]

 Broyden mixing:
  rms(total) = 0.17927E-01    rms(broyden)= 0.17926E-01
  rms(prec ) = 0.23526E-01
  weight for this iteration     100.00

 eigenvalues of (default mixing * dielectric matrix)
  average eigenvalue GAMMA=   1.0737
  2.4949  1.2406  1.2406  0.8739  0.8739  0.6481  0.6481  0.5693

[...]

--------------------------------------- Iteration      1(  14)  ---------------------------------------

atom =   1  type =  1  l = 0

[...]

  o =  0.7861  v =  0.0000  1.0000      0.0000  0.0000
  o =  0.7931  v =  1.0000  0.0000      0.0000  0.0000
atom =   5  type =  3  l = 0

 onsite density matrix

[...]

  0.7861

 occupancies and eigenvectors

  o =  0.7861  v =  0.0000  1.0000      0.0000  0.0000
  o =  0.7931  v =  1.0000  0.0000      0.0000  0.0000
 BZINTS: Fermi energy:  8.088546; 36.000000 electrons
         Band energy: -76.505946;  BLOECHL correction: -0.073496

 eigenvalue-minimisations  :   883
 total energy-change (2. order) :-0.6938452E-03  (-0.7500606E-03)
 number of electron      35.9999992 magnetization       4.0007983
 augmentation part        3.3940014 magnetization       2.7735978

 Free energy of the ion-electron system (eV)
  alpha Z        PSCENC =       158.74615393
  Ewald energy   TEWEN  =     -2362.62040756
  -Hartree energ DENC   =      -460.48224452
  -exchange      EXHF   =         0.00000000
  -V(xc)+E(xc)   XCENC  =       108.17415606
  PAW double counting   =      2805.90470274    -2792.64022947
  entropy T*S    EENTRO =         0.00000000
  eigenvalues    EBANDS =       -76.50594624
  atomic energy  EATOM  =      2579.80103561
  Solvation  Ediel_sol  =         0.00000000
  free energy    TOTEN  =       -39.62277944 eV

  energy without entropy =      -39.62277944  energy(sigma->0) =      -39.62277944

 average (electrostatic) potential at core
  the test charge radii are     1.1480  1.0210  0.7215
  (the norm of the test charge is              1.0000)
       1 -96.5104       2 -42.3145       3 -67.4072       4 -67.4072       5 -67.4072

 E-fermi :   8.0885     XC(G=0): -11.4821     alpha+bet :-15.7228

[...]

 k-point     1 :       0.0000    0.0000    0.0000
  band No.  band energies     occupation
      1     -24.9173      1.00000
      2     -11.2656      1.00000
      3     -10.0880      1.00000
      4     -10.0880      1.00000
      5      -8.3989      1.00000
      6      -8.3989      1.00000
      7      -8.3989      1.00000
      8       2.8800      1.00000
      9       2.8800      1.00000
     10       2.8800      1.00000
     11       3.3174      1.00000
     12       3.3174      1.00000
     13       3.3174      1.00000
     14       4.7706      1.00000
     15       4.7706      1.00000
     16       4.7706      1.00000
     17       5.5126      1.00000
     18       5.5128      1.00000
     19       5.9386      1.00000
     20       5.9386      1.00000
     21       5.9386      1.00000
     22       9.3458      0.00000
     23       9.3460      0.00000
     24       9.9619      0.00000

[...]

 spin component 2

[...]

 k-point    10 :       0.4000    0.4000    0.4000
  band No.  band energies     occupation
      1     -24.7908      1.00000
      2     -10.5474      1.00000
      3     -10.2303      1.00000
      4     -10.2303      1.00000
      5      -8.6607      1.00000
      6      -8.6607      1.00000
      7      -8.4054      1.00000
      8       1.1207      1.00000
      9       3.1352      1.00000
     10       3.2425      1.00000
     11       3.2425      1.00000
     12       3.4107      1.00000
     13       3.4107      1.00000
     14       5.7599      1.00000
     15       5.7599      1.00000
     16       5.9219      1.00000
     17       9.8121      0.00000
     18       9.8122      0.00000
     19       9.8547      0.00000
     20      10.0146      0.00000
     21      10.1323      0.00000
     22      10.1325      0.00000
     23      10.2717      0.00000
     24      11.5941      0.00000

 soft charge-density along one line, spin component           1
         0         1         2         3         4         5         6         7         8         9
 total charge-density along one line

 soft charge-density along one line, spin component           2
         0         1         2         3         4         5         6         7         8         9
 total charge-density along one line

------------------------ aborting loop because EDIFF is reached ----------------------------------------

 total charge

# of ion       s       p       d       f       tot
    1        1.997   5.694   0.470   0.167   8.329
    2        0.307   0.458   4.910   0.000   5.676
    3        1.570   3.363   0.000   0.000   4.932
    4        1.562   3.413   0.000   0.000   4.975
    5        1.560   3.584   0.000   0.000   5.144
tot          6.996  16.513   5.381   0.167  29.056

 magnetization (x)

[...]

  FORCE on cell =-STRESS in cart. coord.  units (eV):
  Direction    XX          YY          ZZ          XY          YZ          ZX
  Alpha Z   158.74615   158.74615   158.74615
  Ewald    -787.54072  -787.54072  -787.54072     0.00000    -0.00000    -0.00000
  Hartree   153.53579   153.53579   153.53579    -0.00000    -0.00000    -0.00000
  E(xc)    -164.18826  -164.18826  -164.18826    -0.00000    -0.00000    -0.00000
  Local     -66.97792   -66.97792   -66.97792     0.00000    -0.00000     0.00000
  n-local    64.11892    62.53444    62.18895    -0.56492    -0.07941    -0.21895
  augment     8.35363     8.35363     8.35363     0.00000     0.00000    -0.00000
  Kinetic   619.54698   637.15843   648.92721    -2.45958    -2.73744    -1.78338
  Fock        0.00000     0.00000     0.00000     0.00000     0.00000     0.00000
  Total       0.08698     0.08698     0.08698    -0.00000    -0.00000    -0.00000
  in kB       2.27825     2.27825     2.27825    -0.00000    -0.00000    -0.00000

 VOLUME and BASIS-vectors are now :
  energy-cutoff  :      520.00
  volume of cell :       61.17
      direct lattice vectors                 reciprocal lattice vectors
     3.940144710  0.000000000  0.000000000     0.253797785  0.000000000  0.000000000
     0.000000000  3.940144710  0.000000000     0.000000000  0.253797785  0.000000000
     0.000000000  0.000000000  3.940144710     0.000000000  0.000000000  0.253797785

  length of vectors
     3.940144710  3.940144710  3.940144710     0.253797785  0.253797785  0.253797785

 FORCES acting on ions
    electron-ion (+dipol)            ewald-force                    non-local-force                 convergence-correction
   -.608E-14 -.113E-13 -.190E-14   0.239E-14 0.144E-14 -.512E-14   0.000E+00 0.000E+00 0.000E+00   0.174E-13 0.781E-14 -.188E-13
   0.586E-13 0.167E-11 -.166E-12   0.762E-14 0.109E-14 0.166E-14   0.000E+00 0.000E+00 0.000E+00   -.906E-14 0.101E-13 0.282E-13
   -.537E-14 0.123E-12 0.106E-12   -.621E-14 -.541E-14 0.404E-14   0.000E+00 0.000E+00 0.000E+00   0.260E-13 -.235E-13 0.498E-13
   0.114E-12 0.124E-13 -.260E-12   0.591E-14 -.846E-15 0.403E-14   0.000E+00 0.000E+00 0.000E+00   0.608E-14 0.188E-13 0.472E-13
   0.119E-12 0.177E-11 -.110E-11   -.717E-14 0.305E-14 -.529E-14   0.000E+00 0.000E+00 0.000E+00   0.199E-13 -.199E-13 -.406E-13
   0.280E-12 0.357E-11 -.142E-11   0.255E-14 -.677E-15 -.676E-15   0.000E+00 0.000E+00 0.000E+00   0.604E-13 -.676E-14 0.659E-13

 POSITION                                       TOTAL-FORCE (eV/Angst)
      0.00000      0.00000      0.00000         0.000000      0.000000      0.000000
      1.97007      1.97007      1.97007         0.000000      0.000000      0.000000
      0.00000      1.97007      1.97007         0.000000      0.000000      0.000000
      1.97007      0.00000      1.97007         0.000000      0.000000      0.000000
      1.97007      1.97007      0.00000         0.000000      0.000000      0.000000
    total drift:                                0.000000      0.000000     -0.000000

  FREE ENERGIE OF THE ION-ELECTRON SYSTEM (eV)
  free  energy   TOTEN  =       -39.62277944 eV

  energy  without entropy=      -39.62277944  energy(sigma->0) =      -39.62277944

 total charge

[...]

 magnetization (x)

# of ion       s       p       d       f       tot
    1       -0.001   0.001   0.012  -0.010   0.002
    2        0.025   0.029   3.895   0.000   3.949
    3        0.000  -0.035   0.000   0.000  -0.035
    4        0.003  -0.031   0.000   0.000  -0.027
    5        0.016  -0.015   0.000   0.000   0.001
tot          0.044  -0.051   3.907  -0.010   3.890

 BZINTS: Fermi energy:  8.088546; 36.000000 electrons
         Band energy: -76.505946;  BLOECHL correction: -0.073496