 vasp.5.4.4.18Apr17-6-g9f103f2a35 (build Oct 03 2018 13:58:34) complex

 executed on             LinuxIFC date 2019.06.04  01:49:07

 INCAR:
 POTCAR:    PAW_PBE La 06Sep2000
 POTCAR:    PAW_PBE Mn 06Sep2000
 POTCAR:    PAW_PBE Ni 02Aug2007
 POTCAR:    PAW_PBE O 08Apr2002

 POTCAR:    PAW_PBE La 06Sep2000
   VRHFIN =La : [core=Kr4d]

   TITEL  = PAW_PBE La 06Sep2000
   POMASS =  138.900; ZVAL   =   11.000    mass and valenz
   ENMAX  =  219.292; ENMIN  =  164.469 eV

 POTCAR:    PAW_PBE Mn 06Sep2000
   VRHFIN =Mn: d6 s1

   TITEL  = PAW_PBE Mn 06Sep2000
   POMASS =   54.938; ZVAL   =    7.000    mass and valenz
   ENMAX  =  269.864; ENMIN  =  202.398 eV

 POTCAR:    PAW_PBE Ni 02Aug2007
   VRHFIN =Ni:

   TITEL  = PAW_PBE Ni 02Aug2007
   POMASS =   58.690; ZVAL   =   10.000    mass and valenz
   ENMAX  =  269.532; ENMIN  =  202.149 eV

 POTCAR:    PAW_PBE O 08Apr2002
   VRHFIN =O: s2p4

   TITEL  = PAW_PBE O 08Apr2002
   POMASS =   16.000; ZVAL   =    6.000    mass and valenz
   ENMAX  =  400.000; ENMIN  =  300.000 eV

 Optimization of the real space projectors (new method)

 maximal supplied QI-value         = 13.42
 optimisation between [QCUT,QGAM] = [ 11.67, 23.35] = [ 38.16,152.62] Ry
 Optimized for a Real-space Cutoff    1.63 Angstroem

   l    n(q)    QCUT    max X(q) W(low)/X(q) W(high)/X(q)  e(spline)
   0     11    11.673    13.882    0.27E-04    0.79E-05    0.11E-06
   0     11    11.673    12.184    0.39E-04    0.13E-04    0.19E-06
   1     11    11.673     4.523    0.73E-05    0.76E-05    0.12E-06
   1     11    11.673     4.424    0.87E-05    0.13E-04    0.19E-06
   2     10    11.673    52.481    0.65E-04    0.36E-04    0.18E-06
   2     10    11.673    38.501    0.61E-04    0.33E-04    0.17E-06
   3     10    11.673    65.631    0.17E-03    0.14E-03    0.37E-06
   3     10    11.673    56.854    0.17E-03    0.14E-03    0.37E-06
 Optimization of the real space projectors (new method)

[...]

   l    n(q)    QCUT    max X(q) W(low)/X(q) W(high)/X(q)  e(spline)
   2      9    11.539    60.317    0.19E-03    0.47E-04    0.16E-06
   2      9    11.539    55.921    0.19E-03    0.48E-04    0.16E-06
   0     10    11.539    51.690    0.80E-04    0.50E-04    0.24E-06
   0     10    11.539    30.015    0.73E-04    0.45E-04    0.22E-06
   1     10    11.539    18.849    0.87E-04    0.16E-03    0.71E-07
   1     10    11.539    14.624    0.73E-04    0.13E-03    0.64E-07
 Optimization of the real space projectors (new method)

 maximal supplied QI-value         = 24.76
 optimisation between [QCUT,QGAM] = [ 11.64, 23.27] = [ 37.91,151.63] Ry
 Optimized for a Real-space Cutoff    1.14 Angstroem

   l    n(q)    QCUT    max X(q) W(low)/X(q) W(high)/X(q)  e(spline)
   0      8    11.635    20.381    0.10E-03    0.33E-03    0.24E-06
   0      8    11.635    15.268    0.11E-03    0.35E-03    0.26E-06
   1      7    11.635     5.964    0.24E-03    0.31E-03    0.30E-06
   1      7    11.635     5.382    0.22E-03    0.25E-03    0.26E-06
  PAW_PBE La 06Sep2000                  :
  PAW_PBE Mn 06Sep2000                  :
  PAW_PBE Ni 02Aug2007                  :
  PAW_PBE O 08Apr2002                   :

 POSCAR: SCEL6_1_2_3_0_0_0/2
  positions in direct lattice
  velocities in cartesian coordinates
 exchange correlation table for  LEXCH =        8
   RHO(1)=    0.500       N(1)  =     2000
   RHO(2)=  100.500       N(2)  =     4000

 ion  position               nearest neighbor table
   1  0.000  0.495  0.328-  30 2.66  21 2.70  21 2.70  27 2.72  14 2.73  14 2.73  26 2.77  17 2.79
                            17 2.79  23 2.80  23 2.80  12 3.31  12 3.31   9 3.37   9 3.37   7 3.39
   2  0.000  0.005  0.672-  28 2.66  22 2.70  22 2.70  25 2.72  16 2.73  16 2.73  26 2.77  13 2.79
                            13 2.79  20 2.80  20 2.80  11 3.31  11 3.31   8 3.37   8 3.37   7 3.39
   3  0.000  0.485  0.000-  18 2.67  18 2.67  30 2.69  28 2.69  21 2.77  19 2.77  19 2.77  21 2.77
                            12 3.31  12 3.31  11 3.31  11 3.31   6 3.66
   4  0.000  0.005  0.328-  30 2.66  24 2.70  24 2.70  27 2.72  14 2.73  14 2.73  26 2.77  17 2.79
                            17 2.79  20 2.80  20 2.80  12 3.31  12 3.31   9 3.37   9 3.37   7 3.39
   5  0.000  0.495  0.672-  28 2.66  19 2.70  19 2.70  25 2.72  16 2.73  16 2.73  26 2.77  13 2.79
                            13 2.79  23 2.80  23 2.80  11 3.31  11 3.31   8 3.37   8 3.37   7 3.39
   6  0.000  0.015  0.000-  18 2.67  18 2.67  30 2.69  28 2.69  24 2.77  22 2.77  22 2.77  24 2.77
                            12 3.31  12 3.31  11 3.31  11 3.31   3 3.66
   7  0.500  0.250  0.500-  14 1.90  16 1.90  20 1.94  23 1.94  26 1.95  26 1.95   4 3.39   5 3.39
                             1 3.39   1 3.39   2 3.39   4 3.39   5 3.39   2 3.39
   8  0.500  0.750  0.834-  19 1.90  22 1.90  15 1.94  25 1.95  25 1.95  13 1.95   2 3.37   2 3.37
                             5 3.37   5 3.37
   9  0.500  0.750  0.166-  21 1.90  24 1.90  15 1.94  27 1.95  27 1.95  17 1.95   1 3.37   1 3.37
                             4 3.37   4 3.37
  10  0.500  0.750  0.500-  29 1.95  29 1.95  13 1.95  17 1.95  20 1.96  23 1.96
  11  0.500  0.250  0.833-  28 1.95  28 1.95  18 1.96  16 1.98  19 2.00  22 2.00   2 3.31   2 3.31
                             5 3.31   5 3.31   3 3.31   3 3.31   6 3.31   6 3.31
  12  0.500  0.250  0.167-  30 1.95  30 1.95  18 1.96  14 1.98  21 2.00  24 2.00   1 3.31   1 3.31
                             4 3.31   4 3.31   3 3.31   3 3.31   6 3.31   6 3.31
  13  0.500  0.750  0.667-  10 1.95   8 1.95   2 2.79   5 2.79   2 2.79   5 2.79
  14  0.500  0.250  0.337-   7 1.90  12 1.98   1 2.73   4 2.73   1 2.73   4 2.73
  15  0.500  0.750  0.000-   8 1.94   9 1.94
  16  0.500  0.250  0.663-   7 1.90  11 1.98   2 2.73   5 2.73   2 2.73   5 2.73
  17  0.500  0.750  0.333-  10 1.95   9 1.95   1 2.79   4 2.79   1 2.79   4 2.79
  18  0.500  0.250  0.000-  11 1.96  12 1.96   3 2.67   6 2.67   3 2.67   6 2.67
  19  0.500  0.506  0.832-   8 1.90  11 2.00   5 2.70   5 2.70   3 2.77   3 2.77
  20  0.500  0.001  0.500-   7 1.94  10 1.96   2 2.80   4 2.80   2 2.80   4 2.80
  21  0.500  0.506  0.168-   9 1.90  12 2.00   1 2.70   1 2.70   3 2.77   3 2.77
  22  0.500  0.994  0.832-   8 1.90  11 2.00   2 2.70   2 2.70   6 2.77   6 2.77
  23  0.500  0.499  0.500-   7 1.94  10 1.96   1 2.80   5 2.80   1 2.80   5 2.80
  24  0.500  0.994  0.168-   9 1.90  12 2.00   4 2.70   4 2.70   6 2.77   6 2.77
  25  0.000  0.750  0.831-   8 1.95   8 1.95   2 2.72   5 2.72
  26  0.000  0.250  0.500-   7 1.95   7 1.95   4 2.77   5 2.77   1 2.77   2 2.77
  27  0.000  0.750  0.169-   9 1.95   9 1.95   1 2.72   4 2.72
  28  0.000  0.250  0.831-  11 1.95  11 1.95   2 2.66   5 2.66   3 2.69   6 2.69
  29  0.000  0.750  0.500-  10 1.95  10 1.95
  30  0.000  0.250  0.169-  12 1.95  12 1.95   1 2.66   4 2.66   3 2.69   6 2.69

  LATTYP: Found a simple orthorhombic cell.
 ALAT       =     3.8921883980
 B/A-ratio  =     2.0036241364
 C/A-ratio  =     3.0039436832

  Lattice vectors:

 A1 = (   3.8921883980,   0.0000000000,   0.0000000000)
 A2 = (   0.0000000000,   7.7984826177,   0.0000000000)
 A3 = (   0.0000000000,   0.0000000000,  11.6919147520)

Analysis of symmetry for initial positions (statically):
 Subroutine PRICEL returns:
 Original cell was already a primitive cell.

 Routine SETGRP: Setting up the symmetry group for a
 simple orthorhombic supercell.

 Subroutine GETGRP returns: Found  8 space group operations
 (whereof  4 operations were pure point group operations)
 out of a pool of  8 trial point group operations.

The static configuration has the point symmetry C_2v.
 The point group associated with its full space group is D_2h.

Analysis of symmetry for dynamics (positions and initial velocities):
 Subroutine PRICEL returns:
 Original cell was already a primitive cell.

[...]

The dynamic configuration has the point symmetry C_2v.
 The point group associated with its full space group is D_2h.

Analysis of structural, dynamic, and magnetic symmetry:
 Subroutine PRICEL returns:
 Original cell was already a primitive cell.

 Routine SETGRP: Setting up the symmetry group for a
 simple orthorhombic supercell.

 Subroutine GETGRP returns: Found  8 space group operations
 (whereof  4 operations were pure point group operations)
 out of a pool of  8 trial point group operations.

The magnetic configuration has the point symmetry C_2v.
 The point group associated with its full space group is D_2h.

 Subroutine INISYM returns: Found  8 space group operations
 (whereof  4 operations are pure point group operations),
 and found     1 'primitive' translations

 KPOINTS: Automatic mesh

Automatic generation of k-mesh.
 generate k-points for:    5    3    2
Space group operators:
 irot       det(A)        alpha          n_x          n_y          n_z        tau_x        tau_y        tau_z
    1     1.000000     0.000000     1.000000     0.000000     0.000000     0.000000     0.000000     0.000000
    2    -1.000000   180.000000     0.000000     0.000000     1.000000     0.000000     0.000000     0.000000
    3     1.000000   180.000000     0.000000     1.000000     0.000000     0.000000     0.000000     0.000000
    4    -1.000000   179.999999     1.000000     0.000000     0.000000     0.000000     0.000000     0.000000
    5    -1.000000     0.000000     1.000000     0.000000     0.000000     0.000000     0.500000     0.000000
    6     1.000000   180.000000     0.000000     0.000000     1.000000     0.000000     0.500000     0.000000
    7    -1.000000   180.000000     0.000000     1.000000     0.000000     0.000000     0.500000     0.000000
    8     1.000000   179.999999     1.000000     0.000000     0.000000     0.000000     0.500000     0.000000

 Subroutine IBZKPT returns following result:

 Found     12 irreducible k-points:

 Following reciprocal coordinates:
            Coordinates               Weight
  0.000000  0.000000  0.000000      1.000000
  0.200000  0.000000  0.000000      2.000000
  0.400000  0.000000  0.000000      2.000000
  0.000000  0.333333  0.000000      2.000000
  0.200000  0.333333  0.000000      4.000000
  0.400000  0.333333  0.000000      4.000000
  0.000000  0.000000  0.500000      1.000000
  0.200000  0.000000  0.500000      2.000000
  0.400000  0.000000  0.500000      2.000000
  0.000000  0.333333  0.500000      2.000000
  0.200000  0.333333  0.500000      4.000000
  0.400000  0.333333  0.500000      4.000000

 Following cartesian coordinates:
            Coordinates               Weight
  0.000000  0.000000  0.000000      1.000000
  0.051385  0.000000  0.000000      2.000000
  0.102770  0.000000  0.000000      2.000000
  0.000000  0.042743  0.000000      2.000000
  0.051385  0.042743  0.000000      4.000000
  0.102770  0.042743  0.000000      4.000000
  0.000000  0.000000  0.042765      1.000000
  0.051385  0.000000  0.042765      2.000000
  0.102770  0.000000  0.042765      2.000000
  0.000000  0.042743  0.042765      2.000000
  0.051385  0.042743  0.042765      4.000000
  0.102770  0.042743  0.042765      4.000000

 TETIRR: Found     87 inequivalent tetrahedra from      180

 SYSTEM =  final
 POSCAR =  SCEL6_1_2_3_0_0_0/2

 Startparameter for this run:
[...]
     30      -7.5919      1.00000
     31      -7.5839      1.00000
     32      -7.5722      1.00000
     33      -7.5614      1.00000
     34      -7.5308      1.00000
     35      -7.4620      1.00000
     36      -7.2968      1.00000
     37      -7.2893      1.00000
     38      -7.1494      1.00000
     39      -7.1456      1.00000
     40      -7.0335      1.00000
     41      -6.9488      1.00000
     42      -6.8143      1.00000
     43       0.3831      1.00000
     44       0.4865      1.00000
     45       0.7218      1.00000
     46       0.9664      1.00000
     47       1.1200      1.00000
     48       1.1685      1.00000
     49       1.1941      1.00000
     50       1.5077      1.00000
     51       1.5090      1.00000
     52       1.9863      1.00000
     53       1.9902      1.00000
     54       2.0167      1.00000
     55       2.1114      1.00000
     56       2.1897      1.00000
     57       2.2851      1.00000
     58       2.3930      1.00000
     59       2.3979      1.00000
     60       2.4425      1.00000
[...]
    130      10.5473      0.00000
    131      10.6067      0.00000
    132      10.6409      0.00000
    133      10.6576      0.00000
    134      10.7068      0.00000
    135      10.7652      0.00000
    136      10.7803      0.00000
    137      10.8100      0.00000
    138      10.8216      0.00000
    139      10.8464      0.00000
    140      10.8578      0.00000
    141      10.8839      0.00000
    142      10.9213      0.00000
    143      10.9436      0.00000
    144      10.9896      0.00000

[...]

 spin component 2

[...]

 k-point    12 :       0.4000    0.3333    0.5000
  band No.  band energies     occupation
      1     -24.1038      1.00000
      2     -24.1009      1.00000
      3     -24.0758      1.00000
      4     -24.0701      1.00000
      5     -24.0540      1.00000
      6     -24.0179      1.00000
      7     -11.1368      1.00000
      8     -11.0447      1.00000
      9     -10.8331      1.00000
     10     -10.7179      1.00000
     11     -10.5555      1.00000
     12     -10.3079      1.00000
     13     -10.2926      1.00000
     14     -10.2656      1.00000
     15     -10.2338      1.00000
     16     -10.0740      1.00000
     17     -10.0708      1.00000
     18      -9.9571      1.00000
     19      -9.9511      1.00000
     20      -9.8503      1.00000
     21      -9.7819      1.00000
     22      -9.7492      1.00000
     23      -9.7052      1.00000
     24      -9.4757      1.00000
     25      -8.0575      1.00000
     26      -7.8495      1.00000
     27      -7.7999      1.00000
     28      -7.7896      1.00000
     29      -7.7120      1.00000
     30      -7.7032      1.00000
     31      -7.6588      1.00000
     32      -7.6308      1.00000
     33      -7.4654      1.00000
     34      -7.4164      1.00000
     35      -7.4081      1.00000
     36      -7.3266      1.00000
     37      -7.3043      1.00000
     38      -7.2383      1.00000
     39      -7.2033      1.00000
     40      -7.1629      1.00000
     41      -7.0845      1.00000
     42      -6.9257      1.00000
     43       1.2299      1.00000
     44       1.6222      1.00000
     45       1.7702      1.00000
     46       1.7756      1.00000
     47       2.0582      1.00000
     48       2.0744      1.00000
     49       2.2513      1.00000
     50       2.3752      1.00000
     51       2.5270      1.00000
     52       2.7120      1.00000
     53       2.7813      1.00000
     54       2.9441      1.00000
     55       2.9899      1.00000
     56       3.0698      1.00000
     57       3.0885      1.00000
     58       3.0959      1.00000
     59       3.1199      1.00000
     60       3.1308      1.00000
[...]
    130      10.8445      0.00000
    131      10.8547      0.00000
    132      10.8599      0.00000
    133      10.8733      0.00000
    134      10.8817      0.00000
    135      10.8933      0.00000
    136      10.9397      0.00000
    137      10.9438      0.00000
    138      10.9706      0.00000
    139      10.9822      0.00000
    140      11.0034      0.00000
    141      11.0097      0.00000
    142      11.0593      0.00000
    143      11.1433      0.00000
    144      11.3817      0.00000

 soft charge-density along one line, spin component           1
         0         1         2         3         4         5         6         7         8         9
 total charge-density along one line

 soft charge-density along one line, spin component           2
         0         1         2         3         4         5         6         7         8         9
 total charge-density along one line

------------------------ aborting loop because EDIFF is reached ----------------------------------------

 total charge

# of ion       s       p       d       f       tot
    1        2.000   5.698   0.489   0.190   8.376
    2        2.000   5.698   0.489   0.190   8.376
    3        1.999   5.695   0.484   0.186   8.365
    4        2.000   5.698   0.489   0.190   8.376
    5        2.000   5.698   0.489   0.190   8.376
    6        2.000   5.695   0.484   0.186   8.366
    7        0.336   0.522   4.879   0.000   5.737
    8        0.336   0.522   4.871   0.000   5.729
    9        0.336   0.522   4.871   0.000   5.729
   10        0.316   0.474   4.879   0.000   5.669
   11        0.398   0.577   8.338   0.000   9.313
   12        0.398   0.577   8.338   0.000   9.313
   13        1.564   3.455   0.000   0.000   5.019
   14        1.561   3.462   0.000   0.000   5.023
   15        1.564   3.454   0.000   0.000   5.017
   16        1.561   3.462   0.000   0.000   5.023
   17        1.564   3.455   0.000   0.000   5.019
   18        1.555   3.462   0.000   0.000   5.017
   19        1.561   3.460   0.000   0.000   5.021
   20        1.564   3.455   0.000   0.000   5.020
   21        1.561   3.460   0.000   0.000   5.021
   22        1.561   3.460   0.000   0.000   5.021
   23        1.564   3.455   0.000   0.000   5.020
   24        1.561   3.460   0.000   0.000   5.021
   25        1.565   3.457   0.000   0.000   5.022
   26        1.565   3.461   0.000   0.000   5.025
   27        1.565   3.457   0.000   0.000   5.022
   28        1.555   3.464   0.000   0.000   5.019
   29        1.564   3.451   0.000   0.000   5.015
   30        1.555   3.464   0.000   0.000   5.019
tot         42.229  99.629  39.101   1.132 182.091

 magnetization (x)

[...]

  FORCE on cell =-STRESS in cart. coord.  units (eV):
  Direction    XX          YY          ZZ          XY          YZ          ZX
  Alpha Z   977.53324   977.53324   977.53324
  Ewald   -4922.82524 -5080.36119 -5023.26230    -0.00000     0.00000     0.00000
  Hartree  1174.71004  1029.19900  1084.57102    -0.00000    -0.00000    -0.00000
  E(xc)   -1025.99592 -1026.18921 -1026.08393    -0.00000     0.00000    -0.00000
  Local    -787.22763  -480.92566  -595.43261     0.00000    -0.00000     0.00000
  n-local   403.18968   403.25605   403.13434     0.57532     0.00037     0.00125
  augment   344.79629   342.83012   343.91536     0.00000     0.00000    -0.00000
  Kinetic  3837.93575  3835.18103  3836.73455    -1.33105    -0.00057    -0.00017
  Fock        0.00000     0.00000     0.00000     0.00000     0.00000     0.00000
  Total       2.11622     0.52339     1.10966     0.00000     0.00000     0.00000
  in kB       9.55391     2.36288     5.00971     0.00000     0.00000     0.00000

 VOLUME and BASIS-vectors are now :
  energy-cutoff  :      520.00
  volume of cell :      354.89
      direct lattice vectors                 reciprocal lattice vectors
     3.892188398  0.000000000  0.000000000     0.256924870  0.000000000  0.000000000
     0.000000000  7.798482618  0.000000000     0.000000000  0.128230074  0.000000000
     0.000000000  0.000000000 11.691914752     0.000000000  0.000000000  0.085529190

  length of vectors
     3.892188398  7.798482618 11.691914752     0.256924870  0.128230074  0.085529190

 FORCES acting on ions
    electron-ion (+dipol)            ewald-force                    non-local-force                 convergence-correction
   -.103E-13 -.701E+02 -.939E+02   -.718E-13 0.696E+02 0.932E+02   0.000E+00 0.382E+00 0.701E+00   0.231E-13 0.279E-01 -.138E-01
   0.538E-15 0.701E+02 0.939E+02   0.552E-13 -.696E+02 -.932E+02   -.136E-19 -.382E+00 -.701E+00   0.540E-14 -.279E-01 0.138E-01
   -.862E-14 -.130E+03 0.986E-07   0.378E-13 0.129E+03 0.284E-13   0.000E+00 0.113E+01 0.000E+00   0.232E-13 0.365E-01 -.335E-13
   -.133E-14 0.701E+02 -.939E+02   0.341E-13 -.696E+02 0.932E+02   0.000E+00 -.382E+00 0.701E+00   0.138E-13 -.279E-01 -.138E-01
   -.624E-14 -.701E+02 0.939E+02   -.486E-13 0.696E+02 -.932E+02   -.542E-19 0.382E+00 -.701E+00   0.111E-13 0.279E-01 0.138E-01
   -.247E-14 0.130E+03 -.986E-07   -.512E-13 -.129E+03 0.000E+00   0.000E+00 -.113E+01 0.000E+00   0.739E-14 -.365E-01 -.390E-13
   0.579E-13 -.435E-12 0.911E-12   -.941E-14 -.172E-14 0.568E-13   0.000E+00 -.424E-21 0.000E+00   -.993E-14 0.741E-13 0.213E-13
   0.668E-13 -.209E-12 0.539E+01   0.711E-14 -.250E-13 -.515E+01   -.424E-21 0.000E+00 -.252E+00   -.208E-13 -.315E-13 0.365E-02
   0.593E-13 0.936E-13 -.539E+01   -.327E-14 0.140E-14 0.515E+01   0.000E+00 0.212E-21 0.252E+00   -.120E-13 -.426E-13 -.365E-02
   0.607E-13 0.148E-11 0.160E-11   -.173E-13 0.247E-14 0.853E-13   0.000E+00 0.136E-19 0.000E+00   -.162E-13 -.424E-13 0.613E-13
   0.329E-12 0.909E-12 0.477E+02   0.440E-13 0.633E-13 -.462E+02   0.000E+00 0.000E+00 -.146E+01   0.108E-13 0.119E-12 0.137E-01
   0.336E-12 0.630E-12 -.477E+02   -.268E-13 0.105E-12 0.462E+02   0.000E+00 -.529E-22 0.146E+01   0.536E-14 0.145E-12 -.137E-01
   0.116E-12 0.820E-12 0.354E+02   -.655E-14 -.474E-13 -.358E+02   0.000E+00 0.339E-20 0.388E+00   -.107E-13 -.325E-14 0.174E-01
   0.120E-12 0.205E-11 -.748E+02   -.310E-14 0.592E-14 0.700E+02   -.102E-19 -.339E-20 0.485E+01   -.238E-14 0.978E-13 0.845E-02
   0.117E-12 0.257E-11 0.782E-12   0.815E-14 0.222E-13 0.355E-13   0.000E+00 -.271E-19 0.000E+00   -.945E-15 -.223E-13 -.957E-13
   0.115E-12 0.212E-11 0.748E+02   -.720E-15 0.113E-13 -.700E+02   -.678E-20 -.203E-19 -.485E+01   0.671E-14 0.836E-13 -.845E-02
   0.114E-12 0.816E-12 -.354E+02   0.129E-13 -.260E-13 0.358E+02   0.000E+00 0.339E-20 -.388E+00   0.685E-14 -.231E-13 -.174E-01
   0.119E-12 0.230E-11 -.117E-11   0.968E-14 0.339E-13 0.426E-13   0.000E+00 0.678E-20 0.000E+00   -.273E-14 0.107E-12 0.427E-13
   0.113E-12 -.673E+02 0.133E+02   -.239E-13 0.619E+02 -.127E+02   0.000E+00 0.539E+01 -.624E+00   -.237E-14 0.338E-01 0.322E-02
   0.117E-12 0.281E+02 -.141E-06   0.644E-14 -.289E+02 0.426E-13   0.000E+00 0.706E+00 0.000E+00   0.443E-15 -.135E-02 0.655E-13
   0.114E-12 -.673E+02 -.133E+02   0.160E-13 0.619E+02 0.127E+02   0.000E+00 0.539E+01 0.624E+00   0.665E-14 0.338E-01 -.322E-02
   0.122E-12 0.673E+02 0.133E+02   -.211E-13 -.619E+02 -.127E+02   0.000E+00 -.539E+01 -.624E+00   0.407E-14 -.338E-01 0.322E-02
   0.115E-12 -.281E+02 0.141E-06   -.429E-15 0.289E+02 0.142E-13   0.000E+00 -.706E+00 0.000E+00   0.140E-13 0.135E-02 0.160E-13
   0.123E-12 0.673E+02 -.133E+02   0.277E-13 -.619E+02 0.127E+02   0.000E+00 -.539E+01 0.624E+00   0.190E-13 -.338E-01 -.322E-02
   -.517E-14 0.588E-12 0.203E+01   0.333E-14 0.755E-14 -.126E+01   0.000E+00 -.339E-20 -.843E+00   0.253E-13 -.177E-13 0.472E-02
   0.103E-14 0.749E-12 0.390E-12   0.122E-13 0.243E-13 0.284E-13   0.000E+00 0.136E-19 0.000E+00   0.111E-13 0.799E-13 0.147E-13
   0.342E-15 0.101E-11 -.203E+01   -.615E-14 0.155E-13 0.126E+01   0.000E+00 -.678E-20 0.843E+00   0.530E-14 -.443E-13 -.472E-02
   -.364E-14 0.106E-11 0.272E+02   -.401E-14 0.133E-13 -.270E+02   0.000E+00 0.542E-19 -.228E+00   0.110E-13 0.875E-13 0.412E-02
   -.696E-15 0.102E-11 0.372E-12   0.135E-13 0.200E-13 0.355E-13   0.000E+00 0.000E+00 0.000E+00   0.155E-13 -.161E-13 0.417E-13
   -.190E-14 0.815E-12 -.272E+02   -.130E-14 0.416E-13 0.270E+02   0.000E+00 -.322E-19 0.228E+00   0.347E-14 0.110E-12 -.412E-02
   0.228E-11 0.298E-10 0.121E-10   -.753E-14 0.868E-13 -.391E-13   -.851E-19 0.355E-14 0.139E-15   0.151E-12 0.434E-12 0.362E-12

 POSITION                                       TOTAL-FORCE (eV/Angst)
      0.00000      3.85746      3.83097        -0.000000     -0.050730     -0.063251
      0.00000      0.04178      7.86095        -0.000000      0.050730      0.063251
      0.00000      3.78169      0.00000        -0.000000     -0.177115     -0.000000
      0.00000      0.04178      3.83097         0.000000      0.050730     -0.063251
      0.00000      3.85746      7.86095        -0.000000     -0.050730      0.063251
      0.00000      0.11755      0.00000        -0.000000      0.177115     -0.000000
      1.94609      1.94962      5.84596        -0.000000      0.000000     -0.000000
      1.94609      5.84886      9.75365        -0.000000      0.000000     -0.009615
      1.94609      5.84886      1.93826        -0.000000      0.000000      0.009615
      1.94609      5.84886      5.84596        -0.000000      0.000000     -0.000000
      1.94609      1.94962      9.73412        -0.000000      0.000000     -0.015341
      1.94609      1.94962      1.95779        -0.000000      0.000000      0.015341
      1.94609      5.84886      7.79960         0.000000      0.000000     -0.001528
      1.94609      1.94962      3.94134        -0.000000      0.000000      0.070879
      1.94609      5.84886      0.00000        -0.000000      0.000000     -0.000000
      1.94609      1.94962      7.75058        -0.000000      0.000000     -0.070879
      1.94609      5.84886      3.89232         0.000000      0.000000      0.001528
      1.94609      1.94962      0.00000        -0.000000      0.000000     -0.000000
      1.94609      3.94945      9.72499         0.000000      0.034330     -0.021757
      1.94609      0.01008      5.84596        -0.000000     -0.116202     -0.000000
      1.94609      3.94945      1.96693         0.000000      0.034330      0.021757
      1.94609      7.74827      9.72499        -0.000000     -0.034330     -0.021757
      1.94609      3.88916      5.84596        -0.000000      0.116202     -0.000000
      1.94609      7.74827      1.96693        -0.000000     -0.034330      0.021757
      0.00000      5.84886      9.72066        -0.000000      0.000000     -0.067486
      0.00000      1.94962      5.84596        -0.000000      0.000000     -0.000000
      0.00000      5.84886      1.97125        -0.000000      0.000000      0.067486
      0.00000      1.94962      9.71763        -0.000000      0.000000     -0.038292
      0.00000      5.84886      5.84596        -0.000000      0.000000     -0.000000
      0.00000      1.94962      1.97428        -0.000000      0.000000      0.038292
    total drift:                                0.000000      0.000000      0.000000

  FREE ENERGIE OF THE ION-ELECTRON SYSTEM (eV)
  free  energy   TOTEN  =      -226.60487877 eV

  energy  without entropy=     -226.60487877  energy(sigma->0) =     -226.60487877

 total charge

[...]

 magnetization (x)

# of ion       s       p       d       f       tot
    1        0.001   0.001   0.010   0.005   0.017
    2        0.001   0.001   0.010   0.005   0.017
    3        0.000   0.000   0.005   0.003   0.009
    4        0.001   0.001   0.010   0.005   0.017
    5        0.001   0.001   0.010   0.005   0.017
    6        0.000   0.000   0.005   0.003   0.009
    7        0.024   0.027   3.531   0.000   3.582
    8        0.024   0.028   3.510   0.000   3.561
    9        0.024   0.028   3.510   0.000   3.562
   10        0.023   0.019   3.716   0.000   3.758
   11        0.013   0.008   1.689   0.000   1.709
   12        0.013   0.008   1.689   0.000   1.709
   13        0.005  -0.050   0.000   0.000  -0.045
   14        0.005  -0.017   0.000   0.000  -0.012
   15        0.005  -0.032   0.000   0.000  -0.027
   16        0.005  -0.017   0.000   0.000  -0.012
   17        0.005  -0.050   0.000   0.000  -0.045
   18        0.007   0.034   0.000   0.000   0.041
   19        0.005  -0.009   0.000   0.000  -0.004
   20        0.005  -0.042   0.000   0.000  -0.037
   21        0.005  -0.009   0.000   0.000  -0.003
   22        0.005  -0.009   0.000   0.000  -0.003
   23        0.005  -0.042   0.000   0.000  -0.037
   24        0.005  -0.009   0.000   0.000  -0.003
   25        0.005  -0.046   0.000   0.000  -0.041
   26        0.005  -0.044   0.000   0.000  -0.040
   27        0.005  -0.046   0.000   0.000  -0.041
   28        0.006   0.020   0.000   0.000   0.027
   29        0.004  -0.050   0.000   0.000  -0.046
   30        0.006   0.020   0.000   0.000   0.027
tot          0.216  -0.276  17.695   0.027  17.663

 BZINTS: Fermi energy:  7.868927;222.000000 electrons
         Band energy:-365.698853;  BLOECHL correction: -0.137543