 vasp.5.4.4.18Apr17-6-g9f103f2a35 (build Oct 03 2018 13:58:34) complex

 executed on             LinuxIFC date 2019.06.04  02:00:27

 INCAR:
 POTCAR:    PAW_PBE La 06Sep2000
 POTCAR:    PAW_PBE Mn 06Sep2000
 POTCAR:    PAW_PBE Ni 02Aug2007
 POTCAR:    PAW_PBE O 08Apr2002

 POTCAR:    PAW_PBE La 06Sep2000
   VRHFIN =La : [core=Kr4d]

   TITEL  = PAW_PBE La 06Sep2000
   POMASS =  138.900; ZVAL   =   11.000    mass and valenz
   ENMAX  =  219.292; ENMIN  =  164.469 eV

 POTCAR:    PAW_PBE Mn 06Sep2000
   VRHFIN =Mn: d6 s1

   TITEL  = PAW_PBE Mn 06Sep2000
   POMASS =   54.938; ZVAL   =    7.000    mass and valenz
   ENMAX  =  269.864; ENMIN  =  202.398 eV

 POTCAR:    PAW_PBE Ni 02Aug2007
   VRHFIN =Ni:

   TITEL  = PAW_PBE Ni 02Aug2007
   POMASS =   58.690; ZVAL   =   10.000    mass and valenz
   ENMAX  =  269.532; ENMIN  =  202.149 eV

 POTCAR:    PAW_PBE O 08Apr2002
   VRHFIN =O: s2p4

   TITEL  = PAW_PBE O 08Apr2002
   POMASS =   16.000; ZVAL   =    6.000    mass and valenz
   ENMAX  =  400.000; ENMIN  =  300.000 eV

 Optimization of the real space projectors (new method)

 maximal supplied QI-value         = 13.42
 optimisation between [QCUT,QGAM] = [ 11.67, 23.35] = [ 38.16,152.62] Ry
 Optimized for a Real-space Cutoff    1.63 Angstroem

   l    n(q)    QCUT    max X(q) W(low)/X(q) W(high)/X(q)  e(spline)
   0     11    11.673    13.882    0.27E-04    0.79E-05    0.11E-06
   0     11    11.673    12.184    0.39E-04    0.13E-04    0.19E-06
   1     11    11.673     4.523    0.73E-05    0.76E-05    0.12E-06
   1     11    11.673     4.424    0.87E-05    0.13E-04    0.19E-06
   2     10    11.673    52.481    0.65E-04    0.36E-04    0.18E-06
   2     10    11.673    38.501    0.61E-04    0.33E-04    0.17E-06
   3     10    11.673    65.631    0.17E-03    0.14E-03    0.37E-06
   3     10    11.673    56.854    0.17E-03    0.14E-03    0.37E-06
 Optimization of the real space projectors (new method)

[...]

   l    n(q)    QCUT    max X(q) W(low)/X(q) W(high)/X(q)  e(spline)
   2      9    11.539    60.317    0.19E-03    0.47E-04    0.16E-06
   2      9    11.539    55.921    0.19E-03    0.48E-04    0.16E-06
   0     10    11.539    51.690    0.80E-04    0.50E-04    0.24E-06
   0     10    11.539    30.015    0.73E-04    0.45E-04    0.22E-06
   1     10    11.539    18.849    0.87E-04    0.16E-03    0.71E-07
   1     10    11.539    14.624    0.73E-04    0.13E-03    0.64E-07
 Optimization of the real space projectors (new method)

 maximal supplied QI-value         = 24.76
 optimisation between [QCUT,QGAM] = [ 11.64, 23.27] = [ 37.91,151.63] Ry
 Optimized for a Real-space Cutoff    1.14 Angstroem

   l    n(q)    QCUT    max X(q) W(low)/X(q) W(high)/X(q)  e(spline)
   0      8    11.635    20.381    0.10E-03    0.33E-03    0.24E-06
   0      8    11.635    15.268    0.11E-03    0.35E-03    0.26E-06
   1      7    11.635     5.964    0.24E-03    0.31E-03    0.30E-06
   1      7    11.635     5.382    0.22E-03    0.25E-03    0.26E-06
  PAW_PBE La 06Sep2000                  :
  PAW_PBE Mn 06Sep2000                  :
  PAW_PBE Ni 02Aug2007                  :
  PAW_PBE O 08Apr2002                   :

 POSCAR: SCEL5_1_5_1_2_0_0/3
  positions in direct lattice
  velocities in cartesian coordinates
 exchange correlation table for  LEXCH =        8
   RHO(1)=    0.500       N(1)  =     2000
   RHO(2)=  100.500       N(2)  =     4000

 ion  position               nearest neighbor table
   1  0.000  0.400  0.200-  23 2.73  22 2.73  24 2.73  25 2.73  15 2.73  17 2.73  15 2.73  17 2.73
                            14 2.73  14 2.73  19 2.73  19 2.73   8 3.34   8 3.34   7 3.34   7 3.34
   2  0.000  0.797  0.394-  24 2.66  14 2.69  14 2.69  18 2.70  18 2.70  22 2.73  23 2.73  16 2.76
                            16 2.76  13 2.76  13 2.76  21 2.79   9 3.30   9 3.30   7 3.33   7 3.33
   3  0.000  0.206  0.597-  22 2.66  17 2.69  17 2.69  12 2.70  12 2.70  23 2.73  25 2.73  13 2.76
                            13 2.76  20 2.76  20 2.76  21 2.79   7 3.30   7 3.30   8 3.33   8 3.33
   4  0.000  0.594  0.803-  25 2.66  19 2.69  19 2.69  12 2.70  12 2.70  24 2.73  22 2.73  11 2.76
                            11 2.76  16 2.76  16 2.76  21 2.79  10 3.30  10 3.30   9 3.33   9 3.33
   5  0.000  0.003  0.006-  23 2.66  15 2.69  15 2.69  18 2.70  18 2.70  25 2.73  24 2.73  20 2.76
                            20 2.76  11 2.76  11 2.76  21 2.79   8 3.30   8 3.30  10 3.33  10 3.33
   6  0.500  0.900  0.700-  11 1.90  16 1.90  20 1.90  13 1.90  21 1.93  21 1.93   4 3.39   4 3.39
                             5 3.39   5 3.39   3 3.39   3 3.39   2 3.39   2 3.39
   7  0.500  0.501  0.500-  14 1.92  22 1.93  22 1.93  12 1.93  17 1.94  16 1.95   3 3.30   3 3.30
                             2 3.33   2 3.33   1 3.34   1 3.34   4 3.34   4 3.34
   8  0.500  0.100  0.301-  17 1.92  23 1.93  23 1.93  18 1.93  15 1.94  13 1.95   5 3.30   5 3.30
                             3 3.33   3 3.33   1 3.34   1 3.34   2 3.34   2 3.34
   9  0.500  0.700  0.099-  19 1.92  24 1.93  24 1.93  18 1.93  14 1.94  11 1.95   2 3.30   2 3.30
                             4 3.33   4 3.33   1 3.34   1 3.34   5 3.34   5 3.34
  10  0.500  0.299  0.900-  15 1.92  25 1.93  25 1.93  12 1.93  19 1.94  20 1.95   4 3.30   4 3.30
                             5 3.33   5 3.33   1 3.34   1 3.34   3 3.34   3 3.34
  11  0.500  0.801  0.897-   6 1.90   9 1.95   4 2.76   4 2.76   5 2.76   5 2.76
  12  0.500  0.400  0.700-  10 1.93   7 1.93   3 2.70   3 2.70   4 2.70   4 2.70
  13  0.500  0.999  0.503-   6 1.90   8 1.95   3 2.76   3 2.76   2 2.76   2 2.76
  14  0.500  0.600  0.301-   7 1.92   9 1.94   2 2.69   2 2.69   1 2.73   1 2.73
  15  0.500  0.200  0.099-  10 1.92   8 1.94   5 2.69   5 2.69   1 2.73   1 2.73
  16  0.500  0.703  0.601-   6 1.90   7 1.95   2 2.76   2 2.76   4 2.76   4 2.76
  17  0.500  0.299  0.400-   8 1.92   7 1.94   3 2.69   3 2.69   1 2.73   1 2.73
  18  0.500  0.900  0.200-   9 1.93   8 1.93   2 2.70   2 2.70   5 2.70   5 2.70
  19  0.500  0.501  1.000-   9 1.92  10 1.94   4 2.69   4 2.69   1 2.73   1 2.73
  20  0.500  0.097  0.799-   6 1.90  10 1.95   5 2.76   5 2.76   3 2.76   3 2.76
  21  0.000  0.900  0.700-   6 1.93   6 1.93   4 2.79   5 2.79   2 2.79   3 2.79
  22  0.000  0.500  0.500-   7 1.93   7 1.93   3 2.66   1 2.73   2 2.73   4 2.73
  23  0.000  0.100  0.300-   8 1.93   8 1.93   5 2.66   1 2.73   3 2.73   2 2.73
  24  0.000  0.700  0.100-   9 1.93   9 1.93   2 2.66   1 2.73   4 2.73   5 2.73
  25  0.000  0.300  0.900-  10 1.93  10 1.93   4 2.66   1 2.73   5 2.73   3 2.73

  LATTYP: Found a simple tetragonal cell.
 ALAT       =     8.6233776295
 C/A-ratio  =     0.4472966638

  Lattice vectors:

 A1 = (   0.0000000000,   7.7129834279,   3.8564917194)
 A2 = (   0.0000000000,  -3.8564917194,   7.7129834279)
 A3 = (   3.8572080443,   0.0000000000,   0.0000000000)

Analysis of symmetry for initial positions (statically):
 Subroutine PRICEL returns:
 Original cell was already a primitive cell.

 Routine SETGRP: Setting up the symmetry group for a
 simple tetragonal supercell.

 Subroutine GETGRP returns: Found  8 space group operations
 (whereof  2 operations were pure point group operations)
 out of a pool of 16 trial point group operations.

The static configuration has the point symmetry C_1h.
 The point group associated with its full space group is C_4h.

Analysis of symmetry for dynamics (positions and initial velocities):
 Subroutine PRICEL returns:
 Original cell was already a primitive cell.

[...]

The dynamic configuration has the point symmetry C_1h.
 The point group associated with its full space group is C_4h.

Analysis of structural, dynamic, and magnetic symmetry:
 Subroutine PRICEL returns:
 Original cell was already a primitive cell.

 Routine SETGRP: Setting up the symmetry group for a
 simple tetragonal supercell.

 Subroutine GETGRP returns: Found  8 space group operations
 (whereof  2 operations were pure point group operations)
 out of a pool of 16 trial point group operations.

The magnetic configuration has the point symmetry C_1h.
 The point group associated with its full space group is C_4h.

 Subroutine INISYM returns: Found  8 space group operations
 (whereof  2 operations are pure point group operations),
 and found     1 'primitive' translations

 KPOINTS: Automatic mesh

Automatic generation of k-mesh.
 generate k-points for:    5    2    2
Space group operators:
 irot       det(A)        alpha          n_x          n_y          n_z        tau_x        tau_y        tau_z
    1     1.000000     0.000000     1.000000     0.000000     0.000000     0.000000     0.000000     0.000000
    2    -1.000000   180.000000     1.000000     0.000000     0.000000     0.000000     0.000000     0.000000
    3    -1.000000     0.000000     1.000000     0.000000     0.000000     0.000000     0.800000    -0.600000
    4     1.000000    90.000000    -1.000000     0.000000     0.000000     0.000000     0.200000    -0.400000
    5    -1.000000    90.000000    -1.000000     0.000000     0.000000     0.000000     0.600000    -0.200000
    6     1.000000   180.000000     1.000000     0.000000     0.000000     0.000000     0.800000    -0.600000
    7     1.000000    90.000000     1.000000     0.000000     0.000000     0.000000     0.600000    -0.200000
    8    -1.000000    90.000000     1.000000     0.000000     0.000000     0.000000     0.200000    -0.400000

 Subroutine IBZKPT returns following result:

 Found      9 irreducible k-points:

 Following reciprocal coordinates:
            Coordinates               Weight
  0.000000  0.000000  0.000000      1.000000
  0.200000  0.000000  0.000000      2.000000
  0.400000  0.000000  0.000000      2.000000
  0.000000  0.500000 -0.000000      2.000000
  0.200000  0.500000 -0.000000      4.000000
  0.400000  0.500000 -0.000000      4.000000
  0.000000  0.500000  0.500000      1.000000
  0.200000  0.500000  0.500000      2.000000
  0.400000  0.500000  0.500000      2.000000

 Following cartesian coordinates:
            Coordinates               Weight
  0.000000  0.000000  0.000000      1.000000
 -0.051851  0.000000  0.000000      2.000000
 -0.103702  0.000000  0.000000      2.000000
  0.000000  0.051861  0.025930      2.000000
 -0.051851  0.051861  0.025930      4.000000
 -0.103702  0.051861  0.025930      4.000000
  0.000000  0.077791 -0.025930      1.000000
 -0.051851  0.077791 -0.025930      2.000000
 -0.103702  0.077791 -0.025930      2.000000

 TETIRR: Found     31 inequivalent tetrahedra from      120

 SYSTEM =  final
 POSCAR =  SCEL5_1_5_1_2_0_0/3

 Startparameter for this run:
   NWRITE =      2    write-flag & timer
   PREC   = accura    normal or accurate (medium, high low for compatibility)
   ISTART =      0    job   : 0-new  1-cont  2-samecut
   ICHARG =      1    charge: 1-file 2-atom 10-const
   ISPIN  =      2    spin polarized calculation?
   LNONCOLLINEAR =      F non collinear calculations
   LSORBIT =      F    spin-orbit coupling
   INIWAV =      1    electr: 0-lowe 1-rand  2-diag
   LASPH  =      F    aspherical Exc in radial PAW
   METAGGA=      F    non-selfconsistent MetaGGA calc.

 Electronic Relaxation 1
[...]
       1 -94.9670       2 -94.9953       3 -94.9954       4 -94.9953       5 -94.9953
       6 -43.0100       7 -83.8280       8 -83.8280       9 -83.8280      10 -83.8280
      11 -66.7053      12 -66.6602      13 -66.7053      14 -66.6666      15 -66.6666
      16 -66.7053      17 -66.6666      18 -66.6602      19 -66.6666      20 -66.7053
      21 -66.9798      22 -66.5701      23 -66.5701      24 -66.5701      25 -66.5701

 E-fermi :   7.5520     XC(G=0): -11.8365     alpha+bet :-16.9049

[...]

 k-point     1 :       0.0000    0.0000    0.0000
  band No.  band energies     occupation
      1     -23.5266      1.00000
      2     -23.4572      1.00000
      3     -23.4436      1.00000
      4     -23.4436      1.00000
      5     -23.4100      1.00000
      6     -10.9561      1.00000
      7     -10.7792      1.00000
      8     -10.7656      1.00000
      9     -10.7656      1.00000
     10     -10.5795      1.00000
     11      -9.6758      1.00000
     12      -9.6712      1.00000
     13      -9.6712      1.00000
     14      -9.6612      1.00000
     15      -9.5259      1.00000
     16      -9.3430      1.00000
     17      -9.2635      1.00000
     18      -9.2635      1.00000
     19      -9.2544      1.00000
     20      -9.2355      1.00000
     21      -7.0394      1.00000
     22      -7.0311      1.00000
     23      -7.0311      1.00000
     24      -6.9120      1.00000
     25      -6.8894      1.00000
     26      -6.8894      1.00000
     27      -6.8459      1.00000
     28      -6.7930      1.00000
     29      -6.7705      1.00000
     30      -6.7705      1.00000
     31      -6.7406      1.00000
     32      -6.4335      1.00000
     33      -6.3466      1.00000
     34      -6.3116      1.00000
     35      -6.3116      1.00000
     36       0.5617      1.00000
     37       0.5617      1.00000
     38       0.6169      1.00000
     39       0.8932      1.00000
     40       1.6700      1.00000
     41       1.6700      1.00000
     42       1.7852      1.00000
     43       1.8268      1.00000
     44       1.8692      1.00000
     45       1.8692      1.00000
     46       2.1100      1.00000
     47       2.1345      1.00000
     48       2.1447      1.00000
     49       2.1529      1.00000
     50       2.1993      1.00000
     51       2.1993      1.00000
     52       2.3132      1.00000
     53       2.3478      1.00000
     54       2.3564      1.00000
     55       2.3564      1.00000
     56       2.6875      1.00000
     57       2.7187      1.00000
     58       2.7187      1.00000
     59       3.4049      1.00000
     60       3.4792      1.00000
[...]
    110      11.2292      0.00000
    111      11.2536      0.00000
    112      11.3832      0.00000
    113      11.3946      0.00000
    114      11.4323      0.00000
    115      11.4444      0.00000
    116      11.4733      0.00000
    117      11.4962      0.00000
    118      11.5121      0.00000
    119      11.5476      0.00000
    120      11.5647      0.00000
    121      11.5736      0.00000
    122      11.5967      0.00000
    123      11.6333      0.00000
    124      11.6843      0.00000

[...]

 spin component 2

[...]

 k-point     9 :       0.4000    0.5000    0.5000
  band No.  band energies     occupation
      1     -23.4222      1.00000
      2     -23.4222      1.00000
      3     -23.4087      1.00000
      4     -23.3978      1.00000
      5     -23.3351      1.00000
      6     -10.6128      1.00000
      7     -10.6017      1.00000
      8     -10.6017      1.00000
      9     -10.5892      1.00000
     10     -10.0276      1.00000
     11      -9.8417      1.00000
     12      -9.8417      1.00000
     13      -9.8266      1.00000
     14      -9.6081      1.00000
     15      -9.6080      1.00000
     16      -9.5402      1.00000
     17      -9.3913      1.00000
     18      -9.3518      1.00000
     19      -9.2996      1.00000
     20      -9.2996      1.00000
     21      -7.4950      1.00000
     22      -7.4545      1.00000
     23      -7.4545      1.00000
     24      -6.9854      1.00000
     25      -6.9716      1.00000
     26      -6.9420      1.00000
     27      -6.9420      1.00000
     28      -6.7157      1.00000
     29      -6.6434      1.00000
     30      -6.6433      1.00000
     31      -6.6254      1.00000
     32      -6.5509      1.00000
     33      -6.4622      1.00000
     34      -6.4622      1.00000
     35      -6.4415      1.00000
     36       0.9802      1.00000
     37       1.8805      1.00000
     38       1.9452      1.00000
     39       2.0166      1.00000
     40       2.0166      1.00000
     41       2.1878      1.00000
     42       2.2256      1.00000
     43       2.2993      1.00000
     44       2.2993      1.00000
     45       2.4813      1.00000
     46       2.6064      1.00000
     47       2.6064      1.00000
     48       2.7019      1.00000
     49       2.7022      1.00000
     50       2.7705      1.00000
     51       2.7916      1.00000
     52       2.7916      1.00000
     53       3.3244      1.00000
     54       3.3935      1.00000
     55       3.6106      1.00000
     56       3.6106      1.00000
     57       3.7298      1.00000
     58       3.8542      1.00000
     59       3.8876      1.00000
     60       3.8876      1.00000
[...]
    110      11.4613      0.00000
    111      11.4860      0.00000
    112      11.5093      0.00000
    113      11.5130      0.00000
    114      11.5178      0.00000
    115      11.5266      0.00000
    116      11.5344      0.00000
    117      11.5504      0.00000
    118      11.5652      0.00000
    119      11.5717      0.00000
    120      11.5909      0.00000
    121      11.6414      0.00000
    122      11.6658      0.00000
    123      11.6756      0.00000
    124      11.7003      0.00000

 soft charge-density along one line, spin component           1
         0         1         2         3         4         5         6         7         8         9
 total charge-density along one line

 soft charge-density along one line, spin component           2
         0         1         2         3         4         5         6         7         8         9
 total charge-density along one line

------------------------ aborting loop because EDIFF is reached ----------------------------------------

 total charge

# of ion       s       p       d       f       tot
    1        2.000   5.701   0.494   0.191   8.386
    2        2.000   5.701   0.499   0.194   8.395
    3        2.000   5.701   0.499   0.194   8.395
    4        2.000   5.701   0.499   0.194   8.395
    5        2.001   5.701   0.499   0.194   8.396
    6        0.348   0.554   4.864   0.000   5.765
    7        0.426   0.638   8.321   0.000   9.385
    8        0.425   0.639   8.315   0.000   9.379
    9        0.425   0.639   8.315   0.000   9.379
   10        0.426   0.638   8.321   0.000   9.385
   11        1.562   3.452   0.000   0.000   5.015
   12        1.561   3.443   0.000   0.000   5.005
   13        1.562   3.452   0.000   0.000   5.015
   14        1.563   3.433   0.000   0.000   4.996
   15        1.563   3.433   0.000   0.000   4.996
   16        1.563   3.457   0.000   0.000   5.021
   17        1.564   3.432   0.000   0.000   4.996
   18        1.562   3.436   0.000   0.000   4.998
   19        1.564   3.432   0.000   0.000   4.996
   20        1.563   3.457   0.000   0.000   5.021
   21        1.563   3.464   0.000   0.000   5.027
   22        1.562   3.440   0.000   0.000   5.002
   23        1.561   3.439   0.000   0.000   5.001
   24        1.561   3.439   0.000   0.000   5.001
   25        1.562   3.440   0.000   0.000   5.002
tot         35.491  83.268  40.626   0.967 160.351

 magnetization (x)

[...]

  FORCE on cell =-STRESS in cart. coord.  units (eV):
  Direction    XX          YY          ZZ          XY          YZ          ZX
  Alpha Z   828.15927   828.15927   828.15927
  Ewald   -4494.73664 -4546.02393 -4546.02393    -0.00000     0.00000    -0.00000
  Hartree  1114.18042  1064.24762  1064.24767     0.00000     0.00002    -0.00000
  E(xc)    -902.65168  -902.77206  -902.77206     0.00000     0.00000    -0.00000
  Local    -761.10329  -659.35294  -659.35300     0.00000    -0.00003    -0.00000
  n-local   367.07020   367.07307   366.48637     0.00084     0.97447    -0.00041
  augment   625.41824   624.91992   624.92008     0.00000     0.00022    -0.00000
  Kinetic  3223.69788  3222.66608  3224.92920     0.00002    -2.96347    -0.00048
  Fock        0.00000     0.00000     0.00000     0.00000     0.00000     0.00000
  Total       0.03440    -0.24468    -0.24468     0.00000    -0.00000     0.00000
  in kB       0.19215    -1.36671    -1.36671     0.00000    -0.00000     0.00000

 VOLUME and BASIS-vectors are now :
  energy-cutoff  :      520.00
  volume of cell :      286.83
      direct lattice vectors                 reciprocal lattice vectors
    -3.857208044  0.000000000  0.000000000    -0.259254878  0.000000000  0.000000000
     0.000000000  7.712983428  3.856491719     0.000000000  0.103721213  0.051860607
     0.000000000  3.856491719 -7.712983428     0.000000000  0.051860607 -0.103721213

  length of vectors
     3.857208044  8.623377629  8.623377629     0.259254878  0.115963842  0.115963842

 FORCES acting on ions
    electron-ion (+dipol)            ewald-force                    non-local-force                 convergence-correction
   -.626E-15 -.428E-04 -.738E-05   -.156E-13 -.118E-10 0.244E-10   0.000E+00 0.542E-18 -.108E-18   -.743E-14 0.573E-05 0.497E-05
   0.286E-14 -.634E+02 0.584E+02   -.251E-13 0.629E+02 -.580E+02   0.000E+00 0.445E+00 -.410E+00   -.302E-15 -.208E-01 0.224E-01
   -.608E-14 0.584E+02 0.634E+02   0.909E-14 -.580E+02 -.629E+02   0.000E+00 -.410E+00 -.445E+00   -.589E-14 0.224E-01 0.208E-01
   0.274E-14 -.584E+02 -.634E+02   -.175E-13 0.580E+02 0.629E+02   0.000E+00 0.410E+00 0.445E+00   -.500E-14 -.224E-01 -.208E-01
   0.351E-14 0.634E+02 -.584E+02   0.456E-13 -.629E+02 0.580E+02   0.542E-19 -.445E+00 0.410E+00   -.183E-15 0.208E-01 -.224E-01
   -.547E-13 0.769E-04 0.295E-04   -.742E-14 -.112E-10 -.263E-11   0.000E+00 -.119E-19 0.339E-20   -.521E-14 -.266E-05 -.165E-06
   -.282E-12 -.380E+02 0.681E+01   -.154E-13 0.379E+02 -.661E+01   0.000E+00 0.788E-01 -.194E+00   -.401E-13 -.154E-01 -.392E-02
   -.303E-12 0.681E+01 0.380E+02   -.968E-15 -.661E+01 -.379E+02   0.000E+00 -.194E+00 -.788E-01   -.499E-13 -.392E-02 0.154E-01
   -.299E-12 -.681E+01 -.380E+02   -.372E-13 0.661E+01 0.379E+02   0.000E+00 0.194E+00 0.788E-01   -.322E-13 0.392E-02 -.154E-01
   -.257E-12 0.380E+02 -.681E+01   0.530E-13 -.379E+02 0.661E+01   0.000E+00 -.788E-01 0.194E+00   -.553E-13 0.154E-01 0.393E-02
   -.107E-12 -.104E+01 -.719E+02   -.120E-13 0.106E+01 0.679E+02   -.678E-20 -.238E-01 0.408E+01   -.255E-13 0.631E-03 -.376E-01
   -.110E-12 -.841E-04 -.875E-04   0.353E-14 0.224E-10 -.190E-10   0.000E+00 0.542E-19 -.136E-18   -.233E-13 0.155E-05 0.185E-05
   -.111E-12 0.104E+01 0.719E+02   0.331E-13 -.106E+01 -.679E+02   0.000E+00 0.238E-01 -.408E+01   -.205E-13 -.635E-03 0.376E-01
   -.103E-12 -.116E+02 0.250E+00   0.848E-14 0.111E+02 0.436E+00   -.136E-19 0.449E+00 -.692E+00   -.227E-13 -.390E-02 0.241E-02
   -.112E-12 0.116E+02 -.250E+00   0.246E-13 -.111E+02 -.436E+00   0.000E+00 -.449E+00 0.692E+00   -.164E-13 0.390E-02 -.241E-02
   -.108E-12 -.719E+02 0.104E+01   0.820E-14 0.679E+02 -.106E+01   -.136E-19 0.408E+01 0.238E-01   -.177E-13 -.376E-01 -.634E-03
   -.106E-12 0.250E+00 0.116E+02   0.179E-13 0.436E+00 -.111E+02   0.136E-19 -.692E+00 -.449E+00   -.187E-13 0.242E-02 0.390E-02
   -.107E-12 -.492E-04 -.289E-04   -.548E-14 -.465E-11 0.763E-11   0.000E+00 0.108E-18 0.000E+00   -.297E-13 -.133E-05 -.171E-05
   -.113E-12 -.250E+00 -.116E+02   0.538E-14 -.436E+00 0.111E+02   -.678E-20 0.692E+00 0.449E+00   -.153E-13 -.241E-02 -.390E-02
   -.104E-12 0.719E+02 -.104E+01   -.355E-13 -.679E+02 0.106E+01   -.678E-20 -.408E+01 -.238E-01   -.222E-13 0.376E-01 0.635E-03
   -.448E-14 -.219E-04 -.574E-04   0.102E-13 -.186E-10 0.722E-11   0.000E+00 0.108E-18 -.271E-19   -.115E-14 -.239E-05 -.135E-06
   -.719E-14 -.224E+02 0.181E+01   0.262E-13 0.226E+02 -.147E+01   -.136E-19 -.248E+00 -.350E+00   0.630E-14 -.703E-02 -.597E-03
   -.408E-14 0.181E+01 0.224E+02   -.236E-13 -.147E+01 -.226E+02   0.000E+00 -.350E+00 0.248E+00   0.863E-14 -.596E-03 0.703E-02
   0.178E-14 -.181E+01 -.224E+02   0.243E-13 0.147E+01 0.226E+02   0.678E-20 0.350E+00 -.248E+00   -.327E-15 0.595E-03 -.703E-02
   -.261E-14 0.224E+02 -.181E+01   -.341E-13 -.226E+02 0.147E+01   0.678E-20 0.248E+00 0.350E+00   0.116E-13 0.703E-02 0.599E-03
   -.229E-11 -.193E-04 0.637E-04   0.398E-13 0.497E-13 -.284E-13   0.203E-19 -.888E-15 -.999E-15   -.389E-12 0.837E-05 0.144E-04

 POSITION                                       TOTAL-FORCE (eV/Angst)
      0.00000      3.85649      0.00000         0.000000     -0.000000      0.000000
      0.00000      7.66861      0.03933         0.000000     -0.079938      0.023577
      0.00000      3.89582     -3.81212        -0.000000      0.023577      0.079938
      0.00000      7.67366     -3.90087        -0.000000     -0.023577     -0.079938
      0.00000      0.04437     -0.03933         0.000000      0.079938     -0.023577
     -1.92860      9.64123     -1.92825         0.000000     -0.000000      0.000000
     -1.92860      5.78870     -1.92602         0.000000      0.028622      0.003277
     -1.92860      1.93047     -1.93221         0.000000      0.003277     -0.028622
     -1.92860      5.78252      1.93221         0.000000     -0.003277      0.028622
     -1.92860      5.78077     -5.78696         0.000000     -0.028622     -0.003277
     -1.92860      9.64070     -3.82879         0.000000      0.003281      0.057149
     -1.92860      5.78474     -3.85649         0.000000     -0.000000      0.000000
     -1.92860      9.64175     -0.02770         0.000000     -0.003281     -0.057149
     -1.92860      5.79085     -0.00920         0.000000     -0.001886     -0.004266
     -1.92860      1.92214      0.00920         0.000000      0.001886      0.004266
     -1.92860      7.74068     -1.92772        -0.000000      0.057149     -0.003281
     -1.92860      3.84729     -1.93436        -0.000000     -0.004266      0.001886
     -1.92860      7.71298      1.92825         0.000000     -0.000000      0.000000
     -1.92860      7.72219     -5.77863         0.000000      0.004266     -0.001886
     -1.92860      3.82879     -5.78526         0.000000     -0.057149      0.003281
      0.00000      9.64123     -1.92825         0.000000     -0.000000      0.000000
      0.00000      5.78187     -1.93190        -0.000000     -0.043505     -0.003268
      0.00000      1.92459     -1.92538        -0.000000     -0.003268      0.043505
      0.00000      5.78839      1.92538         0.000000      0.003268     -0.043505
      0.00000      5.78760     -5.78108         0.000000      0.043505      0.003268
    total drift:                               -0.000000     -0.000011      0.000078

  FREE ENERGIE OF THE ION-ELECTRON SYSTEM (eV)
  free  energy   TOTEN  =      -173.50316081 eV

  energy  without entropy=     -173.50316081  energy(sigma->0) =     -173.50316081

 total charge

[...]

 magnetization (x)

# of ion       s       p       d       f       tot
    1        0.000  -0.000   0.004   0.002   0.006
    2        0.001   0.000   0.006   0.003   0.010
    3        0.000   0.000   0.006   0.003   0.010
    4        0.000   0.000   0.006   0.003   0.010
    5        0.000   0.000   0.006   0.003   0.010
    6        0.021   0.027   3.278   0.000   3.325
    7        0.017   0.008   1.400   0.000   1.425
    8        0.016   0.009   1.393   0.000   1.418
    9        0.016   0.009   1.393   0.000   1.418
   10        0.017   0.008   1.400   0.000   1.425
   11        0.005  -0.036   0.000   0.000  -0.031
   12        0.005  -0.080   0.000   0.000  -0.075
   13        0.005  -0.036   0.000   0.000  -0.031
   14        0.006  -0.103   0.000   0.000  -0.097
   15        0.006  -0.103   0.000   0.000  -0.097
   16        0.005  -0.030   0.000   0.000  -0.025
   17        0.006  -0.105   0.000   0.000  -0.099
   18        0.005  -0.089   0.000   0.000  -0.084
   19        0.006  -0.105   0.000   0.000  -0.099
   20        0.005  -0.030   0.000   0.000  -0.025
   21        0.001  -0.053   0.000   0.000  -0.052
   22        0.006  -0.077   0.000   0.000  -0.071
   23        0.006  -0.077   0.000   0.000  -0.071
   24        0.006  -0.077   0.000   0.000  -0.071
   25        0.006  -0.077   0.000   0.000  -0.071
tot          0.166  -1.017   8.893   0.014   8.056

 BZINTS: Fermi energy:  7.551988;192.000000 electrons
         Band energy:-215.767455;  BLOECHL correction: -0.107799