 vasp.5.4.4.18Apr17-6-g9f103f2a35 (build Oct 03 2018 13:58:34) complex

 executed on             LinuxIFC date 2019.06.04  02:11:04

 INCAR:
 POTCAR:    PAW_PBE La 06Sep2000
 POTCAR:    PAW_PBE Mn 06Sep2000
 POTCAR:    PAW_PBE Ni 02Aug2007
 POTCAR:    PAW_PBE O 08Apr2002

 POTCAR:    PAW_PBE La 06Sep2000
   VRHFIN =La : [core=Kr4d]

   TITEL  = PAW_PBE La 06Sep2000
   POMASS =  138.900; ZVAL   =   11.000    mass and valenz
   ENMAX  =  219.292; ENMIN  =  164.469 eV

 POTCAR:    PAW_PBE Mn 06Sep2000
   VRHFIN =Mn: d6 s1

   TITEL  = PAW_PBE Mn 06Sep2000
   POMASS =   54.938; ZVAL   =    7.000    mass and valenz
   ENMAX  =  269.864; ENMIN  =  202.398 eV

 POTCAR:    PAW_PBE Ni 02Aug2007
   VRHFIN =Ni:

   TITEL  = PAW_PBE Ni 02Aug2007
   POMASS =   58.690; ZVAL   =   10.000    mass and valenz
   ENMAX  =  269.532; ENMIN  =  202.149 eV

 POTCAR:    PAW_PBE O 08Apr2002
   VRHFIN =O: s2p4

   TITEL  = PAW_PBE O 08Apr2002
   POMASS =   16.000; ZVAL   =    6.000    mass and valenz
   ENMAX  =  400.000; ENMIN  =  300.000 eV

 Optimization of the real space projectors (new method)

 maximal supplied QI-value         = 13.42
 optimisation between [QCUT,QGAM] = [ 11.67, 23.35] = [ 38.16,152.62] Ry
 Optimized for a Real-space Cutoff    1.63 Angstroem

   l    n(q)    QCUT    max X(q) W(low)/X(q) W(high)/X(q)  e(spline)
   0     11    11.673    13.882    0.27E-04    0.79E-05    0.11E-06
   0     11    11.673    12.184    0.39E-04    0.13E-04    0.19E-06
   1     11    11.673     4.523    0.73E-05    0.76E-05    0.12E-06
   1     11    11.673     4.424    0.87E-05    0.13E-04    0.19E-06
   2     10    11.673    52.481    0.65E-04    0.36E-04    0.18E-06
   2     10    11.673    38.501    0.61E-04    0.33E-04    0.17E-06
   3     10    11.673    65.631    0.17E-03    0.14E-03    0.37E-06
   3     10    11.673    56.854    0.17E-03    0.14E-03    0.37E-06
 Optimization of the real space projectors (new method)

[...]

   l    n(q)    QCUT    max X(q) W(low)/X(q) W(high)/X(q)  e(spline)
   2      9    11.539    60.317    0.19E-03    0.47E-04    0.16E-06
   2      9    11.539    55.921    0.19E-03    0.48E-04    0.16E-06
   0     10    11.539    51.690    0.80E-04    0.50E-04    0.24E-06
   0     10    11.539    30.015    0.73E-04    0.45E-04    0.22E-06
   1     10    11.539    18.849    0.87E-04    0.16E-03    0.71E-07
   1     10    11.539    14.624    0.73E-04    0.13E-03    0.64E-07
 Optimization of the real space projectors (new method)

 maximal supplied QI-value         = 24.76
 optimisation between [QCUT,QGAM] = [ 11.64, 23.27] = [ 37.91,151.63] Ry
 Optimized for a Real-space Cutoff    1.14 Angstroem

   l    n(q)    QCUT    max X(q) W(low)/X(q) W(high)/X(q)  e(spline)
   0      8    11.635    20.381    0.10E-03    0.33E-03    0.24E-06
   0      8    11.635    15.268    0.11E-03    0.35E-03    0.26E-06
   1      7    11.635     5.964    0.24E-03    0.31E-03    0.30E-06
   1      7    11.635     5.382    0.22E-03    0.25E-03    0.26E-06
  PAW_PBE La 06Sep2000                  :
  PAW_PBE Mn 06Sep2000                  :
  PAW_PBE Ni 02Aug2007                  :
  PAW_PBE O 08Apr2002                   :

 POSCAR: SCEL6_6_1_1_0_5_3/4
  positions in direct lattice
  velocities in cartesian coordinates
 exchange correlation table for  LEXCH =        8
   RHO(1)=    0.500       N(1)  =     2000
   RHO(2)=  100.500       N(2)  =     4000

 ion  position               nearest neighbor table
   1  0.670  0.175  0.340-  17 2.69  29 2.69  23 2.69  24 2.74  24 2.74  14 2.75  26 2.75  30 2.76
                            18 2.76  19 2.80  27 2.81  15 2.81  11 3.31  12 3.34  12 3.34   7 3.34
   2  0.327  0.335  0.654-  17 2.64  29 2.64  24 2.65  14 2.74  26 2.74  23 2.75  23 2.75  28 2.76
                            16 2.76  12 3.25  10 3.32  11 3.33  11 3.33   7 3.40   7 3.40   9 3.41
   3  0.003  0.507  0.006-  21 2.68  15 2.69  27 2.69  18 2.74  30 2.74  22 2.74  22 2.74  16 2.75
                            28 2.75  13 2.78  25 2.78  23 2.79  10 3.30  12 3.32   9 3.34   9 3.34
   4  0.670  0.666  0.340-  17 2.69  29 2.69  20 2.69  21 2.74  21 2.74  14 2.75  26 2.75  30 2.76
                            18 2.76  22 2.80  27 2.81  15 2.81  11 3.31  12 3.34  12 3.34   7 3.34
   5  0.327  0.818  0.654-  17 2.64  29 2.64  21 2.65  14 2.74  26 2.74  20 2.75  20 2.75  28 2.76
                            16 2.76  12 3.25  10 3.32  11 3.33  11 3.33   7 3.40   7 3.40   9 3.41
   6  0.003  0.999  0.006-  24 2.68  15 2.69  27 2.69  18 2.74  30 2.74  19 2.74  19 2.74  16 2.75
                            28 2.75  13 2.78  25 2.78  20 2.79  10 3.30  12 3.32   9 3.34   9 3.34
   7  0.834  0.084  0.668-  26 1.89  14 1.89  23 1.90  20 1.90  13 1.94  25 1.94   4 3.34   1 3.34
                             5 3.40   2 3.40   5 3.40   2 3.40   6 3.41   3 3.41
   8  0.499  0.249  0.999-  30 1.89  18 1.89  25 1.93  13 1.93  22 1.94  19 1.94   3 3.38   6 3.38
                             3 3.38   6 3.38   1 3.40   4 3.40
   9  0.500  0.750  1.000-  27 1.89  15 1.89  28 1.90  16 1.90  22 1.95  19 1.95   6 3.34   3 3.34
                             6 3.34   3 3.34   5 3.41   2 3.41
  10  0.166  0.916  0.333-  21 1.94  24 1.94  15 1.98  27 1.98  26 1.99  14 1.99   6 3.30   3 3.30
                             2 3.32   5 3.32   1 3.38   4 3.38   1 3.38   4 3.38
  11  0.835  0.585  0.670-  29 1.95  17 1.95  16 1.96  28 1.96  23 1.99  20 1.99   1 3.31   4 3.31
                             2 3.33   5 3.33   2 3.33   5 3.33   3 3.37   6 3.37
  12  0.166  0.416  0.331-  21 1.95  24 1.95  29 1.96  17 1.96  18 1.98  30 1.98   5 3.25   2 3.25
                             3 3.32   6 3.32   4 3.34   1 3.34   4 3.34   1 3.34
  13  0.668  0.167  0.835-   8 1.93   7 1.94   3 2.78   6 2.78
  14  0.996  0.002  0.505-   7 1.89  10 1.99   2 2.74   5 2.74   4 2.75   1 2.75
  15  0.335  0.831  0.161-   9 1.89  10 1.98   3 2.69   6 2.69   4 2.81   1 2.81
  16  0.664  0.669  0.837-   9 1.90  11 1.96   6 2.75   3 2.75   5 2.76   2 2.76
  17  1.000  0.501  0.501-  11 1.95  12 1.96   5 2.64   2 2.64   1 2.69   4 2.69
  18  0.337  0.330  0.161-   8 1.89  12 1.98   6 2.74   3 2.74   1 2.76   4 2.76
  19  0.500  0.000  1.000-   8 1.94   9 1.95   6 2.74   6 2.74   1 2.80
  20  0.834  0.840  0.668-   7 1.90  11 1.99   4 2.69   5 2.75   5 2.75   6 2.79
  21  0.166  0.667  0.332-  10 1.94  12 1.95   5 2.65   3 2.68   4 2.74   4 2.74
  22  0.500  0.500  1.000-   8 1.94   9 1.95   3 2.74   3 2.74   4 2.80
  23  0.834  0.328  0.668-   7 1.90  11 1.99   1 2.69   2 2.75   2 2.75   3 2.79
  24  0.166  0.165  0.332-  10 1.94  12 1.95   2 2.65   6 2.68   1 2.74   1 2.74
  25  0.167  0.167  0.835-   8 1.93   7 1.94   3 2.78   6 2.78
  26  0.509  0.002  0.505-   7 1.89  10 1.99   2 2.74   5 2.74   4 2.75   1 2.75
  27  0.827  0.831  0.161-   9 1.89  10 1.98   3 2.69   6 2.69   4 2.81   1 2.81
  28  0.173  0.669  0.837-   9 1.90  11 1.96   6 2.75   3 2.75   5 2.76   2 2.76
  29  0.501  0.501  0.501-  11 1.95  12 1.96   5 2.64   2 2.64   1 2.69   4 2.69
  30  0.824  0.330  0.161-   8 1.89  12 1.98   6 2.74   3 2.74   1 2.76   4 2.76

  LATTYP: Found a body centered orthorhombic cell.
 ALAT       =     5.4826273891
 B/A-ratio  =     1.4185268753
 C/A-ratio  =     3.0021458321

  Lattice vectors:

 A1 = (   7.7577655000,  -3.8886271543,   3.8809624848)
 A2 = (   3.8809624946,   3.8886271446,   7.7577654904)
 A3 = (  -7.7577655000,  -3.8886271446,  -3.8809624848)

Analysis of symmetry for initial positions (statically):
 Subroutine PRICEL returns:
 Original cell was already a primitive cell.

 Routine SETGRP: Setting up the symmetry group for a
 body centered orthorhombic supercell.

 Subroutine GETGRP returns: Found  4 space group operations
 (whereof  2 operations were pure point group operations)
 out of a pool of  8 trial point group operations.

The static configuration has the point symmetry C_1h.
 The point group associated with its full space group is C_2v.

Analysis of symmetry for dynamics (positions and initial velocities):
 Subroutine PRICEL returns:
 Original cell was already a primitive cell.

[...]

The dynamic configuration has the point symmetry C_1h.
 The point group associated with its full space group is C_2v.

Analysis of structural, dynamic, and magnetic symmetry:
 Subroutine PRICEL returns:
 Original cell was already a primitive cell.

 Routine SETGRP: Setting up the symmetry group for a
 body centered orthorhombic supercell.

 Subroutine GETGRP returns: Found  4 space group operations
 (whereof  2 operations were pure point group operations)
 out of a pool of  8 trial point group operations.

The magnetic configuration has the point symmetry C_1h.
 The point group associated with its full space group is C_2v.

 Subroutine INISYM returns: Found  4 space group operations
 (whereof  2 operations are pure point group operations),
 and found     1 'primitive' translations

 KPOINTS: Automatic mesh

Automatic generation of k-mesh.
 generate k-points for:    4    3    2
Space group operators:
 irot       det(A)        alpha          n_x          n_y          n_z        tau_x        tau_y        tau_z
    1     1.000000     0.000000     1.000000     0.000000     0.000000     0.000000     0.000000     0.000000
    2    -1.000000   180.000000     0.707107     0.000000    -0.707107     0.000000     0.000000     0.000000
    3     1.000000   179.999999     0.707107    -0.000000     0.707107     0.000000    -0.500000     0.000000
    4    -1.000000   180.000000    -0.000000    -1.000000    -0.000000     0.000000    -0.500000     0.000000

 Subroutine IBZKPT returns following result:

 Found     12 irreducible k-points:

 Following reciprocal coordinates:
            Coordinates               Weight
  0.000000  0.000000  0.000000      1.000000
  0.250000  0.000000  0.000000      2.000000
  0.500000  0.000000  0.000000      2.000000
  0.000000  0.333333  0.000000      2.000000
  0.250000  0.333333 -0.000000      2.000000
  0.500000  0.333333  0.000000      4.000000
 -0.250000  0.333333 -0.000000      2.000000
  0.000000  0.000000  0.500000      1.000000
  0.250000  0.000000  0.500000      2.000000
  0.000000  0.333333  0.500000      2.000000
  0.250000  0.333333  0.500000      2.000000
 -0.250000  0.333333  0.500000      2.000000

 Following cartesian coordinates:
            Coordinates               Weight
  0.000000  0.000000  0.000000      1.000000
  0.042983 -0.000000 -0.021503      2.000000
  0.085966 -0.000000 -0.043006      2.000000
  0.014320  0.042860  0.014320      2.000000
  0.057303  0.042860 -0.007183      2.000000
  0.100286  0.042860 -0.028686      4.000000
 -0.028663  0.042860  0.035823      2.000000
  0.042960 -0.000000  0.042960      1.000000
  0.085943 -0.000000  0.021457      2.000000
  0.057280  0.042860  0.057280      2.000000
  0.100263  0.042860  0.035777      2.000000
  0.014297  0.042860  0.078783      2.000000

 TETIRR: Found     67 inequivalent tetrahedra from      144

 SYSTEM =  final
 POSCAR =  SCEL6_6_1_1_0_5_3/4

 Startparameter for this run:
   NWRITE =      2    write-flag & timer
   PREC   = accura    normal or accurate (medium, high low for compatibility)
   ISTART =      0    job   : 0-new  1-cont  2-samecut
[...]
     30      -7.4516      1.00000
     31      -7.4408      1.00000
     32      -7.4216      1.00000
     33      -7.3199      1.00000
     34      -7.2528      1.00000
     35      -7.0917      1.00000
     36      -7.0849      1.00000
     37      -7.0202      1.00000
     38      -7.0107      1.00000
     39      -6.9910      1.00000
     40      -6.9464      1.00000
     41      -6.8360      1.00000
     42      -6.7047      1.00000
     43       0.2099      1.00000
     44       0.3913      1.00000
     45       0.4377      1.00000
     46       0.6197      1.00000
     47       0.8022      1.00000
     48       0.9778      1.00000
     49       1.0924      1.00000
     50       1.1812      1.00000
     51       1.2040      1.00000
     52       1.4603      1.00000
     53       1.4900      1.00000
     54       1.5213      1.00000
     55       1.6318      1.00000
     56       1.6733      1.00000
     57       1.7570      1.00000
     58       1.8891      1.00000
     59       1.9376      1.00000
     60       1.9827      1.00000
[...]
    132      10.9117      0.00000
    133      10.9314      0.00000
    134      10.9419      0.00000
    135      10.9669      0.00000
    136      11.0030      0.00000
    137      11.0241      0.00000
    138      11.0414      0.00000
    139      11.0508      0.00000
    140      11.0875      0.00000
    141      11.0949      0.00000
    142      11.1183      0.00000
    143      11.1247      0.00000
    144      11.1347      0.00000
    145      11.1597      0.00000
    146      11.1787      0.00000

[...]

 spin component 2

[...]

 k-point    12 :      -0.2500    0.3333    0.5000
  band No.  band energies     occupation
      1     -23.9009      1.00000
      2     -23.8859      1.00000
      3     -23.8753      1.00000
      4     -23.8339      1.00000
      5     -23.8179      1.00000
      6     -23.7927      1.00000
      7     -11.1400      1.00000
      8     -11.0368      1.00000
      9     -10.8931      1.00000
     10     -10.6210      1.00000
     11     -10.5626      1.00000
     12     -10.4476      1.00000
     13     -10.1519      1.00000
     14     -10.0819      1.00000
     15     -10.0255      1.00000
     16      -9.9277      1.00000
     17      -9.9024      1.00000
     18      -9.8005      1.00000
     19      -9.7255      1.00000
     20      -9.6593      1.00000
     21      -9.5296      1.00000
     22      -9.5005      1.00000
     23      -9.3580      1.00000
     24      -9.2096      1.00000
     25      -7.6421      1.00000
     26      -7.5754      1.00000
     27      -7.4846      1.00000
     28      -7.3987      1.00000
     29      -7.3795      1.00000
     30      -7.3235      1.00000
     31      -7.2927      1.00000
     32      -7.2627      1.00000
     33      -7.2327      1.00000
     34      -7.1807      1.00000
     35      -7.1714      1.00000
     36      -7.1437      1.00000
     37      -7.0705      1.00000
     38      -7.0027      1.00000
     39      -6.9900      1.00000
     40      -6.8761      1.00000
     41      -6.8107      1.00000
     42      -6.7303      1.00000
     43       1.6425      1.00000
     44       1.7626      1.00000
     45       1.7902      1.00000
     46       2.2877      1.00000
     47       2.3360      1.00000
     48       2.3832      1.00000
     49       2.4183      1.00000
     50       2.4410      1.00000
     51       2.4790      1.00000
     52       2.8812      1.00000
     53       2.9197      1.00000
     54       2.9540      1.00000
     55       2.9883      1.00000
     56       3.0077      1.00000
     57       3.0487      1.00000
     58       3.1160      1.00000
     59       3.1729      1.00000
     60       3.2202      1.00000
[...]
    132      11.0874      0.00000
    133      11.0918      0.00000
    134      11.1071      0.00000
    135      11.1094      0.00000
    136      11.1173      0.00000
    137      11.1401      0.00000
    138      11.1510      0.00000
    139      11.1553      0.00000
    140      11.1656      0.00000
    141      11.1798      0.00000
    142      11.2064      0.00000
    143      11.2253      0.00000
    144      11.2457      0.00000
    145      11.2673      0.00000
    146      11.3270      0.00000

 soft charge-density along one line, spin component           1
         0         1         2         3         4         5         6         7         8         9
 total charge-density along one line

 soft charge-density along one line, spin component           2
         0         1         2         3         4         5         6         7         8         9
 total charge-density along one line

------------------------ aborting loop because EDIFF is reached ----------------------------------------

 total charge

# of ion       s       p       d       f       tot
    1        2.000   5.698   0.489   0.189   8.375
    2        2.000   5.698   0.496   0.191   8.385
    3        2.000   5.700   0.491   0.192   8.383
    4        2.000   5.698   0.489   0.189   8.375
    5        2.000   5.698   0.496   0.191   8.385
    6        2.000   5.700   0.492   0.192   8.383
    7        0.354   0.564   4.857   0.000   5.775
    8        0.343   0.535   4.865   0.000   5.743
    9        0.351   0.556   4.865   0.000   5.773
   10        0.395   0.570   8.319   0.000   9.284
   11        0.397   0.576   8.333   0.000   9.306
   12        0.402   0.585   8.327   0.000   9.314
   13        1.562   3.462   0.000   0.000   5.024
   14        1.563   3.450   0.000   0.000   5.014
   15        1.562   3.457   0.000   0.000   5.019
   16        1.561   3.457   0.000   0.000   5.018
   17        1.557   3.458   0.000   0.000   5.015
   18        1.564   3.451   0.000   0.000   5.015
   19        1.565   3.452   0.000   0.000   5.017
   20        1.562   3.457   0.000   0.000   5.019
   21        1.556   3.454   0.000   0.000   5.010
   22        1.565   3.453   0.000   0.000   5.018
   23        1.562   3.457   0.000   0.000   5.019
   24        1.556   3.455   0.000   0.000   5.011
   25        1.561   3.465   0.000   0.000   5.027
   26        1.563   3.449   0.000   0.000   5.012
   27        1.561   3.460   0.000   0.000   5.021
   28        1.561   3.461   0.000   0.000   5.022
   29        1.557   3.460   0.000   0.000   5.017
   30        1.563   3.452   0.000   0.000   5.015
tot         42.343  99.787  42.517   1.146 185.793

 magnetization (x)

[...]

  FORCE on cell =-STRESS in cart. coord.  units (eV):
  Direction    XX          YY          ZZ          XY          YZ          ZX
  Alpha Z   984.07943   984.07943   984.07943
  Ewald   -5170.55977 -5159.20995 -5170.55969     0.00006     0.00006   -16.46837
  Hartree  1155.38369  1175.29750  1155.38379    -0.00000     0.00001   -16.90174
  E(xc)   -1046.34189 -1046.19423 -1046.34186    -0.00000    -0.00001     0.02490
  Local    -675.43662  -708.37079  -675.43638    -0.00029    -0.00056    33.09274
  n-local   416.26316   416.13758   416.34020     0.07275    -0.07003    -0.27964
  augment   489.30690   490.02764   489.30502     0.00019     0.00099    -0.05091
  Kinetic  3847.35999  3847.77429  3847.51008    -0.11355     0.08164     0.45019
  Fock        0.00000     0.00000     0.00000     0.00000     0.00000     0.00000
  Total       0.16773    -0.45853     0.16773    -0.00000    -0.00000    -0.13206
  in kB       0.76582    -2.09351     0.76582    -0.00000    -0.00000    -0.60293

 VOLUME and BASIS-vectors are now :
  energy-cutoff  :      520.00
  volume of cell :      350.92
      direct lattice vectors                 reciprocal lattice vectors
     3.876803005  0.000000000 -3.876803006     0.171932269 -0.000000000 -0.086012227
     0.000000000  7.777254299  0.000000000     0.042960021  0.128580083  0.042960021
     3.880962495 -3.888627154  7.757765490     0.085920042 -0.000000000  0.085920042

  length of vectors
     5.482627389  7.777254299  9.506114686     0.192246739  0.142210986  0.121509289

 FORCES acting on ions
    electron-ion (+dipol)            ewald-force                    non-local-force                 convergence-correction
   0.346E+02 0.359E+02 0.346E+02   -.342E+02 -.355E+02 -.342E+02   -.412E+00 -.368E+00 -.412E+00   -.240E-01 -.172E-01 -.240E-01
   -.684E+02 0.667E+02 -.684E+02   0.675E+02 -.659E+02 0.675E+02   0.728E+00 -.673E+00 0.728E+00   0.599E-01 -.336E-01 0.599E-01
   0.343E+02 0.312E+02 0.343E+02   -.339E+02 -.309E+02 -.339E+02   -.338E+00 -.312E+00 -.338E+00   -.349E-01 -.161E-01 -.349E-01
   0.346E+02 -.359E+02 0.346E+02   -.342E+02 0.355E+02 -.342E+02   -.412E+00 0.368E+00 -.412E+00   -.240E-01 0.172E-01 -.240E-01
   -.684E+02 -.667E+02 -.684E+02   0.675E+02 0.659E+02 0.675E+02   0.728E+00 0.673E+00 0.728E+00   0.599E-01 0.336E-01 0.599E-01
   0.343E+02 -.312E+02 0.343E+02   -.339E+02 0.309E+02 -.339E+02   -.338E+00 0.312E+00 -.338E+00   -.349E-01 0.161E-01 -.349E-01
   -.316E+02 -.344E-04 -.316E+02   0.313E+02 -.112E-03 0.313E+02   0.283E+00 -.236E-09 0.283E+00   0.387E-01 0.205E-06 0.387E-01
   0.298E+02 0.132E-04 0.298E+02   -.296E+02 0.647E-06 -.296E+02   -.250E+00 0.208E-09 -.250E+00   -.255E-01 -.358E-07 -.255E-01
   0.271E+01 -.700E-06 0.271E+01   -.261E+01 0.367E-05 -.261E+01   -.108E+00 0.901E-10 -.108E+00   -.504E-02 0.579E-07 -.504E-02
   -.111E+01 0.870E-04 -.111E+01   0.704E+00 0.124E-03 0.704E+00   0.428E+00 -.358E-09 0.428E+00   -.166E-01 -.414E-07 -.166E-01
   -.415E+02 -.990E-04 -.415E+02   0.403E+02 -.148E-03 0.403E+02   0.109E+01 -.911E-09 0.109E+01   0.585E-01 0.330E-06 0.585E-01
   0.395E+02 0.115E-03 0.395E+02   -.381E+02 0.143E-03 -.381E+02   -.135E+01 0.113E-08 -.135E+01   -.526E-01 -.646E-06 -.526E-01
   0.484E+01 -.484E-03 -.828E+01   -.528E+01 -.440E-04 0.800E+01   0.461E+00 -.300E-09 0.259E+00   0.591E-02 0.666E-07 0.966E-02
   -.120E+02 0.183E-04 -.383E+02   0.120E+02 -.137E-04 0.325E+02   0.464E-01 -.243E-08 0.578E+01   0.120E-01 -.519E-07 0.200E-01
   -.741E+01 0.509E-03 0.468E+02   0.850E+01 0.244E-04 -.416E+02   -.110E+01 0.260E-08 -.514E+01   -.923E-02 0.214E-06 -.276E-01
   -.740E+01 -.533E-03 -.479E+02   0.713E+01 -.478E-05 0.433E+02   0.251E+00 -.206E-08 0.468E+01   0.118E-01 -.119E-06 0.797E-02
   0.240E+01 -.558E-05 -.601E+01   -.297E+01 0.295E-05 0.573E+01   0.550E+00 -.319E-09 0.216E+00   0.396E-02 -.929E-07 0.229E-01
   0.191E+02 0.512E-03 0.557E+02   -.188E+02 0.228E-04 -.501E+02   -.294E+00 0.246E-08 -.561E+01   -.237E-01 -.275E-07 -.329E-01
   0.123E+02 -.100E+02 0.123E+02   -.124E+02 0.100E+02 -.124E+02   0.201E+00 0.520E-02 0.201E+00   -.123E-01 0.528E-02 -.123E-01
   -.244E+02 -.477E+02 -.244E+02   0.248E+02 0.423E+02 0.248E+02   -.435E+00 0.541E+01 -.435E+00   0.248E-01 0.455E-02 0.248E-01
   0.118E+02 -.757E+01 0.118E+02   -.120E+02 0.712E+01 -.120E+02   0.187E+00 0.426E+00 0.187E+00   -.124E-01 0.619E-02 -.124E-01
   0.123E+02 0.100E+02 0.123E+02   -.124E+02 -.100E+02 -.124E+02   0.201E+00 -.520E-02 0.201E+00   -.123E-01 -.528E-02 -.123E-01
   -.244E+02 0.477E+02 -.244E+02   0.248E+02 -.423E+02 0.248E+02   -.435E+00 -.541E+01 -.435E+00   0.248E-01 -.455E-02 0.248E-01
   0.118E+02 0.757E+01 0.118E+02   -.120E+02 -.712E+01 -.120E+02   0.187E+00 -.426E+00 0.187E+00   -.124E-01 -.619E-02 -.124E-01
   -.828E+01 -.494E-03 0.484E+01   0.799E+01 -.440E-04 -.528E+01   0.259E+00 -.300E-09 0.461E+00   0.966E-02 -.240E-08 0.591E-02
   -.383E+02 0.179E-04 -.120E+02   0.325E+02 -.137E-04 0.120E+02   0.578E+01 -.243E-08 0.464E-01   0.200E-01 0.182E-06 0.120E-01
   0.468E+02 0.512E-03 -.741E+01   -.416E+02 0.244E-04 0.850E+01   -.514E+01 0.260E-08 -.110E+01   -.276E-01 0.780E-07 -.923E-02
   -.479E+02 -.528E-03 -.740E+01   0.433E+02 -.478E-05 0.713E+01   0.468E+01 -.206E-08 0.251E+00   0.797E-02 -.485E-07 0.118E-01
   -.601E+01 0.283E-05 0.240E+01   0.573E+01 0.295E-05 -.297E+01   0.216E+00 -.319E-09 0.550E+00   0.229E-01 -.664E-07 0.396E-02
   0.557E+02 0.511E-03 0.191E+02   -.501E+02 0.228E-04 -.188E+02   -.561E+01 0.246E-08 -.294E+00   -.329E-01 -.178E-06 -.237E-01
   -.537E-01 0.825E-04 -.537E-01   0.284E-13 -.473E-13 -.924E-13   0.562E-01 -.469E-10 0.562E-01   0.470E-03 -.231E-05 0.446E-03

 POSITION                                       TOTAL-FORCE (eV/Angst)
      3.91966      0.03658      0.04285         0.034700      0.039427      0.034700
      3.80362      0.06614      3.80362        -0.045413      0.051552     -0.045413
      0.03521      3.91889      0.03521         0.013772      0.019210      0.013772
      3.91966      3.85205      0.04285         0.034700     -0.039427      0.034700
      3.80362      3.82249      3.80362        -0.045413     -0.051552     -0.045413
      0.03521      7.74699      0.03521         0.013772     -0.019210      0.013772
      5.82391     -1.94431      1.94710         0.020942     -0.000000      0.020942
      5.81245     -1.94431      5.81245        -0.026635      0.000000     -0.026635
      5.81788      1.94431      5.81788        -0.018643      0.000000     -0.018643
      1.93610      5.83294      1.93610         0.004756     -0.000000      0.004756
      5.83562      1.94431      1.95882        -0.002582      0.000000     -0.002582
      1.92654      1.94431      1.92654        -0.004531      0.000000     -0.004531
      5.83078     -1.94431      3.88573         0.025316     -0.000000     -0.012820
      5.82171     -1.94431      0.05405         0.007600      0.000000     -0.012509
      1.92464      5.83294     -0.04550        -0.018095      0.000000      0.014567
      5.82444      1.94431      3.91963        -0.002559     -0.000000      0.074551
      5.82026      1.94431      0.01127        -0.018814      0.000000     -0.039821
      1.92935      1.94431     -0.05685         0.003972      0.000000     -0.023170
      5.81768     -3.88661      5.81768         0.012985      0.011933      0.012985
      5.82426      3.93666      1.94746        -0.010787      0.018131     -0.010787
      1.93368      3.89781      1.93368         0.008979     -0.019573      0.008979
      5.81768     -0.00201      5.81768         0.012985     -0.011933      0.012985
      5.82426     -0.04803      1.94746        -0.010787     -0.018131     -0.010787
      1.93368     -0.00918      1.93368         0.008979      0.019573      0.008979
      3.88573     -1.94431      5.83078        -0.012820     -0.000000      0.025316
      3.93085     -1.94431      1.94490        -0.012509      0.000000      0.007600
      3.83130      5.83294     -1.95217         0.014567      0.000000     -0.018095
      3.91963      1.94431      5.82444         0.074551     -0.000000     -0.002559
      3.88807      1.94431      1.94346        -0.039821      0.000000     -0.018814
      3.81996      1.94431     -1.94745        -0.023170      0.000000      0.003972
    total drift:                                0.002872      0.000080      0.002922

  FREE ENERGIE OF THE ION-ELECTRON SYSTEM (eV)
  free  energy   TOTEN  =      -220.60055421 eV

  energy  without entropy=     -220.60055421  energy(sigma->0) =     -220.60055421

 total charge

[...]

 magnetization (x)

# of ion       s       p       d       f       tot
    1        0.000   0.001   0.006   0.003   0.009
    2        0.000   0.001   0.006   0.003   0.010
    3        0.001   0.001   0.010   0.004   0.016
    4        0.000   0.001   0.006   0.003   0.009
    5        0.000   0.001   0.006   0.003   0.010
    6        0.001   0.001   0.010   0.004   0.016
    7        0.023   0.031   3.243   0.000   3.296
    8        0.022   0.020   3.359   0.000   3.401
    9        0.024   0.030   3.305   0.000   3.360
   10        0.011   0.002   1.642   0.000   1.654
   11        0.010   0.003   1.660   0.000   1.673
   12        0.014   0.009   1.627   0.000   1.650
   13        0.002  -0.012   0.000   0.000  -0.010
   14        0.005  -0.041   0.000   0.000  -0.036
   15        0.005  -0.009   0.000   0.000  -0.004
   16        0.004  -0.019   0.000   0.000  -0.015
   17        0.007   0.007   0.000   0.000   0.014
   18        0.005  -0.044   0.000   0.000  -0.039
   19        0.003  -0.062   0.000   0.000  -0.058
   20        0.005  -0.006   0.000   0.000  -0.000
   21        0.006  -0.008   0.000   0.000  -0.002
   22        0.003  -0.061   0.000   0.000  -0.058
   23        0.005  -0.006   0.000   0.000  -0.000
   24        0.006  -0.007   0.000   0.000  -0.001
   25        0.002  -0.009   0.000   0.000  -0.008
   26        0.005  -0.043   0.000   0.000  -0.039
   27        0.005  -0.008   0.000   0.000  -0.003
   28        0.004  -0.016   0.000   0.000  -0.012
   29        0.007   0.008   0.000   0.000   0.015
   30        0.005  -0.044   0.000   0.000  -0.040
tot          0.192  -0.283  14.879   0.020  14.808

 BZINTS: Fermi energy:  7.622866;225.000000 electrons
         Band energy:-327.702861;  BLOECHL correction: -0.012491