 vasp.5.4.4.18Apr17-6-g9f103f2a35 (build Oct 03 2018 13:58:34) complex

 executed on             LinuxIFC date 2019.06.04  02:04:33

 INCAR:
 POTCAR:    PAW_PBE La 06Sep2000
 POTCAR:    PAW_PBE Mn 06Sep2000
 POTCAR:    PAW_PBE Ni 02Aug2007
 POTCAR:    PAW_PBE O 08Apr2002

 POTCAR:    PAW_PBE La 06Sep2000
   VRHFIN =La : [core=Kr4d]

   TITEL  = PAW_PBE La 06Sep2000
   POMASS =  138.900; ZVAL   =   11.000    mass and valenz
   ENMAX  =  219.292; ENMIN  =  164.469 eV

 POTCAR:    PAW_PBE Mn 06Sep2000
   VRHFIN =Mn: d6 s1

   TITEL  = PAW_PBE Mn 06Sep2000
   POMASS =   54.938; ZVAL   =    7.000    mass and valenz
   ENMAX  =  269.864; ENMIN  =  202.398 eV

 POTCAR:    PAW_PBE Ni 02Aug2007
   VRHFIN =Ni:

   TITEL  = PAW_PBE Ni 02Aug2007
   POMASS =   58.690; ZVAL   =   10.000    mass and valenz
   ENMAX  =  269.532; ENMIN  =  202.149 eV

 POTCAR:    PAW_PBE O 08Apr2002
   VRHFIN =O: s2p4

   TITEL  = PAW_PBE O 08Apr2002
   POMASS =   16.000; ZVAL   =    6.000    mass and valenz
   ENMAX  =  400.000; ENMIN  =  300.000 eV

 Optimization of the real space projectors (new method)

 maximal supplied QI-value         = 13.42
 optimisation between [QCUT,QGAM] = [ 11.67, 23.35] = [ 38.16,152.62] Ry
 Optimized for a Real-space Cutoff    1.63 Angstroem

   l    n(q)    QCUT    max X(q) W(low)/X(q) W(high)/X(q)  e(spline)
   0     11    11.673    13.882    0.27E-04    0.79E-05    0.11E-06
   0     11    11.673    12.184    0.39E-04    0.13E-04    0.19E-06
   1     11    11.673     4.523    0.73E-05    0.76E-05    0.12E-06
   1     11    11.673     4.424    0.87E-05    0.13E-04    0.19E-06
   2     10    11.673    52.481    0.65E-04    0.36E-04    0.18E-06
   2     10    11.673    38.501    0.61E-04    0.33E-04    0.17E-06
   3     10    11.673    65.631    0.17E-03    0.14E-03    0.37E-06
   3     10    11.673    56.854    0.17E-03    0.14E-03    0.37E-06
 Optimization of the real space projectors (new method)

[...]

   l    n(q)    QCUT    max X(q) W(low)/X(q) W(high)/X(q)  e(spline)
   2      9    11.539    60.317    0.19E-03    0.47E-04    0.16E-06
   2      9    11.539    55.921    0.19E-03    0.48E-04    0.16E-06
   0     10    11.539    51.690    0.80E-04    0.50E-04    0.24E-06
   0     10    11.539    30.015    0.73E-04    0.45E-04    0.22E-06
   1     10    11.539    18.849    0.87E-04    0.16E-03    0.71E-07
   1     10    11.539    14.624    0.73E-04    0.13E-03    0.64E-07
 Optimization of the real space projectors (new method)

 maximal supplied QI-value         = 24.76
 optimisation between [QCUT,QGAM] = [ 11.64, 23.27] = [ 37.91,151.63] Ry
 Optimized for a Real-space Cutoff    1.14 Angstroem

   l    n(q)    QCUT    max X(q) W(low)/X(q) W(high)/X(q)  e(spline)
   0      8    11.635    20.381    0.10E-03    0.33E-03    0.24E-06
   0      8    11.635    15.268    0.11E-03    0.35E-03    0.26E-06
   1      7    11.635     5.964    0.24E-03    0.31E-03    0.30E-06
   1      7    11.635     5.382    0.22E-03    0.25E-03    0.26E-06
  PAW_PBE La 06Sep2000                  :
  PAW_PBE Mn 06Sep2000                  :
  PAW_PBE Ni 02Aug2007                  :
  PAW_PBE O 08Apr2002                   :

 POSCAR: SCEL5_1_1_5_0_0_0/0
  positions in direct lattice
  velocities in cartesian coordinates
 exchange correlation table for  LEXCH =        8
   RHO(1)=    0.500       N(1)  =     2000
   RHO(2)=  100.500       N(2)  =     4000

 ion  position               nearest neighbor table
   1  0.000  0.000  0.192-  20 2.66  25 2.66  25 2.66  20 2.66  14 2.78  14 2.78  14 2.78  14 2.78
                            10 3.31  10 3.31  10 3.31  10 3.31   5 3.60
   2  0.000  0.000  0.397-  19 2.69  24 2.69  24 2.69  19 2.69  13 2.77  13 2.77  13 2.77  13 2.77
                             9 3.37   9 3.37   9 3.37   9 3.37
   3  0.000  0.000  0.600-  17 2.76  18 2.76  22 2.76  23 2.76  22 2.76  23 2.76  17 2.76  18 2.76
                            12 2.77  12 2.77  12 2.77  12 2.77   6 3.40   8 3.40   8 3.40   8 3.40
   4  0.000  0.000  0.803-  16 2.69  21 2.69  21 2.69  16 2.69  11 2.77  11 2.77  11 2.77  11 2.77
                             7 3.37   7 3.37   7 3.37   7 3.37
   5  0.000  0.000  0.008-  20 2.66  25 2.66  25 2.66  20 2.66  15 2.78  15 2.78  15 2.78  15 2.78
                            10 3.31  10 3.31  10 3.31  10 3.31   1 3.60
   6  0.500  0.500  0.700-  17 1.96  22 1.96  17 1.96  22 1.96  12 1.96  11 1.98   3 3.40   3 3.40
                             3 3.40   3 3.40
   7  0.500  0.500  0.901-  15 1.89  11 1.95  16 1.96  21 1.96  16 1.96  21 1.96   4 3.37   4 3.37
                             4 3.37   4 3.37
   8  0.500  0.500  0.500-  18 1.96  23 1.96  18 1.96  23 1.96  12 1.96  13 1.98   3 3.40   3 3.40
                             3 3.40   3 3.40
   9  0.500  0.500  0.299-  14 1.89  13 1.95  19 1.96  24 1.96  19 1.96  24 1.96   2 3.37   2 3.37
                             2 3.37   2 3.37
  10  0.500  0.500  0.100-  20 1.96  25 1.96  20 1.96  25 1.96  14 2.01  15 2.01   1 3.31   5 3.31
                             1 3.31   1 3.31   5 3.31   5 3.31   1 3.31   5 3.31
  11  0.500  0.500  0.802-   7 1.95   6 1.98   4 2.77   4 2.77   4 2.77   4 2.77
  12  0.500  0.500  0.600-   6 1.96   8 1.96   3 2.77   3 2.77   3 2.77   3 2.77
  13  0.500  0.500  0.398-   9 1.95   8 1.98   2 2.77   2 2.77   2 2.77   2 2.77
  14  0.500  0.500  0.202-   9 1.89  10 2.01   1 2.78   1 2.78   1 2.78   1 2.78
  15  0.500  0.500  0.998-   7 1.89  10 2.01   5 2.78   5 2.78   5 2.78   5 2.78
  16  0.500  0.000  0.898-   7 1.96   7 1.96   4 2.69   4 2.69
  17  0.500  0.000  0.699-   6 1.96   6 1.96   3 2.76   3 2.76
  18  0.500  0.000  0.501-   8 1.96   8 1.96   3 2.76   3 2.76
  19  0.500  0.000  0.302-   9 1.96   9 1.96   2 2.69   2 2.69
  20  0.500  0.000  0.100-  10 1.96  10 1.96   1 2.66   5 2.66   1 2.66   5 2.66
  21  0.000  0.500  0.898-   7 1.96   7 1.96   4 2.69   4 2.69
  22  0.000  0.500  0.699-   6 1.96   6 1.96   3 2.76   3 2.76
  23  0.000  0.500  0.501-   8 1.96   8 1.96   3 2.76   3 2.76
  24  0.000  0.500  0.302-   9 1.96   9 1.96   2 2.69   2 2.69
  25  0.000  0.500  0.100-  10 1.96  10 1.96   1 2.66   1 2.66   5 2.66   5 2.66

  LATTYP: Found a simple tetragonal cell.
 ALAT       =     3.9239779704
 C/A-ratio  =     4.9897381760

  Lattice vectors:

 A1 = (   3.9239779704,   0.0000000000,   0.0000000000)
 A2 = (   0.0000000000,   3.9239779704,   0.0000000000)
 A3 = (   0.0000000000,   0.0000000000,  19.5796226805)

Analysis of symmetry for initial positions (statically):
 Subroutine PRICEL returns:
 Original cell was already a primitive cell.

 Routine SETGRP: Setting up the symmetry group for a
 simple tetragonal supercell.

 Subroutine GETGRP returns: Found 16 space group operations
 (whereof  8 operations were pure point group operations)
 out of a pool of 16 trial point group operations.

The static configuration has the point symmetry C_4v.
 The point group associated with its full space group is D_4h.

Analysis of symmetry for dynamics (positions and initial velocities):
 Subroutine PRICEL returns:
 Original cell was already a primitive cell.

[...]

The dynamic configuration has the point symmetry C_4v.
 The point group associated with its full space group is D_4h.

Analysis of structural, dynamic, and magnetic symmetry:
 Subroutine PRICEL returns:
 Original cell was already a primitive cell.

 Routine SETGRP: Setting up the symmetry group for a
 simple tetragonal supercell.

 Subroutine GETGRP returns: Found 16 space group operations
 (whereof  8 operations were pure point group operations)
 out of a pool of 16 trial point group operations.

The magnetic configuration has the point symmetry C_4v.
 The point group associated with its full space group is D_4h.

 Subroutine INISYM returns: Found 16 space group operations
 (whereof  8 operations are pure point group operations),
 and found     1 'primitive' translations

 KPOINTS: Automatic mesh

Automatic generation of k-mesh.
 generate k-points for:    5    5    1
Space group operators:
 irot       det(A)        alpha          n_x          n_y          n_z        tau_x        tau_y        tau_z
    1     1.000000     0.000000     1.000000     0.000000     0.000000     0.000000     0.000000     0.000000
    2     1.000000    90.000000     0.000000     0.000000    -1.000000     0.000000     0.000000     0.000000
    3     1.000000   180.000000     0.000000     0.000000     1.000000     0.000000     0.000000     0.000000
    4     1.000000    90.000000     0.000000     0.000000     1.000000     0.000000     0.000000     0.000000
    5    -1.000000   180.000000     0.000000     1.000000     0.000000     0.000000     0.000000     0.000000
    6    -1.000000   180.000000     0.707107     0.707107     0.000000     0.000000     0.000000     0.000000
    7    -1.000000   180.000000     1.000000     0.000000     0.000000     0.000000     0.000000     0.000000
    8    -1.000000   180.000000     0.707107    -0.707107     0.000000     0.000000     0.000000     0.000000
    9    -1.000000     0.000000     1.000000     0.000000     0.000000     0.000000     0.000000     0.200000
   10    -1.000000    90.000000     0.000000     0.000000    -1.000000     0.000000     0.000000     0.200000
   11    -1.000000   180.000000     0.000000     0.000000     1.000000     0.000000     0.000000     0.200000
   12    -1.000000    90.000000     0.000000     0.000000     1.000000     0.000000     0.000000     0.200000
   13     1.000000   180.000000     0.000000     1.000000     0.000000     0.000000     0.000000     0.200000
   14     1.000000   180.000000     0.707107     0.707107     0.000000     0.000000     0.000000     0.200000
   15     1.000000   180.000000     1.000000     0.000000     0.000000     0.000000     0.000000     0.200000
   16     1.000000   180.000000     0.707107    -0.707107     0.000000     0.000000     0.000000     0.200000

 Subroutine IBZKPT returns following result:

 Found      6 irreducible k-points:

 Following reciprocal coordinates:
            Coordinates               Weight
  0.000000  0.000000  0.000000      1.000000
  0.200000  0.000000  0.000000      4.000000
  0.400000  0.000000  0.000000      4.000000
  0.200000  0.200000  0.000000      4.000000
  0.400000  0.200000  0.000000      8.000000
  0.400000  0.400000  0.000000      4.000000

 Following cartesian coordinates:
            Coordinates               Weight
  0.000000  0.000000  0.000000      1.000000
  0.050969  0.000000  0.000000      4.000000
  0.101937  0.000000  0.000000      4.000000
  0.050969  0.050969  0.000000      4.000000
  0.101937  0.050969  0.000000      8.000000
  0.101937  0.101937  0.000000      4.000000

 TETIRR: Found     31 inequivalent tetrahedra from      150

 SYSTEM =  final
 POSCAR =  SCEL5_1_1_5_0_0_0/0

 Startparameter for this run:
   NWRITE =      2    write-flag & timer
   PREC   = accura    normal or accurate (medium, high low for compatibility)
   ISTART =      0    job   : 0-new  1-cont  2-samecut
   ICHARG =      1    charge: 1-file 2-atom 10-const
   ISPIN  =      2    spin polarized calculation?
   LNONCOLLINEAR =      F non collinear calculations
   LSORBIT =      F    spin-orbit coupling
[...]
       1 -95.9099       2 -96.0851       3 -96.2486       4 -96.0851       5 -95.9099
       6 -42.5583       7 -42.8308       8 -42.5583       9 -42.8308      10 -83.5884
      11 -67.3475      12 -67.5252      13 -67.3475      14 -67.0405      15 -67.0405
      16 -67.2849      17 -67.4047      18 -67.4047      19 -67.2849      20 -66.7745
      21 -67.2849      22 -67.4047      23 -67.4047      24 -67.2849      25 -66.7745

 E-fermi :   7.8816     XC(G=0): -11.5561     alpha+bet :-15.9839

[...]

 k-point     1 :       0.0000    0.0000    0.0000
  band No.  band energies     occupation
      1     -24.6915      1.00000
      2     -24.5437      1.00000
      3     -24.5420      1.00000
      4     -24.3874      1.00000
      5     -24.3232      1.00000
      6     -11.6052      1.00000
      7     -11.4862      1.00000
      8     -11.2881      1.00000
      9     -11.2873      1.00000
     10     -11.0432      1.00000
     11     -10.2312      1.00000
     12     -10.1326      1.00000
     13     -10.0686      1.00000
     14     -10.0590      1.00000
     15     -10.0343      1.00000
     16      -9.9415      1.00000
     17      -9.9407      1.00000
     18      -9.8833      1.00000
     19      -9.8519      1.00000
     20      -9.5966      1.00000
     21      -8.1887      1.00000
     22      -8.1887      1.00000
     23      -8.0452      1.00000
     24      -8.0452      1.00000
     25      -8.0399      1.00000
     26      -8.0399      1.00000
     27      -8.0029      1.00000
     28      -7.8738      1.00000
     29      -7.8738      1.00000
     30      -7.7722      1.00000
     31      -7.7722      1.00000
     32      -7.7009      1.00000
     33      -7.6161      1.00000
     34      -7.3383      1.00000
     35      -7.1195      1.00000
     36       0.6464      1.00000
     37       1.1126      1.00000
     38       1.9078      1.00000
     39       2.1744      1.00000
     40       2.2317      1.00000
     41       2.2317      1.00000
     42       2.2333      1.00000
     43       2.2333      1.00000
     44       2.5251      1.00000
     45       2.5251      1.00000
     46       2.5401      1.00000
     47       2.5562      1.00000
     48       2.5562      1.00000
     49       2.6926      1.00000
     50       2.6926      1.00000
     51       2.7517      1.00000
     52       2.8362      1.00000
     53       2.8362      1.00000
     54       2.9962      1.00000
     55       2.9962      1.00000
     56       3.0151      1.00000
     57       3.0151      1.00000
     58       3.0255      1.00000
     59       3.0776      1.00000
     60       3.0776      1.00000
[...]
    106       9.6559      0.00000
    107       9.6721      0.00000
    108       9.9526      0.00000
    109       9.9727      0.00000
    110      10.0887      0.00000
    111      10.1742      0.00000
    112      10.1983      0.00000
    113      10.2372      0.00000
    114      10.3070      0.00000
    115      10.3420      0.00000
    116      10.3678      0.00000
    117      10.4475      0.00000
    118      10.4684      0.00000
    119      10.5686      0.00000
    120      10.6443      0.00000

[...]

 spin component 2

[...]

 k-point     6 :       0.4000    0.4000    0.0000
  band No.  band energies     occupation
      1     -24.5953      1.00000
      2     -24.4464      1.00000
      3     -24.4455      1.00000
      4     -24.2919      1.00000
      5     -24.2382      1.00000
      6     -11.0077      1.00000
      7     -10.8207      1.00000
      8     -10.7181      1.00000
      9     -10.6449      1.00000
     10     -10.4733      1.00000
     11     -10.4472      1.00000
     12     -10.3955      1.00000
     13     -10.3723      1.00000
     14     -10.2541      1.00000
     15     -10.1434      1.00000
     16     -10.1345      1.00000
     17     -10.1288      1.00000
     18     -10.0654      1.00000
     19      -9.9552      1.00000
     20      -9.7923      1.00000
     21      -8.3822      1.00000
     22      -8.3376      1.00000
     23      -8.3269      1.00000
     24      -8.2555      1.00000
     25      -8.2042      1.00000
     26      -8.1237      1.00000
     27      -8.0518      1.00000
     28      -8.0171      1.00000
     29      -7.8477      1.00000
     30      -7.8204      1.00000
     31      -7.7702      1.00000
     32      -7.7208      1.00000
     33      -7.6385      1.00000
     34      -7.3576      1.00000
     35      -7.2593      1.00000
     36       1.0435      1.00000
     37       1.1381      1.00000
     38       1.5221      1.00000
     39       1.5447      1.00000
     40       1.7454      1.00000
     41       2.1043      1.00000
     42       2.3865      1.00000
     43       2.6033      1.00000
     44       2.7364      1.00000
     45       2.7838      1.00000
     46       3.0687      1.00000
     47       3.0689      1.00000
     48       3.0848      1.00000
     49       3.0892      1.00000
     50       3.1498      1.00000
     51       3.1508      1.00000
     52       3.1771      1.00000
     53       3.1812      1.00000
     54       3.2713      1.00000
     55       3.3442      1.00000
     56       3.4192      1.00000
     57       3.4357      1.00000
     58       3.5034      1.00000
     59       3.5566      1.00000
     60       3.6064      1.00000
[...]
    106      10.5114      0.00000
    107      10.5177      0.00000
    108      10.5374      0.00000
    109      10.5567      0.00000
    110      10.5593      0.00000
    111      10.5938      0.00000
    112      10.6011      0.00000
    113      10.6371      0.00000
    114      10.6564      0.00000
    115      10.6703      0.00000
    116      10.6971      0.00000
    117      10.7725      0.00000
    118      10.8511      0.00000
    119      11.0606      0.00000
    120      11.7717      0.00000

 soft charge-density along one line, spin component           1
         0         1         2         3         4         5         6         7         8         9
 total charge-density along one line

 soft charge-density along one line, spin component           2
         0         1         2         3         4         5         6         7         8         9
 total charge-density along one line

------------------------ aborting loop because EDIFF is reached ----------------------------------------

 total charge

# of ion       s       p       d       f       tot
    1        2.001   5.693   0.480   0.184   8.358
    2        2.001   5.696   0.483   0.187   8.366
    3        2.000   5.696   0.477   0.183   8.356
    4        2.001   5.696   0.483   0.187   8.366
    5        2.001   5.693   0.480   0.184   8.358
    6        0.310   0.460   4.898   0.000   5.668
    7        0.325   0.495   4.874   0.000   5.694
    8        0.310   0.460   4.898   0.000   5.668
    9        0.325   0.495   4.874   0.000   5.694
   10        0.398   0.572   8.334   0.000   9.304
   11        1.562   3.460   0.000   0.000   5.022
   12        1.566   3.447   0.000   0.000   5.013
   13        1.562   3.460   0.000   0.000   5.022
   14        1.561   3.448   0.000   0.000   5.009
   15        1.561   3.448   0.000   0.000   5.009
   16        1.560   3.519   0.000   0.000   5.079
   17        1.559   3.523   0.000   0.000   5.082
   18        1.559   3.523   0.000   0.000   5.082
   19        1.560   3.519   0.000   0.000   5.079
   20        1.555   3.496   0.000   0.000   5.050
   21        1.569   3.382   0.000   0.000   4.950
   22        1.568   3.380   0.000   0.000   4.948
   23        1.568   3.380   0.000   0.000   4.948
   24        1.569   3.382   0.000   0.000   4.950
   25        1.558   3.423   0.000   0.000   4.980
tot         35.104  82.744  30.282   0.925 149.055

 magnetization (x)

[...]

  FORCE on cell =-STRESS in cart. coord.  units (eV):
  Direction    XX          YY          ZZ          XY          YZ          ZX
  Alpha Z   801.73870   801.73870   801.73870
  Ewald   -3949.70335 -3949.70335 -4231.91508    -0.00000    -0.00000     0.00000
  Hartree   976.56812   976.56812   702.64556    -0.00000    -0.00000    -0.00000
  E(xc)    -841.08621  -841.08621  -841.18706     0.00000    -0.00000    -0.00000
  Local    -692.83521  -692.83521  -131.32704    -0.00000     0.00000    -0.00000
  n-local   329.48072   323.73427   327.70262    -1.62699    -0.00027    -0.00018
  augment   189.44146   189.44146   187.79547    -0.00000     0.00000    -0.00000
  Kinetic  3145.18863  3231.60195  3184.02601   -10.84400     0.00116    -0.00011
  Fock        0.00000     0.00000     0.00000     0.00000     0.00000     0.00000
  Total      -0.87369    -0.87369    -0.52082     0.00000    -0.00000     0.00000
  in kB      -4.64315    -4.64315    -2.76786     0.00000    -0.00000     0.00000

 VOLUME and BASIS-vectors are now :
  energy-cutoff  :      520.00
  volume of cell :      301.48
      direct lattice vectors                 reciprocal lattice vectors
     3.923977970  0.000000000  0.000000000     0.254843429  0.000000000  0.000000000
     0.000000000  3.923977970  0.000000000     0.000000000  0.254843429  0.000000000
     0.000000000  0.000000000 19.579622681     0.000000000  0.000000000  0.051073507

  length of vectors
     3.923977970  3.923977970 19.579622681     0.254843429  0.254843429  0.051073507

 FORCES acting on ions
    electron-ion (+dipol)            ewald-force                    non-local-force                 convergence-correction
   -.631E-14 -.834E-13 -.221E+03   -.703E-14 0.254E-14 0.220E+03   0.000E+00 -.339E-20 0.151E+01   0.878E-14 0.207E-13 -.285E-01
   -.439E-14 -.108E-13 -.129E+03   -.191E-13 0.761E-14 0.127E+03   0.678E-20 0.424E-21 0.864E+00   0.145E-13 0.521E-14 0.143E+00
   -.272E-14 -.141E-13 -.158E-09   0.235E-14 0.978E-16 0.572E-10   0.000E+00 0.000E+00 -.678E-20   0.123E-13 -.860E-14 0.164E-11
   -.193E-14 -.148E-13 0.129E+03   -.232E-13 0.512E-14 -.127E+03   -.339E-20 0.000E+00 -.864E+00   0.223E-14 -.306E-14 -.143E+00
   -.193E-14 0.648E-13 0.221E+03   -.672E-14 -.783E-14 -.220E+03   0.000E+00 0.339E-20 -.151E+01   0.156E-13 -.285E-14 0.285E-01
   0.651E-13 0.120E-11 0.231E+02   0.119E-13 0.307E-14 -.230E+02   0.424E-21 0.339E-20 0.286E-01   0.142E-13 0.312E-14 -.782E-01
   0.552E-13 0.159E-11 0.791E+02   0.443E-14 0.696E-14 -.782E+02   -.212E-21 0.000E+00 -.823E+00   0.254E-13 0.366E-14 -.240E-01
   0.608E-13 0.106E-11 -.231E+02   0.121E-13 0.539E-14 0.230E+02   -.169E-20 -.254E-20 -.286E-01   0.309E-13 0.114E-13 0.782E-01
   0.471E-13 0.108E-11 -.791E+02   0.775E-14 0.689E-14 0.782E+02   0.000E+00 0.000E+00 0.823E+00   0.212E-13 0.693E-14 0.240E-01
   0.287E-12 0.253E-11 0.912E-11   0.789E-14 0.352E-14 0.548E-10   0.424E-21 0.000E+00 -.508E-20   0.916E-13 -.128E-14 -.108E-12
   0.109E-12 0.636E-12 0.714E+02   0.648E-14 -.306E-15 -.727E+02   0.000E+00 0.000E+00 0.146E+01   0.268E-13 -.855E-14 -.120E+00
   0.114E-12 0.113E-12 -.159E-09   -.199E-14 0.408E-15 0.101E-10   0.159E-21 0.000E+00 0.339E-20   0.257E-13 -.658E-14 0.104E-11
   0.115E-12 0.116E-11 -.714E+02   0.845E-15 -.441E-14 0.727E+02   0.000E+00 0.000E+00 -.146E+01   0.202E-13 -.453E-14 0.120E+00
   0.116E-12 0.160E-11 -.123E+03   0.174E-13 -.387E-14 0.117E+03   0.847E-21 0.212E-21 0.594E+01   0.150E-13 -.257E-13 -.353E-01
   0.117E-12 0.100E-11 0.123E+03   0.190E-13 0.517E-14 -.117E+03   -.424E-21 0.000E+00 -.594E+01   0.222E-13 -.231E-13 0.353E-01
   0.116E-12 0.869E-13 0.595E+02   0.705E-14 -.108E-13 -.582E+02   0.000E+00 -.169E-20 -.129E+01   0.339E-13 0.175E-13 -.362E-01
   0.110E-12 0.136E-13 0.216E+02   -.163E-14 -.473E-14 -.212E+02   0.339E-20 0.169E-20 -.398E+00   0.426E-13 0.160E-13 -.637E-01
   0.115E-12 0.109E-13 -.216E+02   0.870E-15 -.398E-15 0.212E+02   -.169E-20 -.169E-20 0.398E+00   0.191E-13 0.131E-13 0.637E-01
   0.112E-12 -.724E-13 -.595E+02   0.189E-14 -.797E-14 0.582E+02   0.000E+00 0.169E-20 0.129E+01   0.291E-13 0.139E-13 0.362E-01
   0.118E-12 0.238E-13 -.168E-09   -.796E-14 -.108E-13 -.598E-11   0.169E-20 -.635E-21 -.169E-20   0.254E-13 0.448E-13 -.457E-13
   -.505E-14 0.344E-13 0.595E+02   -.127E-13 0.697E-14 -.582E+02   0.000E+00 -.254E-20 -.129E+01   0.136E-13 -.796E-14 -.362E-01
   -.768E-14 0.133E-12 0.216E+02   0.338E-15 -.342E-14 -.212E+02   0.000E+00 0.000E+00 -.398E+00   0.274E-13 -.319E-14 -.637E-01
   -.516E-14 0.632E-14 -.216E+02   0.285E-14 -.534E-14 0.212E+02   0.000E+00 0.000E+00 0.398E+00   -.592E-15 -.572E-14 0.637E-01
   0.530E-14 -.163E-13 -.595E+02   -.562E-14 0.482E-14 0.582E+02   0.212E-21 0.169E-20 0.129E+01   0.881E-14 -.278E-13 0.362E-01
   -.264E-14 0.198E-12 -.168E-09   -.215E-13 0.934E-14 -.621E-11   0.000E+00 0.000E+00 0.286E-20   0.146E-14 -.175E-13 -.379E-14
   0.162E-11 0.123E-10 -.256E-08   -.425E-14 0.802E-14 0.256E-12   0.651E-20 0.000E+00 0.244E-14   0.547E-12 0.101E-13 -.205E-12

 POSITION                                       TOTAL-FORCE (eV/Angst)
      0.00000      0.00000      3.75946         0.000000      0.000000     -0.151761
      0.00000      0.00000      7.76414         0.000000      0.000000     -0.206794
      0.00000      0.00000     11.74777        -0.000000      0.000000      0.000000
      0.00000      0.00000     15.73141         0.000000      0.000000      0.206794
      0.00000      0.00000      0.15646         0.000000      0.000000      0.151761
      1.96199      1.96199     13.71205         0.000000      0.000000      0.035910
      1.96199      1.96199     17.64079         0.000000      0.000000      0.056376
      1.96199      1.96199      9.78349         0.000000      0.000000     -0.035910
      1.96199      1.96199      5.85476         0.000000      0.000000     -0.056376
      1.96199      1.96199      1.95796         0.000000     -0.000000      0.000000
      1.96199      1.96199     15.69517         0.000000      0.000000      0.007030
      1.96199      1.96199     11.74777         0.000000      0.000000     -0.000000
      1.96199      1.96199      7.80037         0.000000     -0.000000     -0.007030
      1.96199      1.96199      3.96381         0.000000     -0.000000      0.146532
      1.96199      1.96199     19.53173         0.000000      0.000000     -0.146532
      1.96199      0.00000     17.57291        -0.000000      0.000000     -0.087412
      1.96199      0.00000     13.69372        -0.000000      0.000000     -0.051452
      1.96199      0.00000      9.80183         0.000000      0.000000      0.051452
      1.96199      0.00000      5.92264        -0.000000      0.000000      0.087412
      1.96199      0.00000      1.95796         0.000000      0.000000     -0.000000
      0.00000      1.96199     17.57291         0.000000      0.000000     -0.087412
      0.00000      1.96199     13.69372         0.000000      0.000000     -0.051452
      0.00000      1.96199      9.80183         0.000000      0.000000      0.051452
      0.00000      1.96199      5.92264         0.000000      0.000000      0.087412
      0.00000      1.96199      1.95796        -0.000000      0.000000      0.000000
    total drift:                                0.000000      0.000000     -0.000000

  FREE ENERGIE OF THE ION-ELECTRON SYSTEM (eV)
  free  energy   TOTEN  =      -192.53534337 eV

  energy  without entropy=     -192.53534337  energy(sigma->0) =     -192.53534337

 total charge

[...]

 magnetization (x)

# of ion       s       p       d       f       tot
    1        0.000   0.000   0.005   0.004   0.009
    2        0.001   0.001   0.012   0.006   0.020
    3        0.001   0.001   0.014   0.005   0.021
    4        0.001   0.001   0.012   0.006   0.020
    5        0.000   0.000   0.005   0.004   0.009
    6        0.024   0.023   3.833   0.000   3.881
    7        0.026   0.028   3.638   0.000   3.691
    8        0.024   0.023   3.833   0.000   3.881
    9        0.026   0.028   3.638   0.000   3.691
   10        0.015   0.010   1.695   0.000   1.720
   11        0.004  -0.027   0.000   0.000  -0.023
   12        0.007  -0.064   0.000   0.000  -0.057
   13        0.004  -0.027   0.000   0.000  -0.023
   14        0.005  -0.011   0.000   0.000  -0.005
   15        0.005  -0.011   0.000   0.000  -0.005
   16        0.011  -0.045   0.000   0.000  -0.033
   17        0.010  -0.040   0.000   0.000  -0.030
   18        0.010  -0.040   0.000   0.000  -0.030
   19        0.011  -0.045   0.000   0.000  -0.033
   20        0.011   0.012   0.000   0.000   0.023
   21        0.001  -0.032   0.000   0.000  -0.031
   22        0.001  -0.041   0.000   0.000  -0.041
   23        0.001  -0.041   0.000   0.000  -0.041
   24        0.001  -0.032   0.000   0.000  -0.031
   25        0.003   0.028   0.000   0.000   0.031
tot          0.202  -0.300  16.687   0.025  16.614

 BZINTS: Fermi energy:  7.881592;183.000000 electrons
         Band energy:-346.628948;  BLOECHL correction: -0.194677