 vasp.5.4.4.18Apr17-6-g9f103f2a35 (build Oct 03 2018 13:58:34) complex

 executed on             LinuxIFC date 2019.06.04  00:36:31

 INCAR:
 POTCAR:    PAW_PBE La 06Sep2000
 POTCAR:    PAW_PBE Ni 02Aug2007
 POTCAR:    PAW_PBE O 08Apr2002

 POTCAR:    PAW_PBE La 06Sep2000
   VRHFIN =La : [core=Kr4d]

   TITEL  = PAW_PBE La 06Sep2000
   POMASS =  138.900; ZVAL   =   11.000    mass and valenz
   ENMAX  =  219.292; ENMIN  =  164.469 eV

 POTCAR:    PAW_PBE Ni 02Aug2007
   VRHFIN =Ni:

   TITEL  = PAW_PBE Ni 02Aug2007
   POMASS =   58.690; ZVAL   =   10.000    mass and valenz
   ENMAX  =  269.532; ENMIN  =  202.149 eV

 POTCAR:    PAW_PBE O 08Apr2002
   VRHFIN =O: s2p4

   TITEL  = PAW_PBE O 08Apr2002
   POMASS =   16.000; ZVAL   =    6.000    mass and valenz
   ENMAX  =  400.000; ENMIN  =  300.000 eV

 Optimization of the real space projectors (new method)

 maximal supplied QI-value         = 13.42
 optimisation between [QCUT,QGAM] = [ 11.67, 23.35] = [ 38.16,152.62] Ry
 Optimized for a Real-space Cutoff    1.63 Angstroem

   l    n(q)    QCUT    max X(q) W(low)/X(q) W(high)/X(q)  e(spline)
   0     11    11.673    13.882    0.27E-04    0.79E-05    0.11E-06
   0     11    11.673    12.184    0.39E-04    0.13E-04    0.19E-06
   1     11    11.673     4.523    0.73E-05    0.76E-05    0.12E-06
   1     11    11.673     4.424    0.87E-05    0.13E-04    0.19E-06
   2     10    11.673    52.481    0.65E-04    0.36E-04    0.18E-06
   2     10    11.673    38.501    0.61E-04    0.33E-04    0.17E-06
   3     10    11.673    65.631    0.17E-03    0.14E-03    0.37E-06
   3     10    11.673    56.854    0.17E-03    0.14E-03    0.37E-06
 Optimization of the real space projectors (new method)

[...]

   l    n(q)    QCUT    max X(q) W(low)/X(q) W(high)/X(q)  e(spline)
   2      9    11.539    60.317    0.19E-03    0.47E-04    0.16E-06
   2      9    11.539    55.921    0.19E-03    0.48E-04    0.16E-06
   0     10    11.539    51.690    0.80E-04    0.50E-04    0.24E-06
   0     10    11.539    30.015    0.73E-04    0.45E-04    0.22E-06
   1     10    11.539    18.849    0.87E-04    0.16E-03    0.71E-07
   1     10    11.539    14.624    0.73E-04    0.13E-03    0.64E-07
 Optimization of the real space projectors (new method)

 maximal supplied QI-value         = 24.76
 optimisation between [QCUT,QGAM] = [ 11.64, 23.27] = [ 37.91,151.63] Ry
 Optimized for a Real-space Cutoff    1.14 Angstroem

   l    n(q)    QCUT    max X(q) W(low)/X(q) W(high)/X(q)  e(spline)
   0      8    11.635    20.381    0.10E-03    0.33E-03    0.24E-06
   0      8    11.635    15.268    0.11E-03    0.35E-03    0.26E-06
   1      7    11.635     5.964    0.24E-03    0.31E-03    0.30E-06
   1      7    11.635     5.382    0.22E-03    0.25E-03    0.26E-06
  PAW_PBE La 06Sep2000                  :
  PAW_PBE Ni 02Aug2007                  :
  PAW_PBE O 08Apr2002                   :

 POSCAR: SCEL1_1_1_1_0_0_0/1
  positions in direct lattice
  velocities in cartesian coordinates
 exchange correlation table for  LEXCH =        8
   RHO(1)=    0.500       N(1)  =     2000
   RHO(2)=  100.500       N(2)  =     4000

 ion  position               nearest neighbor table
   1  0.000  0.000  0.000-   3 2.72   4 2.72   5 2.72   3 2.72   4 2.72   3 2.72   5 2.72   3 2.72
                             4 2.72   5 2.72   4 2.72   5 2.72   2 3.33   2 3.33   2 3.33   2 3.33
   2  0.500  0.500  0.500-   3 1.92   4 1.92   5 1.92   5 1.92   4 1.92   3 1.92   1 3.33   1 3.33
                             1 3.33   1 3.33   1 3.33   1 3.33   1 3.33   1 3.33
   3  0.000  0.500  0.500-   2 1.92   2 1.92   1 2.72   1 2.72   1 2.72   1 2.72
   4  0.500  0.000  0.500-   2 1.92   2 1.92   1 2.72   1 2.72   1 2.72   1 2.72
   5  0.500  0.500  0.000-   2 1.92   2 1.92   1 2.72   1 2.72   1 2.72   1 2.72

  LATTYP: Found a simple cubic cell.
 ALAT       =     3.8451380809

  Lattice vectors:

 A1 = (   3.8451380809,   0.0000000000,   0.0000000000)
 A2 = (   0.0000000000,   3.8451380809,   0.0000000000)
 A3 = (   0.0000000000,   0.0000000000,   3.8451380809)

Analysis of symmetry for initial positions (statically):
 Subroutine PRICEL returns:
 Original cell was already a primitive cell.

 Routine SETGRP: Setting up the symmetry group for a
 simple cubic supercell.

 Subroutine GETGRP returns: Found 48 space group operations
 (whereof 48 operations were pure point group operations)
 out of a pool of 48 trial point group operations.

The static configuration has the point symmetry O_h .

Analysis of symmetry for dynamics (positions and initial velocities):
 Subroutine PRICEL returns:
 Original cell was already a primitive cell.

[...]

The dynamic configuration has the point symmetry O_h .

Analysis of structural, dynamic, and magnetic symmetry:
 Subroutine PRICEL returns:
 Original cell was already a primitive cell.

 Routine SETGRP: Setting up the symmetry group for a
 simple cubic supercell.

 Subroutine GETGRP returns: Found 48 space group operations
 (whereof 48 operations were pure point group operations)
 out of a pool of 48 trial point group operations.

The magnetic configuration has the point symmetry O_h .

 Subroutine INISYM returns: Found 48 space group operations
 (whereof 48 operations are pure point group operations),
 and found     1 'primitive' translations

 KPOINTS: Automatic mesh

Automatic generation of k-mesh.
 generate k-points for:    5    5    5
Space group operators:
 irot       det(A)        alpha          n_x          n_y          n_z        tau_x        tau_y        tau_z
    1     1.000000     0.000000     1.000000     0.000000     0.000000     0.000000     0.000000     0.000000
    2    -1.000000     0.000000     1.000000     0.000000     0.000000     0.000000     0.000000     0.000000
    3     1.000000   120.000000    -0.577350    -0.577350    -0.577350     0.000000     0.000000     0.000000
    4    -1.000000   120.000000    -0.577350    -0.577350    -0.577350     0.000000     0.000000     0.000000
    5     1.000000   120.000000     0.577350     0.577350     0.577350     0.000000     0.000000     0.000000
    6    -1.000000   120.000000     0.577350     0.577350     0.577350     0.000000     0.000000     0.000000
    7     1.000000    90.000000     0.000000     0.000000    -1.000000     0.000000     0.000000     0.000000
    8    -1.000000    90.000000     0.000000     0.000000    -1.000000     0.000000     0.000000     0.000000
    9     1.000000   180.000000     0.000000     0.707107     0.707107     0.000000     0.000000     0.000000
   10    -1.000000   180.000000     0.000000     0.707107     0.707107     0.000000     0.000000     0.000000
   11     1.000000    90.000000     0.000000     1.000000     0.000000     0.000000     0.000000     0.000000
   12    -1.000000    90.000000     0.000000     1.000000     0.000000     0.000000     0.000000     0.000000
   13     1.000000   180.000000     0.000000     0.000000     1.000000     0.000000     0.000000     0.000000
   14    -1.000000   180.000000     0.000000     0.000000     1.000000     0.000000     0.000000     0.000000
   15     1.000000   120.000000    -0.577350     0.577350     0.577350     0.000000     0.000000     0.000000
   16    -1.000000   120.000000    -0.577350     0.577350     0.577350     0.000000     0.000000     0.000000
   17     1.000000   120.000000    -0.577350     0.577350    -0.577350     0.000000     0.000000     0.000000
   18    -1.000000   120.000000    -0.577350     0.577350    -0.577350     0.000000     0.000000     0.000000
   19     1.000000    90.000000     0.000000     0.000000     1.000000     0.000000     0.000000     0.000000
   20    -1.000000    90.000000     0.000000     0.000000     1.000000     0.000000     0.000000     0.000000
   21     1.000000    90.000000    -1.000000     0.000000     0.000000     0.000000     0.000000     0.000000
   22    -1.000000    90.000000    -1.000000     0.000000     0.000000     0.000000     0.000000     0.000000
   23     1.000000   180.000000     0.707107     0.000000     0.707107     0.000000     0.000000     0.000000
   24    -1.000000   180.000000     0.707107     0.000000     0.707107     0.000000     0.000000     0.000000
   25     1.000000   120.000000     0.577350    -0.577350     0.577350     0.000000     0.000000     0.000000
   26    -1.000000   120.000000     0.577350    -0.577350     0.577350     0.000000     0.000000     0.000000
   27     1.000000   120.000000    -0.577350    -0.577350     0.577350     0.000000     0.000000     0.000000
   28    -1.000000   120.000000    -0.577350    -0.577350     0.577350     0.000000     0.000000     0.000000
   29     1.000000   180.000000     1.000000     0.000000     0.000000     0.000000     0.000000     0.000000
   30    -1.000000   180.000000     1.000000     0.000000     0.000000     0.000000     0.000000     0.000000
   31     1.000000    90.000000     0.000000    -1.000000     0.000000     0.000000     0.000000     0.000000
   32    -1.000000    90.000000     0.000000    -1.000000     0.000000     0.000000     0.000000     0.000000
   33     1.000000   180.000000     0.707107     0.707107     0.000000     0.000000     0.000000     0.000000
   34    -1.000000   180.000000     0.707107     0.707107     0.000000     0.000000     0.000000     0.000000
   35     1.000000    90.000000     1.000000     0.000000     0.000000     0.000000     0.000000     0.000000
   36    -1.000000    90.000000     1.000000     0.000000     0.000000     0.000000     0.000000     0.000000
   37     1.000000   120.000000     0.577350    -0.577350    -0.577350     0.000000     0.000000     0.000000
   38    -1.000000   120.000000     0.577350    -0.577350    -0.577350     0.000000     0.000000     0.000000
   39     1.000000   180.000000     0.000000     1.000000     0.000000     0.000000     0.000000     0.000000
   40    -1.000000   180.000000     0.000000     1.000000     0.000000     0.000000     0.000000     0.000000
   41     1.000000   120.000000     0.577350     0.577350    -0.577350     0.000000     0.000000     0.000000
   42    -1.000000   120.000000     0.577350     0.577350    -0.577350     0.000000     0.000000     0.000000
   43     1.000000   180.000000     0.000000    -0.707107     0.707107     0.000000     0.000000     0.000000
   44    -1.000000   180.000000     0.000000    -0.707107     0.707107     0.000000     0.000000     0.000000
   45     1.000000   180.000000     0.707107    -0.707107     0.000000     0.000000     0.000000     0.000000
   46    -1.000000   180.000000     0.707107    -0.707107     0.000000     0.000000     0.000000     0.000000
   47     1.000000   180.000000     0.707107     0.000000    -0.707107     0.000000     0.000000     0.000000
   48    -1.000000   180.000000     0.707107     0.000000    -0.707107     0.000000     0.000000     0.000000

 Subroutine IBZKPT returns following result:

 Found     10 irreducible k-points:

 Following reciprocal coordinates:
            Coordinates               Weight
  0.000000  0.000000  0.000000      1.000000
  0.200000  0.000000  0.000000      6.000000
  0.400000  0.000000  0.000000      6.000000
  0.200000  0.200000  0.000000     12.000000
  0.400000  0.200000  0.000000     24.000000
[...]
   LHFONE  =     F    Hartree Fock one center treatment
   AEXX    =    0.0000 exact exchange contribution

 Linear response parameters
   LEPSILON=     F    determine dielectric tensor
   LRPA    =     F    only Hartree local field effects (RPA)
   LNABLA  =     F    use nabla operator in PAW spheres
   LVEL    =     F    velocity operator in full k-point grid
   LINTERFAST=   F  fast interpolation
   KINTER  =     0    interpolate to denser k-point grid
   CSHIFT  =0.1000    complex shift for real part using Kramers Kronig
   OMEGAMAX=  -1.0    maximum frequency
   DEG_THRESHOLD= 0.2000000E-02 threshold for treating states as degnerate
   RTIME   =   -0.100 relaxation time in fs
  (WPLASMAI=    0.000 imaginary part of plasma frequency in eV, 0.658/RTIME)
   DFIELD  = 0.0000000 0.0000000 0.0000000 field for delta impulse in time

 Orbital magnetization related:
   ORBITALMAG=     F  switch on orbital magnetization
   LCHIMAG   =     F  perturbation theory with respect to B field
   DQ        =  0.001000  dq finite difference perturbation B field
   LLRAUG    =     F  two centre corrections for induced B field

 Static calculation
 charge density and potential will be updated during run
 spin polarized calculation
 RMM-DIIS sequential band-by-band and
  variant of blocked Davidson during initial phase
 perform sub-space diagonalisation
    before iterative eigenvector-optimisation
 modified Broyden-mixing scheme, WC =      100.0
 initial mixing is a Kerker type mixing with AMIX =  0.4000 and BMIX =      1.0000
 Hartree-type preconditioning will be used
 using additional bands            6
 real space projection scheme for non local part
 use partial core corrections
 calculate Harris-corrections to forces
   (improved forces if not selfconsistent)
 use gradient corrections
 use of overlap-Matrix (Vanderbilt PP)
 Fermi weights with tetrahedron method with Bloechl corrections

  energy-cutoff  :      520.00
  volume of cell :       56.85
      direct lattice vectors                 reciprocal lattice vectors
     3.845138081  0.000000000  0.000000000     0.260068684  0.000000000  0.000000000
     0.000000000  3.845138081  0.000000000     0.000000000  0.260068684  0.000000000
     0.000000000  0.000000000  3.845138081     0.000000000  0.000000000  0.260068684

  length of vectors
     3.845138081  3.845138081  3.845138081     0.260068684  0.260068684  0.260068684

 k-points in units of 2pi/SCALE and weight: Automatic mesh
   0.00000000  0.00000000  0.00000000       0.008
   0.05201374  0.00000000  0.00000000       0.048
   0.10402747  0.00000000  0.00000000       0.048
   0.05201374  0.05201374  0.00000000       0.096
   0.10402747  0.05201374  0.00000000       0.192
   0.10402747  0.10402747  0.00000000       0.096
   0.05201374  0.05201374  0.05201374       0.064
   0.10402747  0.05201374  0.05201374       0.192
   0.10402747  0.10402747  0.05201374       0.192
   0.10402747  0.10402747  0.10402747       0.064

 k-points in reciprocal lattice and weights: Automatic mesh
   0.00000000  0.00000000  0.00000000       0.008
   0.20000000  0.00000000  0.00000000       0.048
   0.40000000  0.00000000  0.00000000       0.048
   0.20000000  0.20000000  0.00000000       0.096
   0.40000000  0.20000000  0.00000000       0.192
   0.40000000  0.40000000  0.00000000       0.096
   0.20000000  0.20000000  0.20000000       0.064
   0.40000000  0.20000000  0.20000000       0.192
   0.40000000  0.40000000  0.20000000       0.192
   0.40000000  0.40000000  0.40000000       0.064

 position of ions in fractional coordinates (direct lattice)
   0.00000000  0.00000000  0.00000000
   0.50000000  0.50000000  0.50000000
   0.00000000  0.50000000  0.50000000
   0.50000000  0.00000000  0.50000000
   0.50000000  0.50000000  0.00000000

 position of ions in cartesian coordinates  (Angst):
   0.00000000  0.00000000  0.00000000
   1.92256904  1.92256904  1.92256904
   0.00000000  1.92256904  1.92256904
   1.92256904  0.00000000  1.92256904
   1.92256904  1.92256904  0.00000000

 k-point  1 :   0.0000 0.0000 0.0000  plane waves:    1551
 k-point  2 :   0.2000 0.0000 0.0000  plane waves:    1506
 k-point  3 :   0.4000 0.0000 0.0000  plane waves:    1522
 k-point  4 :   0.2000 0.2000 0.0000  plane waves:    1542
 k-point  5 :   0.4000 0.2000 0.0000  plane waves:    1540
 k-point  6 :   0.4000 0.4000 0.0000  plane waves:    1532
 k-point  7 :   0.2000 0.2000 0.2000  plane waves:    1517
 k-point  8 :   0.4000 0.2000 0.2000  plane waves:    1522
 k-point  9 :   0.4000 0.4000 0.2000  plane waves:    1536
 k-point 10 :   0.4000 0.4000 0.4000  plane waves:    1547

 maximum and minimum number of plane-waves per node :       162      142

 maximum number of plane-waves:      1551
 maximum index in each direction:
   IXMAX=    7   IYMAX=    7   IZMAX=    7
   IXMIN=   -7   IYMIN=   -7   IZMIN=   -7

 real space projection operators:
  max/ min on nodes  :        355.84        328.92

 parallel 3D FFT for wavefunctions:
    minimum data exchange during FFTs selected (reduces bandwidth)
 parallel 3D FFT for charge:
    minimum data exchange during FFTs selected (reduces bandwidth)

 Broyden mixing: mesh for mixing (old mesh)
   NGX = 15   NGY = 15   NGZ = 15
  (NGX  = 60   NGY  = 60   NGZ  = 60)
  gives a total of   3375 points

 initial charge density was supplied:
 charge density of overlapping atoms calculated
 number of electron      39.0000000 magnetization       3.0000000
 keeping initial charge density in first step

 Maximum index for non-local projection operator          851
 Maximum index for augmentation-charges         1005 (set IRDMAX)

 First call to EWALD:  gamma=   0.461
 Maximum number of real-space cells 3x 3x 3
 Maximum number of reciprocal cells 3x 3x 3

--------------------------------------- Iteration      1(   1)  ---------------------------------------

atom =   1  type =  1  l = 0

 onsite density matrix

spin component  1

  1.0989

[...]

 occupancies and eigenvectors

  o =  1.0989  v =  1.0000  0.0000      0.0000  0.0000
  o =  1.0989  v =  0.0000  1.0000      0.0000  0.0000
atom =   2  type =  2  l = 2

[...]

  o =  0.8190  v =  1.0000  0.0000      0.0000  0.0000
  o =  0.8190  v =  0.0000  1.0000      0.0000  0.0000
 BZINTS: Fermi energy: 19.151553; 39.000000 electrons
         Band energy: 362.302099;  BLOECHL correction: -0.173660

 eigenvalue-minimisations  :  1200
 total energy-change (2. order) : 0.3681592E+03  (-0.1742088E+04)
 number of electron      39.0000000 magnetization       3.0000000
 augmentation part       39.0000000 magnetization       3.0000000

 Free energy of the ion-electron system (eV)
  alpha Z        PSCENC =       165.92233315
  Ewald energy   TEWEN  =     -2810.45220358
  -Hartree energ DENC   =      -690.43633906
  -exchange      EXHF   =         0.00000000
  -V(xc)+E(xc)   XCENC  =       147.34310382
  PAW double counting   =      2645.48846437    -2692.72845788
  entropy T*S    EENTRO =         0.00000000
  eigenvalues    EBANDS =       362.30209858
  atomic energy  EATOM  =      3240.72023562
  Solvation  Ediel_sol  =         0.00000000
  free energy    TOTEN  =       368.15923503 eV

  energy without entropy =      368.15923503  energy(sigma->0) =      368.15923503

[...]

 BZINTS: Fermi energy: 12.678072; 39.000000 electrons
         Band energy:  42.196959;  BLOECHL correction: -0.037643

 eigenvalue-minimisations  :  1130
 total energy-change (2. order) :-0.3201051E+03  (-0.2962976E+03)
 number of electron      39.0000000 magnetization       3.0000000
 augmentation part       39.0000000 magnetization       3.0000000

[...]

 Broyden mixing:
  rms(total) = 0.33949E+01    rms(broyden)= 0.33946E+01
  rms(prec ) = 0.59661E+01
  weight for this iteration     100.00

[...]

 eigenvalues of (default mixing * dielectric matrix)
  average eigenvalue GAMMA=   0.1153
  0.1153

[...]

 eigenvalue-minimisations  :  1494
 total energy-change (2. order) : 0.4801438E+01  (-0.2693395E+01)
 number of electron      39.0000030 magnetization       1.3598227
 augmentation part        6.6770618 magnetization       1.1933510

[...]

 Broyden mixing:
  rms(total) = 0.14630E-01    rms(broyden)= 0.14617E-01
  rms(prec ) = 0.15999E-01
  weight for this iteration     100.00

 eigenvalues of (default mixing * dielectric matrix)
  average eigenvalue GAMMA=   1.1622
  2.6883  2.2046  0.9557  0.9557  0.6597  0.6597  0.5870  0.5870

[...]

--------------------------------------- Iteration      1(  14)  ---------------------------------------

atom =   1  type =  1  l = 0

[...]

  o =  0.7867  v =  0.0000  1.0000      0.0000  0.0000
  o =  0.7924  v =  1.0000  0.0000      0.0000  0.0000
atom =   5  type =  3  l = 0

 onsite density matrix

[...]

  0.7867

 occupancies and eigenvectors

  o =  0.7867  v =  0.0000  1.0000      0.0000  0.0000
  o =  0.7924  v =  1.0000  0.0000      0.0000  0.0000
 BZINTS: Fermi energy:  7.507689; 39.000000 electrons
         Band energy: -36.547849;  BLOECHL correction: -0.059070

 eigenvalue-minimisations  :   947
 total energy-change (2. order) :-0.6057150E-03  (-0.5061765E-03)
 number of electron      39.0000027 magnetization       1.0024100
 augmentation part        6.2871364 magnetization       1.0243907

 Free energy of the ion-electron system (eV)
  alpha Z        PSCENC =       165.92233315
  Ewald energy   TEWEN  =     -2810.45220358
  -Hartree energ DENC   =      -687.95749194
  -exchange      EXHF   =         0.00000000
  -V(xc)+E(xc)   XCENC  =       147.93798479
  PAW double counting   =      3400.74431444    -3453.65720342
  entropy T*S    EENTRO =         0.00000000
  eigenvalues    EBANDS =       -36.54784904
  atomic energy  EATOM  =      3240.72023562
  Solvation  Ediel_sol  =         0.00000000
  free energy    TOTEN  =       -33.28987997 eV

  energy without entropy =      -33.28987997  energy(sigma->0) =      -33.28987997

 average (electrostatic) potential at core
  the test charge radii are     1.1480  0.9791  0.7215
  (the norm of the test charge is              1.0000)
       1 -94.7358       2 -83.8394       3 -66.5774       4 -66.5774       5 -66.5774

 E-fermi :   7.5077     XC(G=0): -11.8872     alpha+bet :-17.0935

[...]

 k-point     1 :       0.0000    0.0000    0.0000
  band No.  band energies     occupation
      1     -23.2922      1.00000
      2     -10.4578      1.00000
      3      -9.1603      1.00000
      4      -9.1603      1.00000
      5      -6.8055      1.00000
      6      -6.8054      1.00000
      7      -6.8054      1.00000
      8       2.6481      1.00000
      9       2.6481      1.00000
     10       2.6481      1.00000
     11       3.2855      1.00000
     12       3.2856      1.00000
     13       3.6660      1.00000
     14       3.6660      1.00000
     15       3.6660      1.00000
     16       5.8816      1.00000
     17       5.8816      1.00000
     18       5.8816      1.00000
     19       7.1291      1.00000
     20       7.1291      0.99990
     21       7.1291      1.05672
     22      10.8027      0.00000
     23      10.8032      0.00000
     24      11.7140      0.00000
     25      11.9526      0.00000
     26      12.0482      0.00000

[...]

 spin component 2

[...]

 k-point    10 :       0.4000    0.4000    0.4000
  band No.  band energies     occupation
      1     -23.1149      1.00000
      2      -9.8168      1.00000
      3      -9.4698      1.00000
      4      -9.4698      1.00000
      5      -7.1939      1.00000
      6      -7.1938      1.00000
      7      -6.9160      1.00000
      8       1.1523      1.00000
      9       2.3393      1.00000
     10       2.5085      1.00000
     11       2.5085      1.00000
     12       3.8776      1.00000
     13       3.8776      1.00000
     14       6.2708      1.00000
     15       6.3951      1.00000
     16       6.3951      1.00000
     17       6.7892      1.00000
     18       6.7892      1.00000
     19       6.9393      1.00000
     20      11.5696      0.00000
     21      11.5699      0.00000
     22      11.6045      0.00000
     23      11.7685      0.00000
     24      11.8919      0.00000
     25      11.9071      0.00000
     26      12.0644      0.00000

 soft charge-density along one line, spin component           1
         0         1         2         3         4         5         6         7         8         9
 total charge-density along one line

 soft charge-density along one line, spin component           2
         0         1         2         3         4         5         6         7         8         9
 total charge-density along one line

------------------------ aborting loop because EDIFF is reached ----------------------------------------

 total charge

# of ion       s       p       d       f       tot
    1        2.001   5.702   0.500   0.194   8.398
    2        0.434   0.656   8.318   0.000   9.408
    3        1.570   3.356   0.000   0.000   4.926
    4        1.563   3.370   0.000   0.000   4.933
    5        1.558   3.573   0.000   0.000   5.131
tot          7.126  16.658   8.818   0.194  32.796

 magnetization (x)

[...]

  FORCE on cell =-STRESS in cart. coord.  units (eV):
  Direction    XX          YY          ZZ          XY          YZ          ZX
  Alpha Z   165.92233   165.92233   165.92233
  Ewald    -936.81815  -936.81815  -936.81815    -0.00000    -0.00000    -0.00000
  Hartree   229.31695   229.31695   229.31695    -0.00000    -0.00000    -0.00000
  E(xc)    -184.64240  -184.64240  -184.64240    -0.00000     0.00000    -0.00000
  Local    -150.74678  -150.74678  -150.74678    -0.00000     0.00000     0.00000
  n-local    78.10994    75.98616    74.19347    -1.38988    -0.16711    -0.52129
  augment   153.92661   153.92661   153.92661    -0.00000    -0.00000     0.00000
  Kinetic   631.65188   647.68463   661.52295     0.52329    -2.13532    -0.65995
  Fock        0.00000     0.00000     0.00000     0.00000     0.00000     0.00000
  Total       0.00823     0.00823     0.00823     0.00000    -0.00000     0.00000
  in kB       0.23205     0.23205     0.23205     0.00000    -0.00000     0.00000

 VOLUME and BASIS-vectors are now :
  energy-cutoff  :      520.00
  volume of cell :       56.85
      direct lattice vectors                 reciprocal lattice vectors
     3.845138081  0.000000000  0.000000000     0.260068684  0.000000000  0.000000000
     0.000000000  3.845138081  0.000000000     0.000000000  0.260068684  0.000000000
     0.000000000  0.000000000  3.845138081     0.000000000  0.000000000  0.260068684

  length of vectors
     3.845138081  3.845138081  3.845138081     0.260068684  0.260068684  0.260068684

 FORCES acting on ions
    electron-ion (+dipol)            ewald-force                    non-local-force                 convergence-correction
   -.275E-14 -.114E-13 -.279E-15   -.360E-14 -.556E-14 -.233E-14   0.000E+00 0.000E+00 0.000E+00   -.883E-14 0.109E-13 -.205E-13
   0.282E-12 0.464E-11 0.368E-12   0.833E-14 0.137E-13 0.195E-14   0.000E+00 0.000E+00 0.000E+00   0.397E-13 -.241E-13 0.780E-13
   -.542E-14 0.126E-12 0.106E-12   -.275E-14 0.649E-14 -.268E-15   0.000E+00 0.000E+00 0.000E+00   -.444E-14 -.235E-13 0.506E-13
   0.108E-12 0.168E-13 -.282E-12   -.332E-14 -.124E-13 -.260E-15   0.000E+00 0.000E+00 0.000E+00   0.310E-13 0.616E-13 0.139E-13
   0.121E-12 0.187E-11 -.109E-11   -.199E-15 -.179E-14 -.897E-16   0.000E+00 0.000E+00 0.000E+00   0.323E-13 -.284E-13 -.566E-13
   0.503E-12 0.664E-11 -.898E-12   -.153E-14 0.341E-15 -.998E-15   0.000E+00 0.000E+00 0.000E+00   0.896E-13 -.353E-14 0.655E-13

 POSITION                                       TOTAL-FORCE (eV/Angst)
      0.00000      0.00000      0.00000         0.000000      0.000000      0.000000
      1.92257      1.92257      1.92257         0.000000      0.000000      0.000000
      0.00000      1.92257      1.92257         0.000000      0.000000      0.000000
      1.92257      0.00000      1.92257         0.000000      0.000000      0.000000
      1.92257      1.92257      0.00000         0.000000      0.000000      0.000000
    total drift:                                0.000000      0.000000     -0.000000

  FREE ENERGIE OF THE ION-ELECTRON SYSTEM (eV)
  free  energy   TOTEN  =       -33.28987997 eV

  energy  without entropy=      -33.28987997  energy(sigma->0) =      -33.28987997

 total charge

[...]

 magnetization (x)

# of ion       s       p       d       f       tot
    1        0.001  -0.001   0.004   0.003   0.006
    2        0.018   0.009   1.324   0.000   1.351
    3       -0.000  -0.145   0.000   0.000  -0.145
    4        0.003  -0.125   0.000   0.000  -0.122
    5        0.014  -0.061   0.000   0.000  -0.047
tot          0.035  -0.322   1.328   0.003   1.044

 BZINTS: Fermi energy:  7.507689; 39.000000 electrons
         Band energy: -36.547849;  BLOECHL correction: -0.059070