 vasp.5.4.4.18Apr17-6-g9f103f2a35 (build Oct 03 2018 13:58:34) complex

 executed on             LinuxIFC date 2019.06.04  00:48:54

 INCAR:
 POTCAR:    PAW_PBE La 06Sep2000
 POTCAR:    PAW_PBE Mn 06Sep2000
 POTCAR:    PAW_PBE Ni 02Aug2007
 POTCAR:    PAW_PBE O 08Apr2002

 POTCAR:    PAW_PBE La 06Sep2000
   VRHFIN =La : [core=Kr4d]

   TITEL  = PAW_PBE La 06Sep2000
   POMASS =  138.900; ZVAL   =   11.000    mass and valenz
   ENMAX  =  219.292; ENMIN  =  164.469 eV

 POTCAR:    PAW_PBE Mn 06Sep2000
   VRHFIN =Mn: d6 s1

   TITEL  = PAW_PBE Mn 06Sep2000
   POMASS =   54.938; ZVAL   =    7.000    mass and valenz
   ENMAX  =  269.864; ENMIN  =  202.398 eV

 POTCAR:    PAW_PBE Ni 02Aug2007
   VRHFIN =Ni:

   TITEL  = PAW_PBE Ni 02Aug2007
   POMASS =   58.690; ZVAL   =   10.000    mass and valenz
   ENMAX  =  269.532; ENMIN  =  202.149 eV

 POTCAR:    PAW_PBE O 08Apr2002
   VRHFIN =O: s2p4

   TITEL  = PAW_PBE O 08Apr2002
   POMASS =   16.000; ZVAL   =    6.000    mass and valenz
   ENMAX  =  400.000; ENMIN  =  300.000 eV

 Optimization of the real space projectors (new method)

 maximal supplied QI-value         = 13.42
 optimisation between [QCUT,QGAM] = [ 11.67, 23.35] = [ 38.16,152.62] Ry
 Optimized for a Real-space Cutoff    1.63 Angstroem

   l    n(q)    QCUT    max X(q) W(low)/X(q) W(high)/X(q)  e(spline)
   0     11    11.673    13.882    0.27E-04    0.79E-05    0.11E-06
   0     11    11.673    12.184    0.39E-04    0.13E-04    0.19E-06
   1     11    11.673     4.523    0.73E-05    0.76E-05    0.12E-06
   1     11    11.673     4.424    0.87E-05    0.13E-04    0.19E-06
   2     10    11.673    52.481    0.65E-04    0.36E-04    0.18E-06
   2     10    11.673    38.501    0.61E-04    0.33E-04    0.17E-06
   3     10    11.673    65.631    0.17E-03    0.14E-03    0.37E-06
   3     10    11.673    56.854    0.17E-03    0.14E-03    0.37E-06
 Optimization of the real space projectors (new method)

[...]

   l    n(q)    QCUT    max X(q) W(low)/X(q) W(high)/X(q)  e(spline)
   2      9    11.539    60.317    0.19E-03    0.47E-04    0.16E-06
   2      9    11.539    55.921    0.19E-03    0.48E-04    0.16E-06
   0     10    11.539    51.690    0.80E-04    0.50E-04    0.24E-06
   0     10    11.539    30.015    0.73E-04    0.45E-04    0.22E-06
   1     10    11.539    18.849    0.87E-04    0.16E-03    0.71E-07
   1     10    11.539    14.624    0.73E-04    0.13E-03    0.64E-07
 Optimization of the real space projectors (new method)

 maximal supplied QI-value         = 24.76
 optimisation between [QCUT,QGAM] = [ 11.64, 23.27] = [ 37.91,151.63] Ry
 Optimized for a Real-space Cutoff    1.14 Angstroem

   l    n(q)    QCUT    max X(q) W(low)/X(q) W(high)/X(q)  e(spline)
   0      8    11.635    20.381    0.10E-03    0.33E-03    0.24E-06
   0      8    11.635    15.268    0.11E-03    0.35E-03    0.26E-06
   1      7    11.635     5.964    0.24E-03    0.31E-03    0.30E-06
   1      7    11.635     5.382    0.22E-03    0.25E-03    0.26E-06
  PAW_PBE La 06Sep2000                  :
  PAW_PBE Mn 06Sep2000                  :
  PAW_PBE Ni 02Aug2007                  :
  PAW_PBE O 08Apr2002                   :

 POSCAR: SCEL5_5_1_1_0_1_1/4
  positions in direct lattice
  velocities in cartesian coordinates
 exchange correlation table for  LEXCH =        8
   RHO(1)=    0.500       N(1)  =     2000
   RHO(2)=  100.500       N(2)  =     4000

 ion  position               nearest neighbor table
   1  0.795  0.795  0.616-  24 2.60  17 2.60  12 2.60  19 2.75  14 2.75  21 2.75  21 2.75  19 2.75
                            14 2.75   8 3.19   9 3.29   9 3.29   9 3.29   6 3.41   6 3.41   6 3.41
   2  0.605  0.605  0.184-  22 2.60  20 2.60  15 2.60  13 2.75  18 2.75  25 2.75  25 2.75  18 2.75
                            13 2.75   8 3.19  10 3.29  10 3.29  10 3.29   7 3.41   7 3.41   7 3.41
   3  0.396  0.396  0.811-  22 2.65  20 2.65  15 2.65  12 2.74  17 2.74  24 2.74  24 2.74  17 2.74
                            12 2.74  10 3.27   8 3.31   8 3.31   8 3.31
   4  0.200  0.200  0.400-  25 2.72  21 2.72  13 2.72  18 2.72  14 2.72  19 2.72  23 2.74  23 2.74
                            11 2.74  11 2.74  16 2.74  16 2.74  10 3.34   9 3.34   6 3.35   7 3.35
   5  0.004  0.004  0.989-  24 2.65  17 2.65  12 2.65  20 2.74  15 2.74  22 2.74  22 2.74  20 2.74
                            15 2.74   9 3.27   8 3.31   8 3.31   8 3.31
   6  0.500  0.500  0.500-  14 1.89  19 1.89  21 1.89  11 1.94  16 1.94  23 1.94   4 3.35   4 3.35
                             4 3.35   1 3.41   1 3.41   1 3.41
   7  0.900  0.900  0.300-  13 1.89  18 1.89  25 1.89  11 1.94  16 1.94  23 1.94   4 3.35   4 3.35
                             4 3.35   2 3.41   2 3.41   2 3.41
   8  0.700  0.700  0.900-  15 1.94  20 1.94  17 1.94  12 1.94  24 1.94  22 1.94   1 3.19   2 3.19
                             5 3.31   3 3.31   3 3.31   3 3.31   5 3.31   5 3.31
   9  0.101  0.101  0.698-  12 1.95  17 1.95  24 1.95  19 1.98  14 1.98  21 1.98   5 3.27   1 3.29
                             1 3.29   1 3.29   4 3.34
  10  0.299  0.299  0.102-  20 1.95  15 1.95  22 1.95  13 1.98  18 1.98  25 1.98   3 3.27   2 3.29
                             2 3.29   2 3.29   4 3.34
  11  0.200  0.700  0.400-   6 1.94   7 1.94   4 2.74   4 2.74
  12  0.401  0.900  0.800-   8 1.94   9 1.95   1 2.60   5 2.65   3 2.74   3 2.74
  13  0.604  0.096  0.204-   7 1.89  10 1.98   4 2.72   2 2.75   2 2.75
  14  0.796  0.304  0.596-   6 1.89   9 1.98   4 2.72   1 2.75   1 2.75
  15  0.999  0.500  0.000-   8 1.94  10 1.95   2 2.60   3 2.65   5 2.74   5 2.74
  16  0.700  0.200  0.400-   6 1.94   7 1.94   4 2.74   4 2.74
  17  0.900  0.401  0.800-   8 1.94   9 1.95   1 2.60   5 2.65   3 2.74   3 2.74
  18  0.096  0.604  0.204-   7 1.89  10 1.98   4 2.72   2 2.75   2 2.75
  19  0.304  0.796  0.596-   6 1.89   9 1.98   4 2.72   1 2.75   1 2.75
  20  0.500  0.999  0.000-   8 1.94  10 1.95   2 2.60   3 2.65   5 2.74   5 2.74
  21  0.304  0.304  0.596-   6 1.89   9 1.98   4 2.72   1 2.75   1 2.75
  22  0.500  0.500  0.000-   8 1.94  10 1.95   2 2.60   3 2.65   5 2.74   5 2.74
  23  0.700  0.700  0.400-   7 1.94   6 1.94   4 2.74   4 2.74
  24  0.900  0.900  0.800-   8 1.94   9 1.95   1 2.60   5 2.65   3 2.74   3 2.74
  25  0.096  0.096  0.204-   7 1.89  10 1.98   4 2.72   2 2.75   2 2.75

  LATTYP: Found a trigonal (rhomboedric) cell.
 ALAT       =    11.6593953971
 COS(alpha) =     0.8898598095

  Lattice vectors:

 A1 = (   7.7695213514,  -3.9000739886,  -7.7695213417)
 A2 = (   7.7695213514,  -7.7695213417,  -3.9000739886)
 A3 = (   3.9000739984,  -7.7695213418,  -7.7695213418)

Analysis of symmetry for initial positions (statically):
 Subroutine PRICEL returns:
 Original cell was already a primitive cell.

 Routine SETGRP: Setting up the symmetry group for a
 trigonal (rhombohedral) supercell.

 Subroutine GETGRP returns: Found 12 space group operations
 (whereof  6 operations were pure point group operations)
 out of a pool of 12 trial point group operations.

The static configuration has the point symmetry C_3v.
 The point group associated with its full space group is D_3d.

Analysis of symmetry for dynamics (positions and initial velocities):
 Subroutine PRICEL returns:
 Original cell was already a primitive cell.

[...]

The dynamic configuration has the point symmetry C_3v.
 The point group associated with its full space group is D_3d.

Analysis of structural, dynamic, and magnetic symmetry:
 Subroutine PRICEL returns:
 Original cell was already a primitive cell.

 Routine SETGRP: Setting up the symmetry group for a
 trigonal (rhombohedral) supercell.

 Subroutine GETGRP returns: Found 12 space group operations
 (whereof  6 operations were pure point group operations)
 out of a pool of 12 trial point group operations.

The magnetic configuration has the point symmetry C_3v.
 The point group associated with its full space group is D_3d.

 Subroutine INISYM returns: Found 12 space group operations
 (whereof  6 operations are pure point group operations),
 and found     1 'primitive' translations

 KPOINTS: Automatic mesh

Automatic generation of k-mesh.
 generate k-points for:    4    4    2
Space group operators:
 irot       det(A)        alpha          n_x          n_y          n_z        tau_x        tau_y        tau_z
    1     1.000000     0.000000     1.000000     0.000000     0.000000     0.000000     0.000000     0.000000
    2    -1.000000   180.000000     0.707107     0.000000     0.707107     0.000000     0.000000     0.000000
    3     1.000000   120.000000    -0.577350     0.577350     0.577350     0.000000     0.000000     0.000000
    4    -1.000000   180.000000     0.000000    -0.707107     0.707107     0.000000     0.000000     0.000000
    5     1.000000   120.000000     0.577350    -0.577350    -0.577350     0.000000     0.000000     0.000000
    6    -1.000000   180.000000     0.707107     0.707107     0.000000     0.000000     0.000000     0.000000
    7    -1.000000     0.000000     1.000000     0.000000     0.000000     0.400000     0.400000    -1.200000
    8     1.000000   180.000000     0.707107     0.000000     0.707107     0.400000     0.400000    -1.200000
    9    -1.000000   120.000000    -0.577350     0.577350     0.577350     0.400000     0.400000    -1.200000
   10     1.000000   180.000000     0.000000    -0.707107     0.707107     0.400000     0.400000    -1.200000
   11    -1.000000   120.000000     0.577350    -0.577350    -0.577350     0.400000     0.400000    -1.200000
   12     1.000000   180.000000     0.707107     0.707107     0.000000     0.400000     0.400000    -1.200000

 Subroutine IBZKPT returns following result:

 Found     11 irreducible k-points:

 Following reciprocal coordinates:
            Coordinates               Weight
  0.000000  0.000000  0.000000      1.000000
  0.250000 -0.000000  0.000000      4.000000
  0.500000 -0.000000  0.000000      3.000000
  0.250000  0.250000 -0.000000      2.000000
  0.500000  0.250000 -0.000000      8.000000
 -0.250000  0.250000  0.000000      2.000000
  0.500000  0.500000 -0.000000      3.000000
 -0.000000 -0.000000  0.500000      1.000000
  0.250000  0.000000  0.500000      4.000000
  0.250000  0.250000  0.500000      2.000000
 -0.250000  0.250000  0.500000      2.000000

 Following cartesian coordinates:
            Coordinates               Weight
  0.000000  0.000000  0.000000      1.000000
  0.025823 -0.025823  0.038786      4.000000
  0.051646 -0.051646  0.077571      3.000000
  0.051646  0.012962  0.012962      2.000000
  0.077469 -0.012861  0.051748      8.000000
  0.000000  0.064609 -0.064609      2.000000
  0.103293  0.025925  0.025925      3.000000
 -0.025721  0.025721  0.025721      1.000000
  0.000102 -0.000102  0.064507      4.000000
  0.025925  0.038684  0.038684      2.000000
 -0.025721  0.090330 -0.038887      2.000000

 TETIRR: Found     48 inequivalent tetrahedra from      192

 SYSTEM =  final
 POSCAR =  SCEL5_5_1_1_0_1_1/4

 Startparameter for this run:
   NWRITE =      2    write-flag & timer
   PREC   = accura    normal or accurate (medium, high low for compatibility)
   ISTART =      0    job   : 0-new  1-cont  2-samecut
   ICHARG =      1    charge: 1-file 2-atom 10-const
[...]
       1 -95.2687       2 -95.2687       3 -95.2573       4 -95.3657       5 -95.2573
       6 -43.2734       7 -43.2734       8 -83.7350       9 -83.7124      10 -83.7124
      11 -66.9925      12 -66.6220      13 -66.9659      14 -66.9659      15 -66.6220
      16 -66.9925      17 -66.6220      18 -66.9659      19 -66.9659      20 -66.6220
      21 -66.9659      22 -66.6220      23 -66.9925      24 -66.6220      25 -66.9659

 E-fermi :   7.7975     XC(G=0): -11.7508     alpha+bet :-16.6252

[...]

 k-point     1 :       0.0000    0.0000    0.0000
  band No.  band energies     occupation
      1     -23.8297      1.00000
      2     -23.7683      1.00000
      3     -23.7321      1.00000
      4     -23.6690      1.00000
      5     -23.6080      1.00000
      6     -10.9571      1.00000
      7     -10.8206      1.00000
      8     -10.6943      1.00000
      9     -10.1444      1.00000
     10      -9.9537      1.00000
     11      -9.8028      1.00000
     12      -9.8028      1.00000
     13      -9.7812      1.00000
     14      -9.7812      1.00000
     15      -9.7169      1.00000
     16      -9.7169      1.00000
     17      -9.6267      1.00000
     18      -9.6267      1.00000
     19      -9.5276      1.00000
     20      -9.5276      1.00000
     21      -7.7437      1.00000
     22      -7.7437      1.00000
     23      -7.6274      1.00000
     24      -7.6273      1.00000
     25      -7.5916      1.00000
     26      -7.3392      1.00000
     27      -7.3329      1.00000
     28      -7.3329      1.00000
     29      -7.2238      1.00000
     30      -7.1656      1.00000
     31      -7.1656      1.00000
     32      -7.1591      1.00000
     33      -7.1591      1.00000
     34      -6.6889      1.00000
     35      -6.6745      1.00000
     36       0.3295      1.00000
     37       0.3295      1.00000
     38       0.6934      1.00000
     39       0.6934      1.00000
     40       1.0858      1.00000
     41       1.0937      1.00000
     42       1.4476      1.00000
     43       1.6523      1.00000
     44       1.6523      1.00000
     45       1.6657      1.00000
     46       1.7337      1.00000
     47       1.7337      1.00000
     48       1.8866      1.00000
     49       1.9066      1.00000
     50       1.9150      1.00000
     51       1.9151      1.00000
     52       1.9956      1.00000
     53       1.9956      1.00000
     54       2.1674      1.00000
     55       2.1674      1.00000
     56       2.2804      1.00000
     57       2.2804      1.00000
     58       2.7066      1.00000
     59       2.7129      1.00000
     60       2.7129      1.00000
[...]
    108      10.9379      0.00000
    109      10.9435      0.00000
    110      10.9933      0.00000
    111      11.0119      0.00000
    112      11.0361      0.00000
    113      11.0817      0.00000
    114      11.1364      0.00000
    115      11.1555      0.00000
    116      11.1820      0.00000
    117      11.2100      0.00000
    118      11.2300      0.00000
    119      11.2596      0.00000
    120      11.2972      0.00000
    121      11.3463      0.00000
    122      11.3611      0.00000

[...]

 spin component 2

[...]

 k-point    11 :      -0.2500    0.2500    0.5000
  band No.  band energies     occupation
      1     -23.7923      1.00000
      2     -23.7191      1.00000
      3     -23.7058      1.00000
      4     -23.6859      1.00000
      5     -23.6562      1.00000
      6     -11.0478      1.00000
      7     -10.9408      1.00000
      8     -10.7833      1.00000
      9     -10.7181      1.00000
     10     -10.6062      1.00000
     11     -10.0685      1.00000
     12     -10.0677      1.00000
     13      -9.9864      1.00000
     14      -9.8589      1.00000
     15      -9.7519      1.00000
     16      -9.6466      1.00000
     17      -9.6127      1.00000
     18      -9.5159      1.00000
     19      -9.3413      1.00000
     20      -9.2418      1.00000
     21      -7.5430      1.00000
     22      -7.3111      1.00000
     23      -7.2411      1.00000
     24      -7.1864      1.00000
     25      -7.1600      1.00000
     26      -7.0607      1.00000
     27      -7.0505      1.00000
     28      -6.9827      1.00000
     29      -6.9724      1.00000
     30      -6.9291      1.00000
     31      -6.8500      1.00000
     32      -6.7618      1.00000
     33      -6.7137      1.00000
     34      -6.6228      1.00000
     35      -6.5269      1.00000
     36       1.7717      1.00000
     37       1.9207      1.00000
     38       2.0417      1.00000
     39       2.0913      1.00000
     40       2.2177      1.00000
     41       2.3094      1.00000
     42       2.3473      1.00000
     43       2.5052      1.00000
     44       2.7686      1.00000
     45       2.7811      1.00000
     46       2.8472      1.00000
     47       2.8518      1.00000
     48       2.9668      1.00000
     49       2.9804      1.00000
     50       3.1357      1.00000
     51       3.1856      1.00000
     52       3.2975      1.00000
     53       3.3922      1.00000
     54       3.4355      1.00000
     55       3.4650      1.00000
     56       3.5056      1.00000
     57       3.6765      1.00000
     58       3.8215      1.00000
     59       3.8781      1.00000
     60       3.9149      1.00000
[...]
    108      11.1719      0.00000
    109      11.1832      0.00000
    110      11.2044      0.00000
    111      11.2111      0.00000
    112      11.2300      0.00000
    113      11.2467      0.00000
    114      11.2498      0.00000
    115      11.2619      0.00000
    116      11.2720      0.00000
    117      11.2841      0.00000
    118      11.2953      0.00000
    119      11.3030      0.00000
    120      11.3202      0.00000
    121      11.3528      0.00000
    122      11.4171      0.00000

 soft charge-density along one line, spin component           1
         0         1         2         3         4         5         6         7         8         9
 total charge-density along one line

 soft charge-density along one line, spin component           2
         0         1         2         3         4         5         6         7         8         9
 total charge-density along one line

------------------------ aborting loop because EDIFF is reached ----------------------------------------

 total charge

# of ion       s       p       d       f       tot
    1        2.001   5.699   0.503   0.196   8.399
    2        2.001   5.699   0.503   0.196   8.399
    3        2.000   5.698   0.496   0.191   8.385
    4        1.999   5.702   0.493   0.194   8.388
    5        2.001   5.698   0.496   0.191   8.386
    6        0.350   0.550   4.851   0.000   5.751
    7        0.350   0.550   4.851   0.000   5.751
    8        0.428   0.651   8.330   0.000   9.408
    9        0.402   0.576   8.320   0.000   9.298
   10        0.402   0.576   8.320   0.000   9.298
   11        1.561   3.474   0.000   0.000   5.036
   12        1.560   3.495   0.000   0.000   5.055
   13        1.563   3.471   0.000   0.000   5.034
   14        1.563   3.471   0.000   0.000   5.034
   15        1.560   3.495   0.000   0.000   5.055
   16        1.562   3.447   0.000   0.000   5.009
   17        1.560   3.395   0.000   0.000   4.955
   18        1.563   3.426   0.000   0.000   4.989
   19        1.563   3.426   0.000   0.000   4.989
   20        1.560   3.395   0.000   0.000   4.955
   21        1.563   3.456   0.000   0.000   5.019
   22        1.560   3.461   0.000   0.000   5.021
   23        1.562   3.467   0.000   0.000   5.029
   24        1.560   3.461   0.000   0.000   5.021
   25        1.563   3.456   0.000   0.000   5.019
tot         35.357  83.195  37.163   0.967 156.681

 magnetization (x)

[...]

  FORCE on cell =-STRESS in cart. coord.  units (eV):
  Direction    XX          YY          ZZ          XY          YZ          ZX
  Alpha Z   821.48936   821.48936   821.48936
  Ewald   -4359.91318 -4359.91318 -4359.91318    41.25236   -41.25236    41.25236
  Hartree  1024.17771  1024.17769  1024.17769    43.24527   -43.24528    43.24527
  E(xc)    -882.08628  -882.08629  -882.08629    -0.03117     0.03119    -0.03117
  Local    -649.83456  -649.83471  -649.83471   -84.16174    84.16249   -84.16174
  n-local   353.34168   352.76015   353.74226     1.47247    -0.67778    -0.68324
  augment   480.28254   480.28237   480.28237     0.00824    -0.00892     0.00824
  Kinetic  3211.90249  3218.63472  3207.06981     2.62268     0.04520    -4.78678
  Fock        0.00000     0.00000     0.00000     0.00000     0.00000     0.00000
  Total      -0.06761    -0.06761    -0.06761     0.06793    -0.06793     0.06793
  in kB      -0.37217    -0.37217    -0.37217     0.37391    -0.37391     0.37391

 VOLUME and BASIS-vectors are now :
  energy-cutoff  :      520.00
  volume of cell :      291.05
      direct lattice vectors                 reciprocal lattice vectors
     3.869447353  0.000000000  3.869447353     0.103292502 -0.103292502  0.155142337
     3.869447353  3.869447353  0.000000000     0.103292502  0.155142337 -0.103292502
    -3.900073998  7.769521342  7.769521342    -0.051442667  0.051442667  0.051442667

  length of vectors
     5.472224926  5.472224926 11.659395394     0.213091122  0.213091122  0.089101312

 FORCES acting on ions
    electron-ion (+dipol)            ewald-force                    non-local-force                 convergence-correction
   -.104E+03 0.104E+03 0.104E+03   0.103E+03 -.103E+03 -.103E+03   0.910E+00 -.910E+00 -.910E+00   0.242E-01 -.242E-01 -.242E-01
   0.104E+03 -.104E+03 -.104E+03   -.103E+03 0.103E+03 0.103E+03   -.910E+00 0.910E+00 0.910E+00   -.242E-01 0.242E-01 0.242E-01
   -.614E+02 0.614E+02 0.614E+02   0.608E+02 -.608E+02 -.608E+02   0.627E+00 -.627E+00 -.627E+00   0.983E-02 -.983E-02 -.983E-02
   -.679E-05 0.540E-05 0.540E-05   0.136E-10 -.172E-10 -.170E-10   0.108E-18 -.108E-18 0.325E-18   -.175E-05 -.253E-05 -.253E-05
   0.614E+02 -.614E+02 -.614E+02   -.608E+02 0.608E+02 0.608E+02   -.627E+00 0.627E+00 0.627E+00   -.983E-02 0.983E-02 0.983E-02
   -.338E+02 0.338E+02 0.338E+02   0.334E+02 -.334E+02 -.334E+02   0.399E+00 -.399E+00 -.399E+00   0.117E-01 -.117E-01 -.117E-01
   0.338E+02 -.338E+02 -.338E+02   -.334E+02 0.334E+02 0.334E+02   -.399E+00 0.399E+00 0.399E+00   -.117E-01 0.117E-01 0.117E-01
   0.545E-04 0.290E-04 0.290E-04   -.298E-10 -.264E-10 -.262E-10   -.847E-20 -.339E-19 0.102E-19   -.127E-05 0.120E-05 0.120E-05
   -.653E+02 0.653E+02 0.653E+02   0.641E+02 -.641E+02 -.641E+02   0.114E+01 -.114E+01 -.114E+01   0.158E-01 -.158E-01 -.158E-01
   0.653E+02 -.653E+02 -.653E+02   -.641E+02 0.641E+02 0.641E+02   -.114E+01 0.114E+01 0.114E+01   -.158E-01 0.158E-01 0.158E-01
   -.154E-04 -.163E-04 -.654E-05   0.120E-10 0.192E-11 -.154E-10   0.339E-19 0.407E-19 -.407E-19   0.713E-06 -.721E-06 -.747E-06
   -.187E+02 0.187E+02 0.315E+02   0.183E+02 -.183E+02 -.321E+02   0.419E+00 -.419E+00 0.649E+00   0.592E-02 -.592E-02 -.951E-02
   0.291E+02 -.291E+02 -.675E+02   -.286E+02 0.286E+02 0.622E+02   -.507E+00 0.507E+00 0.534E+01   -.119E-01 0.119E-01 0.450E-02
   -.291E+02 0.291E+02 0.675E+02   0.286E+02 -.286E+02 -.622E+02   0.507E+00 -.507E+00 -.534E+01   0.119E-01 -.119E-01 -.450E-02
   0.187E+02 -.187E+02 -.315E+02   -.183E+02 0.183E+02 0.321E+02   -.419E+00 0.419E+00 -.649E+00   -.593E-02 0.593E-02 0.951E-02
   -.154E-04 -.654E-05 -.163E-04   0.120E-10 -.174E-10 -.252E-12   0.108E-18 -.271E-19 0.678E-19   0.713E-06 -.747E-06 -.721E-06
   -.187E+02 0.315E+02 0.187E+02   0.183E+02 -.321E+02 -.183E+02   0.419E+00 0.649E+00 -.419E+00   0.592E-02 -.951E-02 -.592E-02
   0.291E+02 -.675E+02 -.291E+02   -.286E+02 0.622E+02 0.286E+02   -.507E+00 0.534E+01 0.507E+00   -.119E-01 0.450E-02 0.119E-01
   -.291E+02 0.675E+02 0.291E+02   0.286E+02 -.622E+02 -.286E+02   0.507E+00 -.534E+01 -.507E+00   0.119E-01 -.450E-02 -.119E-01
   0.187E+02 -.315E+02 -.187E+02   -.183E+02 0.321E+02 0.183E+02   -.419E+00 -.649E+00 0.419E+00   -.593E-02 0.951E-02 0.593E-02
   -.675E+02 0.291E+02 0.291E+02   0.622E+02 -.286E+02 -.286E+02   0.534E+01 -.507E+00 -.507E+00   0.450E-02 -.119E-01 -.119E-01
   0.315E+02 -.187E+02 -.187E+02   -.321E+02 0.183E+02 0.183E+02   0.649E+00 0.419E+00 0.419E+00   -.951E-02 0.593E-02 0.593E-02
   -.215E-04 -.181E-04 -.181E-04   -.155E-10 -.166E-11 -.161E-11   0.136E-19 0.949E-19 0.407E-19   0.744E-06 -.720E-06 -.720E-06
   -.315E+02 0.187E+02 0.187E+02   0.321E+02 -.183E+02 -.183E+02   -.649E+00 -.419E+00 -.419E+00   0.951E-02 -.592E-02 -.592E-02
   0.675E+02 -.291E+02 -.291E+02   -.622E+02 0.286E+02 0.286E+02   -.534E+01 0.507E+00 0.507E+00   -.450E-02 0.119E-01 0.119E-01
   -.797E-04 -.379E-04 -.379E-04   -.142E-13 -.462E-13 0.000E+00   0.888E-15 -.133E-14 -.222E-14   -.601E-05 -.827E-06 -.827E-06

 POSITION                                       TOTAL-FORCE (eV/Angst)
      3.74961      7.85873      7.85873         0.030400     -0.030400     -0.030400
      3.96478      3.77411      3.77411        -0.030400      0.030400      0.030400
     -0.09316      7.83205      7.83205        -0.010701      0.010701      0.010701
     -0.01225      3.88170      3.88170         0.000000      0.000000      0.000000
     -3.83142      7.70087      7.70087         0.010701     -0.010701     -0.010701
      1.91753      5.82136      5.82136         0.001028     -0.001028     -0.001028
      5.79686      5.81148      5.81148        -0.001028      0.001028      0.001028
      1.90716      9.70118      9.70118         0.000000      0.000000      0.000000
     -1.94302      5.81246      5.81246        -0.004592      0.004592      0.004592
      1.91852      1.95093      1.95093         0.004592     -0.004592     -0.004592
      1.92247      5.81642      3.88170         0.000000      0.000000      0.000000
      1.91476      9.69359      7.76410        -0.006947      0.006947      0.005985
      1.91205      1.95740      3.92613        -0.014875      0.014875      0.003151
      1.93290      5.80599      7.70672         0.014875     -0.014875     -0.003151
      5.79964      1.93926      3.86875         0.006947     -0.006947     -0.005985
      1.92247      3.88170      5.81642         0.000000      0.000000      0.000000
      1.91476      7.76410      9.69359        -0.006947      0.005985      0.006947
      1.91205      3.92613      1.95740        -0.014875      0.003151      0.014875
      1.93290      7.70672      5.80599         0.014875     -0.003151     -0.014875
      5.79964      3.86875      1.93926         0.006947     -0.005985     -0.006947
      0.03218      5.80599      5.80599         0.003151     -0.014875     -0.014875
      3.87015      1.93926      1.93926         0.005985     -0.006947     -0.006947
      3.85720      5.81642      5.81642         0.000000      0.000000      0.000000
      3.84425      9.69359      9.69359        -0.005985      0.006947      0.006947
     -0.05668      1.95740      1.95740        -0.003151      0.014875      0.014875
    total drift:                               -0.000086     -0.000039     -0.000039

  FREE ENERGIE OF THE ION-ELECTRON SYSTEM (eV)
  free  energy   TOTEN  =      -180.41029472 eV

  energy  without entropy=     -180.41029472  energy(sigma->0) =     -180.41029472

 total charge

[...]

 magnetization (x)

# of ion       s       p       d       f       tot
    1        0.000   0.001   0.008   0.004   0.013
    2        0.000   0.001   0.008   0.004   0.013
    3       -0.000   0.000   0.003   0.002   0.005
    4        0.001   0.001   0.012   0.005   0.019
    5       -0.000   0.000   0.003   0.002   0.005
    6        0.022   0.023   3.244   0.000   3.289
    7        0.022   0.023   3.244   0.000   3.289
    8        0.018   0.022   1.436   0.000   1.475
    9        0.014  -0.000   1.612   0.000   1.626
   10        0.014  -0.000   1.612   0.000   1.626
   11        0.002  -0.015   0.000   0.000  -0.013
   12        0.007  -0.014   0.000   0.000  -0.006
   13        0.005  -0.040   0.000   0.000  -0.036
   14        0.005  -0.040   0.000   0.000  -0.036
   15        0.007  -0.014   0.000   0.000  -0.007
   16        0.002  -0.017   0.000   0.000  -0.015
   17        0.006  -0.065   0.000   0.000  -0.058
   18        0.004  -0.049   0.000   0.000  -0.045
   19        0.004  -0.049   0.000   0.000  -0.045
   20        0.006  -0.065   0.000   0.000  -0.058
   21        0.005  -0.043   0.000   0.000  -0.038
   22        0.007  -0.030   0.000   0.000  -0.023
   23        0.002  -0.013   0.000   0.000  -0.011
   24        0.007  -0.030   0.000   0.000  -0.023
   25        0.005  -0.043   0.000   0.000  -0.038
tot          0.164  -0.454  11.182   0.017  10.908

 BZINTS: Fermi energy:  7.797452;189.000000 electrons
         Band energy:-258.466548;  BLOECHL correction: -0.016193