 vasp.5.4.4.18Apr17-6-g9f103f2a35 (build Oct 03 2018 13:58:34) complex

 executed on             LinuxIFC date 2019.06.04  02:11:09

 INCAR:
 POTCAR:    PAW_PBE La 06Sep2000
 POTCAR:    PAW_PBE Mn 06Sep2000
 POTCAR:    PAW_PBE Ni 02Aug2007
 POTCAR:    PAW_PBE O 08Apr2002

 POTCAR:    PAW_PBE La 06Sep2000
   VRHFIN =La : [core=Kr4d]

   TITEL  = PAW_PBE La 06Sep2000
   POMASS =  138.900; ZVAL   =   11.000    mass and valenz
   ENMAX  =  219.292; ENMIN  =  164.469 eV

 POTCAR:    PAW_PBE Mn 06Sep2000
   VRHFIN =Mn: d6 s1

   TITEL  = PAW_PBE Mn 06Sep2000
   POMASS =   54.938; ZVAL   =    7.000    mass and valenz
   ENMAX  =  269.864; ENMIN  =  202.398 eV

 POTCAR:    PAW_PBE Ni 02Aug2007
   VRHFIN =Ni:

   TITEL  = PAW_PBE Ni 02Aug2007
   POMASS =   58.690; ZVAL   =   10.000    mass and valenz
   ENMAX  =  269.532; ENMIN  =  202.149 eV

 POTCAR:    PAW_PBE O 08Apr2002
   VRHFIN =O: s2p4

   TITEL  = PAW_PBE O 08Apr2002
   POMASS =   16.000; ZVAL   =    6.000    mass and valenz
   ENMAX  =  400.000; ENMIN  =  300.000 eV

 Optimization of the real space projectors (new method)

 maximal supplied QI-value         = 13.42
 optimisation between [QCUT,QGAM] = [ 11.67, 23.35] = [ 38.16,152.62] Ry
 Optimized for a Real-space Cutoff    1.63 Angstroem

   l    n(q)    QCUT    max X(q) W(low)/X(q) W(high)/X(q)  e(spline)
   0     11    11.673    13.882    0.27E-04    0.79E-05    0.11E-06
   0     11    11.673    12.184    0.39E-04    0.13E-04    0.19E-06
   1     11    11.673     4.523    0.73E-05    0.76E-05    0.12E-06
   1     11    11.673     4.424    0.87E-05    0.13E-04    0.19E-06
   2     10    11.673    52.481    0.65E-04    0.36E-04    0.18E-06
   2     10    11.673    38.501    0.61E-04    0.33E-04    0.17E-06
   3     10    11.673    65.631    0.17E-03    0.14E-03    0.37E-06
   3     10    11.673    56.854    0.17E-03    0.14E-03    0.37E-06
 Optimization of the real space projectors (new method)

[...]

   l    n(q)    QCUT    max X(q) W(low)/X(q) W(high)/X(q)  e(spline)
   2      9    11.539    60.317    0.19E-03    0.47E-04    0.16E-06
   2      9    11.539    55.921    0.19E-03    0.48E-04    0.16E-06
   0     10    11.539    51.690    0.80E-04    0.50E-04    0.24E-06
   0     10    11.539    30.015    0.73E-04    0.45E-04    0.22E-06
   1     10    11.539    18.849    0.87E-04    0.16E-03    0.71E-07
   1     10    11.539    14.624    0.73E-04    0.13E-03    0.64E-07
 Optimization of the real space projectors (new method)

 maximal supplied QI-value         = 24.76
 optimisation between [QCUT,QGAM] = [ 11.64, 23.27] = [ 37.91,151.63] Ry
 Optimized for a Real-space Cutoff    1.14 Angstroem

   l    n(q)    QCUT    max X(q) W(low)/X(q) W(high)/X(q)  e(spline)
   0      8    11.635    20.381    0.10E-03    0.33E-03    0.24E-06
   0      8    11.635    15.268    0.11E-03    0.35E-03    0.26E-06
   1      7    11.635     5.964    0.24E-03    0.31E-03    0.30E-06
   1      7    11.635     5.382    0.22E-03    0.25E-03    0.26E-06
  PAW_PBE La 06Sep2000                  :
  PAW_PBE Mn 06Sep2000                  :
  PAW_PBE Ni 02Aug2007                  :
  PAW_PBE O 08Apr2002                   :

 POSCAR: SCEL5_1_5_1_4_0_0/5
  positions in direct lattice
  velocities in cartesian coordinates
 exchange correlation table for  LEXCH =        8
   RHO(1)=    0.500       N(1)  =     2000
   RHO(2)=  100.500       N(2)  =     4000

 ion  position               nearest neighbor table
   1  0.000  0.603  0.207-  24 2.63  14 2.68  14 2.68  19 2.68  19 2.68  25 2.73  25 2.73  20 2.79
                            20 2.79  15 2.79  15 2.79  21 2.82   9 3.27   9 3.27  10 3.34  10 3.34
   2  0.000  0.201  0.401-  13 2.72  13 2.72  18 2.72  18 2.72  23 2.72  24 2.73  24 2.73  25 2.74
                            19 2.74  19 2.74  14 2.74  14 2.74   8 3.32   8 3.32   9 3.34   9 3.34
   3  0.000  0.799  0.599-  13 2.72  13 2.72  18 2.72  18 2.72  24 2.72  23 2.73  23 2.73  22 2.74
                            17 2.74  17 2.74  12 2.74  12 2.74   9 3.32   9 3.32   8 3.34   8 3.34
   4  0.000  0.397  0.793-  23 2.63  12 2.68  12 2.68  17 2.68  17 2.68  22 2.73  22 2.73  16 2.79
                            16 2.79  11 2.79  11 2.79  21 2.82   8 3.27   8 3.27   7 3.34   7 3.34
   5  0.000  0.000  0.000-  11 2.72  15 2.72  11 2.72  15 2.72  16 2.72  20 2.72  16 2.72  20 2.72
                            21 2.72  21 2.72  25 2.73  22 2.73   6 3.34   6 3.34   6 3.34   6 3.34
   6  0.500  0.500  0.000-  16 1.90  20 1.90  11 1.90  15 1.90  21 1.93  21 1.93   5 3.34   5 3.34
                             5 3.34   5 3.34   4 3.42   4 3.42   1 3.42   1 3.42
   7  0.500  0.900  0.800-  22 1.93  22 1.93  17 1.95  12 1.95  11 1.96  16 1.96   4 3.34   4 3.34
                             4 3.34   4 3.34   5 3.34   5 3.34   3 3.35   3 3.35
   8  0.500  0.300  0.599-  12 1.92  17 1.92  18 1.92  13 1.92  23 1.93  23 1.93   4 3.27   4 3.27
                             2 3.32   2 3.32   3 3.34   3 3.34   3 3.34   3 3.34
   9  0.500  0.700  0.401-  14 1.92  19 1.92  18 1.92  13 1.92  24 1.93  24 1.93   1 3.27   1 3.27
                             3 3.32   3 3.32   2 3.34   2 3.34   2 3.34   2 3.34
  10  0.500  0.100  0.200-  25 1.93  25 1.93  19 1.95  14 1.95  15 1.96  20 1.96   1 3.34   1 3.34
                             1 3.34   1 3.34   5 3.34   5 3.34   2 3.35   2 3.35
  11  0.500  0.699  0.902-   6 1.90   7 1.96   5 2.72   5 2.72   4 2.79   4 2.79
  12  0.500  0.103  0.699-   8 1.92   7 1.95   4 2.68   4 2.68   3 2.74   3 2.74
  13  0.500  0.500  0.500-   8 1.92   9 1.92   2 2.72   3 2.72   2 2.72   3 2.72
  14  0.500  0.897  0.301-   9 1.92  10 1.95   1 2.68   1 2.68   2 2.74   2 2.74
  15  0.500  0.301  0.098-   6 1.90  10 1.96   5 2.72   5 2.72   1 2.79   1 2.79
  16  0.500  0.203  0.902-   6 1.90   7 1.96   5 2.72   5 2.72   4 2.79   4 2.79
  17  0.500  0.596  0.699-   8 1.92   7 1.95   4 2.68   4 2.68   3 2.74   3 2.74
  18  0.500  0.000  0.500-   8 1.92   9 1.92   2 2.72   3 2.72   2 2.72   3 2.72
  19  0.500  0.404  0.301-   9 1.92  10 1.95   1 2.68   1 2.68   2 2.74   2 2.74
  20  0.500  0.797  0.098-   6 1.90  10 1.96   5 2.72   5 2.72   1 2.79   1 2.79
  21  0.000  0.500  0.000-   6 1.93   6 1.93   5 2.72   5 2.72   1 2.82   4 2.82
  22  0.000  0.900  0.800-   7 1.93   7 1.93   4 2.73   4 2.73   5 2.73   3 2.74
  23  0.000  0.300  0.600-   8 1.93   8 1.93   4 2.63   2 2.72   3 2.73   3 2.73
  24  0.000  0.700  0.400-   9 1.93   9 1.93   1 2.63   3 2.72   2 2.73   2 2.73
  25  0.000  0.100  0.200-  10 1.93  10 1.93   1 2.73   1 2.73   5 2.73   2 2.74

  LATTYP: Found a base centered orthorhombic cell.
 ALAT       =     5.4499101010
 B/A-ratio  =     5.0072038974
 C/A-ratio  =     0.7084559160

  Lattice vectors:

 A1 = (   0.0000000000,  11.5748858836,   7.7212174943)
 A2 = (   0.0000000000,  -7.7212174943, -11.5748858836)
 A3 = (  -3.8610210526,   0.0000000000,   0.0000000000)

Analysis of symmetry for initial positions (statically):
 Subroutine PRICEL returns:
 Original cell was already a primitive cell.

 Routine SETGRP: Setting up the symmetry group for a
 base centered orthorhombic supercell.

 Subroutine GETGRP returns: Found  8 space group operations
 (whereof  8 operations were pure point group operations)
 out of a pool of  8 trial point group operations.

The static configuration has the point symmetry D_2h.

Analysis of symmetry for dynamics (positions and initial velocities):
 Subroutine PRICEL returns:
 Original cell was already a primitive cell.

[...]

The dynamic configuration has the point symmetry D_2h.

Analysis of structural, dynamic, and magnetic symmetry:
 Subroutine PRICEL returns:
 Original cell was already a primitive cell.

 Routine SETGRP: Setting up the symmetry group for a
 base centered orthorhombic supercell.

 Subroutine GETGRP returns: Found  8 space group operations
 (whereof  8 operations were pure point group operations)
 out of a pool of  8 trial point group operations.

The magnetic configuration has the point symmetry D_2h.

 Subroutine INISYM returns: Found  8 space group operations
 (whereof  8 operations are pure point group operations),
 and found     1 'primitive' translations

 KPOINTS: Automatic mesh

Automatic generation of k-mesh.
 generate k-points for:    5    4    1
Space group operators:
 irot       det(A)        alpha          n_x          n_y          n_z        tau_x        tau_y        tau_z
    1     1.000000     0.000001     1.000000     0.000000     0.000000     0.000000     0.000000     0.000000
    2    -1.000000     0.000001     1.000000     0.000000     0.000000     0.000000     0.000000     0.000000
    3     1.000000   180.000000     1.000000     0.000000     0.000000     0.000000     0.000000     0.000000
    4    -1.000000   180.000000     1.000000     0.000000     0.000000     0.000000     0.000000     0.000000
    5     1.000000   179.999999     0.000000     0.707107     0.707107     0.000000     0.000000     0.000000
    6    -1.000000   179.999999     0.000000     0.707107     0.707107     0.000000     0.000000     0.000000
    7     1.000000   180.000000     0.000000    -0.707107     0.707107     0.000000     0.000000     0.000000
    8    -1.000000   180.000000     0.000000    -0.707107     0.707107     0.000000     0.000000     0.000000

 Subroutine IBZKPT returns following result:

 Found      9 irreducible k-points:

 Following reciprocal coordinates:
            Coordinates               Weight
  0.000000  0.000000  0.000000      1.000000
  0.200000  0.000000  0.000000      2.000000
  0.400000  0.000000  0.000000      2.000000
  0.000000  0.250000 -0.000000      2.000000
  0.200000  0.250000 -0.000000      4.000000
  0.400000  0.250000 -0.000000      4.000000
  0.000000  0.500000 -0.000000      1.000000
  0.200000  0.500000 -0.000000      2.000000
  0.400000  0.500000 -0.000000      2.000000

 Following cartesian coordinates:
            Coordinates               Weight
  0.000000  0.000000  0.000000      1.000000
  0.051800  0.000000  0.000000      2.000000
  0.103600  0.000000  0.000000      2.000000
  0.000000  0.038915 -0.025959      2.000000
  0.051800  0.038915 -0.025959      4.000000
  0.103600  0.038915 -0.025959      4.000000
  0.000000  0.077829 -0.051917      1.000000
  0.051800  0.077829 -0.051917      2.000000
  0.103600  0.077829 -0.051917      2.000000

 TETIRR: Found     54 inequivalent tetrahedra from      120

 SYSTEM =  final
 POSCAR =  SCEL5_1_5_1_4_0_0/5

 Startparameter for this run:
   NWRITE =      2    write-flag & timer
   PREC   = accura    normal or accurate (medium, high low for compatibility)
   ISTART =      0    job   : 0-new  1-cont  2-samecut
   ICHARG =      1    charge: 1-file 2-atom 10-const
   ISPIN  =      2    spin polarized calculation?
   LNONCOLLINEAR =      F non collinear calculations
   LSORBIT =      F    spin-orbit coupling
   INIWAV =      1    electr: 0-lowe 1-rand  2-diag
   LASPH  =      F    aspherical Exc in radial PAW
   METAGGA=      F    non-selfconsistent MetaGGA calc.

 Electronic Relaxation 1
   ENCUT  =  520.0 eV  38.22 Ry    6.18 a.u.   7.18 10.13 25.87*2*pi/ulx,y,z
   ENINI  =  520.0     initial cutoff
   ENAUG  =  605.4 eV  augmentation charge cutoff
[...]
       1 -95.0044       2 -94.9769       3 -94.9769       4 -95.0044       5 -95.0572
       6 -43.0105       7 -83.7381       8 -83.9277       9 -83.9277      10 -83.7381
      11 -66.7081      12 -66.6870      13 -66.6347      14 -66.6870      15 -66.7081
      16 -66.7081      17 -66.6870      18 -66.6347      19 -66.6870      20 -66.7081
      21 -67.0354      22 -66.5059      23 -66.6594      24 -66.6594      25 -66.5059

 E-fermi :   7.5348     XC(G=0): -11.8304     alpha+bet :-16.8886

[...]

 k-point     1 :       0.0000    0.0000    0.0000
  band No.  band energies     occupation
      1     -23.5588      1.00000
      2     -23.4963      1.00000
      3     -23.4916      1.00000
      4     -23.4282      1.00000
      5     -23.3869      1.00000
      6     -10.8521      1.00000
      7     -10.6350      1.00000
      8     -10.6100      1.00000
      9     -10.4075      1.00000
     10     -10.3123      1.00000
     11     -10.0263      1.00000
     12      -9.9644      1.00000
     13      -9.6822      1.00000
     14      -9.6385      1.00000
     15      -9.6083      1.00000
     16      -9.4965      1.00000
     17      -9.3651      1.00000
     18      -9.3332      1.00000
     19      -9.2602      1.00000
     20      -9.2404      1.00000
     21      -7.0682      1.00000
     22      -7.0472      1.00000
     23      -7.0449      1.00000
     24      -6.9747      1.00000
     25      -6.9740      1.00000
     26      -6.8510      1.00000
     27      -6.8466      1.00000
     28      -6.8261      1.00000
     29      -6.7858      1.00000
     30      -6.6288      1.00000
     31      -6.6134      1.00000
     32      -6.5973      1.00000
     33      -6.5559      1.00000
     34      -6.5248      1.00000
     35      -6.5174      1.00000
     36       0.4562      1.00000
     37       0.6231      1.00000
     38       0.6622      1.00000
     39       0.8739      1.00000
     40       1.2663      1.00000
     41       1.2837      1.00000
     42       1.4536      1.00000
     43       1.8600      1.00000
     44       1.9610      1.00000
     45       1.9785      1.00000
     46       2.0003      1.00000
     47       2.0301      1.00000
     48       2.0426      1.00000
     49       2.0554      1.00000
     50       2.2799      1.00000
     51       2.3046      1.00000
     52       2.3735      1.00000
     53       2.4312      1.00000
     54       2.4313      1.00000
     55       2.4854      1.00000
     56       2.7104      1.00000
     57       2.7301      1.00000
     58       2.7534      1.00000
     59       3.3976      1.00000
     60       3.4742      1.00000
[...]
    110      11.1847      0.00000
    111      11.1894      0.00000
    112      11.2299      0.00000
    113      11.2414      0.00000
    114      11.2760      0.00000
    115      11.3516      0.00000
    116      11.4357      0.00000
    117      11.4791      0.00000
    118      11.5013      0.00000
    119      11.5182      0.00000
    120      11.5514      0.00000
    121      11.5679      0.00000
    122      11.6006      0.00000
    123      11.6223      0.00000
    124      11.6543      0.00000

[...]

 spin component 2

[...]

 k-point     9 :       0.4000    0.5000   -0.0000
  band No.  band energies     occupation
      1     -23.4700      1.00000
      2     -23.4149      1.00000
      3     -23.4142      1.00000
      4     -23.3767      1.00000
      5     -23.3767      1.00000
      6     -10.5382      1.00000
      7     -10.4748      1.00000
      8     -10.4556      1.00000
      9     -10.3986      1.00000
     10     -10.2978      1.00000
     11     -10.0769      1.00000
     12     -10.0491      1.00000
     13     -10.0130      1.00000
     14      -9.8705      1.00000
     15      -9.7311      1.00000
     16      -9.6495      1.00000
     17      -9.5095      1.00000
     18      -9.4398      1.00000
     19      -9.3977      1.00000
     20      -9.3466      1.00000
     21      -7.1774      1.00000
     22      -7.1583      1.00000
     23      -6.9853      1.00000
     24      -6.8753      1.00000
     25      -6.8532      1.00000
     26      -6.7991      1.00000
     27      -6.7940      1.00000
     28      -6.7017      1.00000
     29      -6.6698      1.00000
     30      -6.6094      1.00000
     31      -6.6077      1.00000
     32      -6.5495      1.00000
     33      -6.5208      1.00000
     34      -6.5183      1.00000
     35      -6.5059      1.00000
     36       1.6861      1.00000
     37       1.7122      1.00000
     38       1.8010      1.00000
     39       1.8087      1.00000
     40       1.8818      1.00000
     41       1.9288      1.00000
     42       2.0108      1.00000
     43       2.0854      1.00000
     44       2.2544      1.00000
     45       2.3942      1.00000
     46       2.5360      1.00000
     47       2.5422      1.00000
     48       2.5702      1.00000
     49       2.5979      1.00000
     50       2.7107      1.00000
     51       2.7726      1.00000
     52       2.8723      1.00000
     53       3.2724      1.00000
     54       3.2902      1.00000
     55       3.5384      1.00000
     56       3.5448      1.00000
     57       3.8131      1.00000
     58       3.8144      1.00000
     59       3.8364      1.00000
     60       3.8788      1.00000
[...]
    110      11.4478      0.00000
    111      11.4613      0.00000
    112      11.4745      0.00000
    113      11.4861      0.00000
    114      11.4947      0.00000
    115      11.5035      0.00000
    116      11.5189      0.00000
    117      11.5222      0.00000
    118      11.5315      0.00000
    119      11.5418      0.00000
    120      11.5510      0.00000
    121      11.5632      0.00000
    122      11.5832      0.00000
    123      11.6142      0.00000
    124      11.6460      0.00000

 soft charge-density along one line, spin component           1
         0         1         2         3         4         5         6         7         8         9
 total charge-density along one line

 soft charge-density along one line, spin component           2
         0         1         2         3         4         5         6         7         8         9
 total charge-density along one line

------------------------ aborting loop because EDIFF is reached ----------------------------------------

 total charge

# of ion       s       p       d       f       tot
    1        2.001   5.701   0.502   0.194   8.398
    2        2.000   5.701   0.494   0.192   8.387
    3        2.000   5.701   0.494   0.192   8.387
    4        2.001   5.701   0.502   0.194   8.398
    5        2.001   5.702   0.500   0.196   8.398
    6        0.350   0.556   4.867   0.000   5.773
    7        0.414   0.612   8.312   0.000   9.338
    8        0.436   0.662   8.321   0.000   9.419
    9        0.436   0.662   8.321   0.000   9.419
   10        0.414   0.612   8.312   0.000   9.338
   11        1.562   3.459   0.000   0.000   5.021
   12        1.563   3.434   0.000   0.000   4.998
   13        1.562   3.437   0.000   0.000   4.999
   14        1.563   3.434   0.000   0.000   4.998
   15        1.562   3.459   0.000   0.000   5.021
   16        1.562   3.456   0.000   0.000   5.019
   17        1.563   3.430   0.000   0.000   4.993
   18        1.562   3.436   0.000   0.000   4.998
   19        1.563   3.430   0.000   0.000   4.993
   20        1.562   3.456   0.000   0.000   5.019
   21        1.564   3.464   0.000   0.000   5.028
   22        1.561   3.436   0.000   0.000   4.997
   23        1.563   3.438   0.000   0.000   5.001
   24        1.563   3.438   0.000   0.000   5.001
   25        1.561   3.436   0.000   0.000   4.997
tot         35.490  83.253  40.625   0.968 160.336

 magnetization (x)

[...]

  FORCE on cell =-STRESS in cart. coord.  units (eV):
  Direction    XX          YY          ZZ          XY          YZ          ZX
  Alpha Z   827.36208   827.36208   827.36208
  Ewald   -4477.63692 -4542.52950 -4542.52950    -0.00000   -38.93264    -0.00000
  Hartree  1131.41607  1066.30695  1066.30690    -0.00000   -39.66259    -0.00000
  E(xc)    -902.64388  -902.75834  -902.75834    -0.00000     0.01501    -0.00000
  Local    -794.15344  -664.13498  -664.13454    -0.00000    78.40727     0.00000
  n-local   367.08787   366.78861   366.67048    -0.74629    -0.15108     0.72104
  augment   625.16774   625.05441   625.05470    -0.00000    -0.05925     0.00000
  Kinetic  3223.10032  3223.33744  3224.44884     1.83535     0.31768    -1.72579
  Fock        0.00000     0.00000     0.00000     0.00000     0.00000     0.00000
  Total      -0.30015    -0.07635    -0.07635     0.00000    -0.06246     0.00000
  in kB      -1.67498    -0.42606    -0.42606     0.00000    -0.34856     0.00000

 VOLUME and BASIS-vectors are now :
  energy-cutoff  :      520.00
  volume of cell :      287.11
      direct lattice vectors                 reciprocal lattice vectors
     3.861021053  0.000000000  0.000000000     0.258998847  0.000000000  0.000000000
     0.000000000  3.853668389 -3.853668389     0.000000000  0.155658471 -0.103834536
     0.000000000  7.721217494 11.574885884     0.000000000  0.051823935  0.051823935

  length of vectors
     3.861021053  5.449910101 13.913848598     0.258998847  0.187112722  0.073290111

 FORCES acting on ions
    electron-ion (+dipol)            ewald-force                    non-local-force                 convergence-correction
   -.132E-13 0.105E+03 0.105E+03   0.134E-14 -.105E+03 -.105E+03   0.678E-20 -.686E+00 -.686E+00   0.414E-15 0.452E-01 0.452E-01
   0.186E-14 0.319E+02 0.319E+02   -.145E-13 -.319E+02 -.319E+02   0.813E-19 -.713E-01 -.713E-01   -.419E-14 0.244E-01 0.244E-01
   -.149E-13 -.319E+02 -.319E+02   -.135E-13 0.319E+02 0.319E+02   0.000E+00 0.713E-01 0.713E-01   0.163E-14 -.244E-01 -.244E-01
   -.367E-14 -.105E+03 -.105E+03   -.455E-13 0.105E+03 0.105E+03   0.000E+00 0.686E+00 0.686E+00   -.712E-14 -.452E-01 -.452E-01
   -.931E-14 -.451E-13 -.307E-13   0.189E-14 -.568E-13 -.853E-13   0.000E+00 0.000E+00 0.271E-19   -.227E-14 -.952E-13 -.143E-12
   0.523E-13 -.122E-11 -.224E-11   0.122E-13 -.426E-13 -.426E-13   0.000E+00 0.000E+00 0.000E+00   0.168E-13 -.854E-13 -.418E-13
   0.283E-12 -.638E+02 -.638E+02   -.159E-13 0.637E+02 0.637E+02   0.542E-19 0.104E+00 0.104E+00   0.599E-13 -.421E-01 -.421E-01
   0.285E-12 -.180E+02 -.180E+02   0.585E-13 0.180E+02 0.180E+02   0.000E+00 0.864E-01 0.864E-01   0.760E-13 -.214E-01 -.214E-01
   0.287E-12 0.180E+02 0.180E+02   -.306E-13 -.180E+02 -.180E+02   0.000E+00 -.864E-01 -.864E-01   0.669E-13 0.214E-01 0.214E-01
   0.280E-12 0.638E+02 0.638E+02   0.125E-13 -.637E+02 -.637E+02   -.542E-19 -.104E+00 -.104E+00   0.731E-13 0.421E-01 0.421E-01
   0.115E-12 -.158E+02 -.689E+02   0.199E-13 0.154E+02 0.646E+02   0.434E-18 0.393E+00 0.439E+01   0.221E-13 -.123E-01 -.288E-01
   0.119E-12 -.261E+02 -.448E+02   -.130E-13 0.256E+02 0.461E+02   -.108E-18 0.524E+00 -.126E+01   0.216E-13 -.207E-01 -.276E-01
   0.119E-12 0.107E-11 0.117E-11   -.216E-14 -.639E-13 0.711E-13   0.000E+00 0.000E+00 0.000E+00   0.184E-13 0.702E-13 0.160E-13
   0.116E-12 0.261E+02 0.448E+02   0.139E-13 -.256E+02 -.461E+02   0.000E+00 -.524E+00 0.126E+01   0.343E-13 0.207E-01 0.276E-01
   0.119E-12 0.158E+02 0.689E+02   -.176E-13 -.154E+02 -.646E+02   -.434E-18 -.393E+00 -.439E+01   0.305E-13 0.123E-01 0.288E-01
   0.120E-12 -.689E+02 -.158E+02   0.326E-13 0.646E+02 0.154E+02   0.000E+00 0.439E+01 0.393E+00   0.127E-13 -.288E-01 -.123E-01
   0.116E-12 -.448E+02 -.261E+02   0.982E-14 0.461E+02 0.256E+02   0.108E-18 -.126E+01 0.524E+00   0.693E-14 -.276E-01 -.207E-01
   0.118E-12 0.176E-11 0.462E-12   -.267E-14 0.426E-13 0.355E-13   0.000E+00 0.678E-20 0.000E+00   0.101E-13 0.503E-13 0.103E-12
   0.114E-12 0.448E+02 0.261E+02   -.355E-14 -.461E+02 -.256E+02   0.000E+00 0.126E+01 -.524E+00   0.100E-13 0.276E-01 0.207E-01
   0.110E-12 0.689E+02 0.158E+02   -.339E-13 -.646E+02 -.154E+02   0.000E+00 -.439E+01 -.393E+00   0.900E-14 0.288E-01 0.123E-01
   -.480E-14 0.146E-12 -.175E-12   -.339E-14 -.355E-13 -.711E-13   0.000E+00 -.169E-19 -.169E-19   0.129E-14 -.857E-13 -.522E-13
   -.385E-14 -.375E+02 -.375E+02   0.121E-13 0.375E+02 0.375E+02   0.217E-18 0.770E-02 0.770E-02   -.554E-15 -.221E-01 -.221E-01
   -.514E-14 -.109E+02 -.109E+02   -.211E-13 0.107E+02 0.107E+02   0.000E+00 0.266E+00 0.266E+00   -.109E-13 -.126E-01 -.126E-01
   -.355E-14 0.109E+02 0.109E+02   0.102E-13 -.107E+02 -.107E+02   0.000E+00 -.266E+00 -.266E+00   -.507E-14 0.126E-01 0.126E-01
   -.284E-14 0.375E+02 0.375E+02   -.174E-14 -.375E+02 -.375E+02   -.217E-18 -.770E-02 -.770E-02   -.127E-13 0.221E-01 0.221E-01
   0.230E-11 0.143E-10 0.965E-11   -.341E-13 -.497E-13 0.227E-12   0.881E-19 -.590E-16 0.486E-16   0.429E-12 0.259E-12 0.744E-13

 POSITION                                       TOTAL-FORCE (eV/Angst)
      0.00000      3.92351      0.06984        -0.000000      0.026537      0.026537
      0.00000      3.86896      3.86896         0.000000     -0.013389     -0.013389
      0.00000      7.70592      3.85225         0.000000      0.013389      0.013389
      0.00000      7.65138      7.65138         0.000000     -0.026537     -0.026537
      0.00000      0.00000      0.00000         0.000000      0.000000     -0.000000
      1.93051      1.92683     -1.92683         0.000000     -0.000000     -0.000000
      1.93051      9.64596      5.79229         0.000000     -0.020166     -0.020166
      1.93051      5.78142      5.78142         0.000000      0.004273      0.004273
      1.93051      5.79347      1.93980         0.000000     -0.004273     -0.004273
      1.93051      1.92892      1.92892         0.000000      0.020166      0.020166
      1.93051      9.65922      7.74897         0.000000     -0.010254      0.068210
      1.93051      5.79652      7.69809         0.000000     -0.012745     -0.029143
      1.93051      5.78744      3.86061         0.000000      0.000000     -0.000000
      1.93051      5.77837      0.02313         0.000000      0.012745      0.029143
      1.93051      1.91567     -0.02775         0.000000      0.010254     -0.068210
      1.93051      7.74897      9.65922         0.000000      0.068210     -0.010254
      1.93051      7.69809      5.79652         0.000000     -0.029143     -0.012745
      1.93051      3.86061      5.78744         0.000000     -0.000000     -0.000000
      1.93051      3.87680      1.92470         0.000000      0.029143      0.012745
      1.93051      3.82592     -1.93800         0.000000     -0.068210      0.010254
      0.00000      1.92683     -1.92683         0.000000     -0.000000     -0.000000
      0.00000      9.64304      5.78937         0.000000     -0.043184     -0.043184
      0.00000      5.79351      5.79351         0.000000      0.000306      0.000306
      0.00000      5.78138      1.92771        -0.000000     -0.000306     -0.000306
      0.00000      1.93185      1.93185        -0.000000      0.043184      0.043184
    total drift:                                0.000000      0.000000      0.000000

  FREE ENERGIE OF THE ION-ELECTRON SYSTEM (eV)
  free  energy   TOTEN  =      -173.46935764 eV

  energy  without entropy=     -173.46935764  energy(sigma->0) =     -173.46935764

 total charge

[...]

 magnetization (x)

# of ion       s       p       d       f       tot
    1        0.000  -0.000   0.007   0.003   0.011
    2        0.001  -0.001   0.006   0.003   0.008
    3        0.001  -0.001   0.006   0.003   0.008
    4        0.000  -0.000   0.007   0.003   0.011
    5        0.001   0.001   0.010   0.004   0.015
    6        0.022   0.027   3.281   0.000   3.330
    7        0.014   0.004   1.481   0.000   1.499
    8        0.019   0.012   1.317   0.000   1.348
    9        0.019   0.012   1.317   0.000   1.348
   10        0.014   0.004   1.481   0.000   1.499
   11        0.004  -0.026   0.000   0.000  -0.022
   12        0.006  -0.104   0.000   0.000  -0.099
   13        0.005  -0.089   0.000   0.000  -0.083
   14        0.006  -0.104   0.000   0.000  -0.099
   15        0.004  -0.026   0.000   0.000  -0.022
   16        0.004  -0.029   0.000   0.000  -0.024
   17        0.006  -0.109   0.000   0.000  -0.104
   18        0.006  -0.090   0.000   0.000  -0.085
   19        0.006  -0.109   0.000   0.000  -0.104
   20        0.004  -0.029   0.000   0.000  -0.024
   21        0.002  -0.056   0.000   0.000  -0.054
   22        0.005  -0.079   0.000   0.000  -0.074
   23        0.006  -0.087   0.000   0.000  -0.081
   24        0.006  -0.087   0.000   0.000  -0.081
   25        0.005  -0.079   0.000   0.000  -0.074
tot          0.167  -1.046   8.912   0.016   8.049

 BZINTS: Fermi energy:  7.534802;192.000000 electrons
         Band energy:-217.583383;  BLOECHL correction: -0.079137