 vasp.5.4.4.18Apr17-6-g9f103f2a35 (build Oct 03 2018 13:58:34) complex

 executed on             LinuxIFC date 2019.06.04  01:04:56

 INCAR:
 POTCAR:    PAW_PBE La 06Sep2000
 POTCAR:    PAW_PBE Mn 06Sep2000
 POTCAR:    PAW_PBE Ni 02Aug2007
 POTCAR:    PAW_PBE O 08Apr2002

 POTCAR:    PAW_PBE La 06Sep2000
   VRHFIN =La : [core=Kr4d]

   TITEL  = PAW_PBE La 06Sep2000
   POMASS =  138.900; ZVAL   =   11.000    mass and valenz
   ENMAX  =  219.292; ENMIN  =  164.469 eV

 POTCAR:    PAW_PBE Mn 06Sep2000
   VRHFIN =Mn: d6 s1

   TITEL  = PAW_PBE Mn 06Sep2000
   POMASS =   54.938; ZVAL   =    7.000    mass and valenz
   ENMAX  =  269.864; ENMIN  =  202.398 eV

 POTCAR:    PAW_PBE Ni 02Aug2007
   VRHFIN =Ni:

   TITEL  = PAW_PBE Ni 02Aug2007
   POMASS =   58.690; ZVAL   =   10.000    mass and valenz
   ENMAX  =  269.532; ENMIN  =  202.149 eV

 POTCAR:    PAW_PBE O 08Apr2002
   VRHFIN =O: s2p4

   TITEL  = PAW_PBE O 08Apr2002
   POMASS =   16.000; ZVAL   =    6.000    mass and valenz
   ENMAX  =  400.000; ENMIN  =  300.000 eV

 Optimization of the real space projectors (new method)

 maximal supplied QI-value         = 13.42
 optimisation between [QCUT,QGAM] = [ 11.67, 23.35] = [ 38.16,152.62] Ry
 Optimized for a Real-space Cutoff    1.63 Angstroem

   l    n(q)    QCUT    max X(q) W(low)/X(q) W(high)/X(q)  e(spline)
   0     11    11.673    13.882    0.27E-04    0.79E-05    0.11E-06
   0     11    11.673    12.184    0.39E-04    0.13E-04    0.19E-06
   1     11    11.673     4.523    0.73E-05    0.76E-05    0.12E-06
   1     11    11.673     4.424    0.87E-05    0.13E-04    0.19E-06
   2     10    11.673    52.481    0.65E-04    0.36E-04    0.18E-06
   2     10    11.673    38.501    0.61E-04    0.33E-04    0.17E-06
   3     10    11.673    65.631    0.17E-03    0.14E-03    0.37E-06
   3     10    11.673    56.854    0.17E-03    0.14E-03    0.37E-06
 Optimization of the real space projectors (new method)

[...]

   l    n(q)    QCUT    max X(q) W(low)/X(q) W(high)/X(q)  e(spline)
   2      9    11.539    60.317    0.19E-03    0.47E-04    0.16E-06
   2      9    11.539    55.921    0.19E-03    0.48E-04    0.16E-06
   0     10    11.539    51.690    0.80E-04    0.50E-04    0.24E-06
   0     10    11.539    30.015    0.73E-04    0.45E-04    0.22E-06
   1     10    11.539    18.849    0.87E-04    0.16E-03    0.71E-07
   1     10    11.539    14.624    0.73E-04    0.13E-03    0.64E-07
 Optimization of the real space projectors (new method)

 maximal supplied QI-value         = 24.76
 optimisation between [QCUT,QGAM] = [ 11.64, 23.27] = [ 37.91,151.63] Ry
 Optimized for a Real-space Cutoff    1.14 Angstroem

   l    n(q)    QCUT    max X(q) W(low)/X(q) W(high)/X(q)  e(spline)
   0      8    11.635    20.381    0.10E-03    0.33E-03    0.24E-06
   0      8    11.635    15.268    0.11E-03    0.35E-03    0.26E-06
   1      7    11.635     5.964    0.24E-03    0.31E-03    0.30E-06
   1      7    11.635     5.382    0.22E-03    0.25E-03    0.26E-06
  PAW_PBE La 06Sep2000                  :
  PAW_PBE Mn 06Sep2000                  :
  PAW_PBE Ni 02Aug2007                  :
  PAW_PBE O 08Apr2002                   :

 POSCAR: SCEL6_1_3_2_1_0_0/1
  positions in direct lattice
  velocities in cartesian coordinates
 exchange correlation table for  LEXCH =        8
   RHO(1)=    0.500       N(1)  =     2000
   RHO(2)=  100.500       N(2)  =     4000

 ion  position               nearest neighbor table
   1  0.000  0.667  0.167-  29 2.76  30 2.76  22 2.76  22 2.76  23 2.76  23 2.76  17 2.77  17 2.77
                            13 2.77  13 2.77  25 2.78  28 2.78  11 3.37  11 3.37  12 3.37  12 3.37
   2  0.000  0.321  0.320-  18 2.66  18 2.66  30 2.67  29 2.67  22 2.78  22 2.78  21 2.79  21 2.79
                            12 3.30  12 3.30  11 3.32  11 3.32   6 3.59
   3  0.000  0.002  0.491-  29 2.63  21 2.70  21 2.70  17 2.71  17 2.71  28 2.76  27 2.76  15 2.81
                            15 2.81  11 3.29  11 3.29   9 3.37   9 3.37  10 3.41  10 3.41
   4  0.000  0.667  0.667-  14 2.74  14 2.74  16 2.74  16 2.74  25 2.75  28 2.75  26 2.75  27 2.75
                            19 2.76  19 2.76  20 2.76  20 2.76   8 3.38  10 3.38   8 3.38  10 3.38
   5  0.000  0.332  0.843-  30 2.63  24 2.70  24 2.70  13 2.71  13 2.71  25 2.76  26 2.76  15 2.81
                            15 2.81  12 3.29  12 3.29   7 3.37   7 3.37   8 3.41   8 3.41
   6  0.000  0.012  0.013-  18 2.66  18 2.66  29 2.67  30 2.67  23 2.78  23 2.78  24 2.79  24 2.79
                            11 3.30  11 3.30  12 3.32  12 3.32   2 3.59
   7  0.500  0.000  0.750-  24 1.89  20 1.95  26 1.96  26 1.96  15 1.96  14 1.99   5 3.37   5 3.37
                             4 3.39   4 3.39
   8  0.500  0.668  0.917-  23 1.88  13 1.93  14 1.93  19 1.95  25 1.96  25 1.96   1 3.38   1 3.38
                             4 3.38   4 3.38   5 3.41   5 3.41
   9  0.500  0.333  0.583-  21 1.89  19 1.95  27 1.96  27 1.96  15 1.96  16 1.99   3 3.37   3 3.37
                             4 3.39   4 3.39
  10  0.500  0.666  0.416-  22 1.88  17 1.93  16 1.93  20 1.95  28 1.96  28 1.96   1 3.38   1 3.38
                             4 3.38   4 3.38   3 3.41   3 3.41
  11  0.500  0.998  0.250-  29 1.96  29 1.96  18 1.98  17 1.99  23 1.99  21 2.00   3 3.29   3 3.29
                             6 3.30   6 3.30   2 3.32   2 3.32   1 3.37   1 3.37
  12  0.500  0.335  0.083-  30 1.96  30 1.96  18 1.98  13 1.99  22 1.99  24 2.00   5 3.29   5 3.29
                             2 3.30   2 3.30   6 3.32   6 3.32   1 3.37   1 3.37
  13  0.500  0.503  0.997-   8 1.93  12 1.99   5 2.71   5 2.71   1 2.77   1 2.77
  14  0.500  0.828  0.832-   8 1.93   7 1.99   4 2.74   4 2.74
  15  0.500  0.167  0.667-   9 1.96   7 1.96   5 2.81   5 2.81   3 2.81   3 2.81
  16  0.500  0.505  0.501-  10 1.93   9 1.99   4 2.74   4 2.74
  17  0.500  0.831  0.336-  10 1.93  11 1.99   3 2.71   3 2.71   1 2.77   1 2.77
  18  0.500  0.167  0.167-  12 1.98  11 1.98   2 2.66   2 2.66   6 2.66   6 2.66
  19  0.500  0.501  0.750-   9 1.95   8 1.95   4 2.76   4 2.76
  20  0.500  0.832  0.584-   7 1.95  10 1.95   4 2.76   4 2.76
  21  0.500  0.170  0.422-   9 1.89  11 2.00   3 2.70   3 2.70   2 2.79   2 2.79
  22  0.500  0.505  0.254-  10 1.88  12 1.99   1 2.76   1 2.76   2 2.78   2 2.78
  23  0.500  0.828  0.079-   8 1.88  11 1.99   1 2.76   1 2.76   6 2.78   6 2.78
  24  0.500  0.164  0.912-   7 1.89  12 2.00   5 2.70   5 2.70   6 2.79   6 2.79
  25  0.000  0.664  0.915-   8 1.96   8 1.96   4 2.75   5 2.76   1 2.78
  26  0.000  0.998  0.749-   7 1.96   7 1.96   4 2.75   5 2.76
  27  0.000  0.335  0.585-   9 1.96   9 1.96   4 2.75   3 2.76
  28  0.000  0.669  0.419-  10 1.96  10 1.96   4 2.75   3 2.76   1 2.78
  29  0.000  0.999  0.252-  11 1.96  11 1.96   3 2.63   6 2.67   2 2.67   1 2.76
  30  0.000  0.334  0.082-  12 1.96  12 1.96   5 2.63   2 2.67   6 2.67   1 2.76

  LATTYP: Found a simple monoclinic cell.
 ALAT       =    11.6627750320
 B/A-ratio  =     0.3353742337
 C/A-ratio  =     1.4936763038
 COS(beta)  =    -0.8928318130

  Lattice vectors:

 A1 = (   0.0000000000, -11.6627747998,  -0.0023273444)
 A2 = (   3.9113942390,   0.0000000000,   0.0000000000)
 A3 = (   0.0000000000,  15.5519308702,   7.8490862680)

Analysis of symmetry for initial positions (statically):
 Subroutine PRICEL returns:
 Original cell was already a primitive cell.

 Routine SETGRP: Setting up the symmetry group for a
 simple monoclinic supercell.

 Subroutine GETGRP returns: Found  4 space group operations
 (whereof  2 operations were pure point group operations)
 out of a pool of  4 trial point group operations.

The static configuration has the point symmetry C_1h.
 The point group associated with its full space group is C_2h.

Analysis of symmetry for dynamics (positions and initial velocities):
 Subroutine PRICEL returns:
 Original cell was already a primitive cell.

[...]

The dynamic configuration has the point symmetry C_1h.
 The point group associated with its full space group is C_2h.

Analysis of structural, dynamic, and magnetic symmetry:
 Subroutine PRICEL returns:
 Original cell was already a primitive cell.

 Routine SETGRP: Setting up the symmetry group for a
 simple monoclinic supercell.

 Subroutine GETGRP returns: Found  4 space group operations
 (whereof  2 operations were pure point group operations)
 out of a pool of  4 trial point group operations.

The magnetic configuration has the point symmetry C_1h.
 The point group associated with its full space group is C_2h.

 Subroutine INISYM returns: Found  4 space group operations
 (whereof  2 operations are pure point group operations),
 and found     1 'primitive' translations

 KPOINTS: Automatic mesh

Automatic generation of k-mesh.
 generate k-points for:    5    2    2
Space group operators:
 irot       det(A)        alpha          n_x          n_y          n_z        tau_x        tau_y        tau_z
    1     1.000000     0.000000     1.000000     0.000000     0.000000     0.000000     0.000000     0.000000
    2    -1.000000   180.000000     1.000000     0.000000     0.000000     0.000000     0.000000     0.000000
    3    -1.000000     0.000000     1.000000     0.000000     0.000000     0.000000    -0.666667    -0.666667
    4     1.000000   180.000000     1.000000     0.000000     0.000000     0.000000    -0.666667    -0.666667

 Subroutine IBZKPT returns following result:

 Found     12 irreducible k-points:

 Following reciprocal coordinates:
            Coordinates               Weight
  0.000000  0.000000  0.000000      1.000000
  0.200000  0.000000  0.000000      2.000000
  0.400000  0.000000  0.000000      2.000000
  0.000000  0.500000  0.000000      1.000000
  0.200000  0.500000  0.000000      2.000000
  0.400000  0.500000  0.000000      2.000000
  0.000000  0.000000  0.500000      1.000000
  0.200000  0.000000  0.500000      2.000000
  0.400000  0.000000  0.500000      2.000000
  0.000000  0.500000  0.500000      1.000000
  0.200000  0.500000  0.500000      2.000000
  0.400000  0.500000  0.500000      2.000000

 Following cartesian coordinates:
            Coordinates               Weight
  0.000000  0.000000  0.000000      1.000000
 -0.051133  0.000000  0.000000      2.000000
 -0.102265  0.000000  0.000000      2.000000
  0.000000  0.042863  0.042476      1.000000
 -0.051133  0.042863  0.042476      2.000000
 -0.102265  0.042863  0.042476      2.000000
  0.000000  0.042876 -0.021251      1.000000
 -0.051133  0.042876 -0.021251      2.000000
 -0.102265  0.042876 -0.021251      2.000000
  0.000000  0.085739  0.021225      1.000000
 -0.051133  0.085739  0.021225      2.000000
 -0.102265  0.085739  0.021225      2.000000

 TETIRR: Found     60 inequivalent tetrahedra from      120

 SYSTEM =  final
 POSCAR =  SCEL6_1_3_2_1_0_0/1

 Startparameter for this run:
   NWRITE =      2    write-flag & timer
   PREC   = accura    normal or accurate (medium, high low for compatibility)
   ISTART =      0    job   : 0-new  1-cont  2-samecut
   ICHARG =      1    charge: 1-file 2-atom 10-const
   ISPIN  =      2    spin polarized calculation?
   LNONCOLLINEAR =      F non collinear calculations
   LSORBIT =      F    spin-orbit coupling
[...]
     30      -7.7109      1.00000
     31      -7.6836      1.00000
     32      -7.6777      1.00000
     33      -7.6197      1.00000
     34      -7.6071      1.00000
     35      -7.6002      1.00000
     36      -7.4475      1.00000
     37      -7.4207      1.00000
     38      -7.3348      1.00000
     39      -7.2747      1.00000
     40      -7.2192      1.00000
     41      -7.1192      1.00000
     42      -6.9449      1.00000
     43       0.3102      1.00000
     44       0.6488      1.00000
     45       0.7772      1.00000
     46       1.0260      1.00000
     47       1.2043      1.00000
     48       1.2699      1.00000
     49       1.4054      1.00000
     50       1.4826      1.00000
     51       1.4852      1.00000
     52       1.8154      1.00000
     53       1.9359      1.00000
     54       1.9685      1.00000
     55       2.0368      1.00000
     56       2.0480      1.00000
     57       2.0569      1.00000
     58       2.1653      1.00000
     59       2.1745      1.00000
     60       2.2147      1.00000
[...]
    130      10.4355      0.00000
    131      10.4536      0.00000
    132      10.4911      0.00000
    133      10.5501      0.00000
    134      10.5826      0.00000
    135      10.6092      0.00000
    136      10.6406      0.00000
    137      10.6688      0.00000
    138      10.6860      0.00000
    139      10.7030      0.00000
    140      10.7126      0.00000
    141      10.7411      0.00000
    142      10.7560      0.00000
    143      10.7710      0.00000
    144      10.8277      0.00000

[...]

 spin component 2

[...]

 k-point    12 :       0.4000    0.5000    0.5000
  band No.  band energies     occupation
      1     -24.2356      1.00000
      2     -24.2236      1.00000
      3     -24.2100      1.00000
      4     -24.1976      1.00000
      5     -24.1720      1.00000
      6     -24.1475      1.00000
      7     -11.1449      1.00000
      8     -11.1200      1.00000
      9     -10.8986      1.00000
     10     -10.8872      1.00000
     11     -10.4550      1.00000
     12     -10.4428      1.00000
     13     -10.3790      1.00000
     14     -10.3686      1.00000
     15     -10.2244      1.00000
     16     -10.1417      1.00000
     17     -10.0945      1.00000
     18     -10.0453      1.00000
     19      -9.9573      1.00000
     20      -9.9450      1.00000
     21      -9.8923      1.00000
     22      -9.7822      1.00000
     23      -9.7293      1.00000
     24      -9.6430      1.00000
     25      -8.1846      1.00000
     26      -8.0930      1.00000
     27      -7.9993      1.00000
     28      -7.9620      1.00000
     29      -7.7385      1.00000
     30      -7.7070      1.00000
     31      -7.7008      1.00000
     32      -7.6822      1.00000
     33      -7.6276      1.00000
     34      -7.6040      1.00000
     35      -7.5490      1.00000
     36      -7.4848      1.00000
     37      -7.3848      1.00000
     38      -7.3277      1.00000
     39      -7.3055      1.00000
     40      -7.2519      1.00000
     41      -7.1800      1.00000
     42      -7.0357      1.00000
     43       1.2295      1.00000
     44       1.2505      1.00000
     45       1.7577      1.00000
     46       1.8842      1.00000
     47       2.0152      1.00000
     48       2.0430      1.00000
     49       2.1392      1.00000
     50       2.4456      1.00000
     51       2.4944      1.00000
     52       2.4972      1.00000
     53       2.7347      1.00000
     54       2.8133      1.00000
     55       2.8324      1.00000
     56       2.9708      1.00000
     57       2.9807      1.00000
     58       3.0003      1.00000
     59       3.0734      1.00000
     60       3.0810      1.00000
[...]
    130      10.7150      0.00000
    131      10.7319      0.00000
    132      10.7442      0.00000
    133      10.7575      0.00000
    134      10.7667      0.00000
    135      10.7757      0.00000
    136      10.7785      0.00000
    137      10.7924      0.00000
    138      10.8031      0.00000
    139      10.8126      0.00000
    140      10.8149      0.00000
    141      10.8276      0.00000
    142      10.8797      0.00000
    143      10.9486      0.00000
    144      11.1504      0.00000

 soft charge-density along one line, spin component           1
         0         1         2         3         4         5         6         7         8         9
 total charge-density along one line

 soft charge-density along one line, spin component           2
         0         1         2         3         4         5         6         7         8         9
 total charge-density along one line

------------------------ aborting loop because EDIFF is reached ----------------------------------------

 total charge

# of ion       s       p       d       f       tot
    1        1.998   5.696   0.474   0.185   8.353
    2        2.000   5.694   0.485   0.186   8.364
    3        2.000   5.697   0.486   0.188   8.370
    4        1.999   5.699   0.484   0.189   8.371
    5        2.000   5.697   0.486   0.188   8.370
    6        2.000   5.694   0.485   0.186   8.365
    7        0.323   0.486   4.871   0.000   5.680
    8        0.337   0.518   4.865   0.000   5.720
    9        0.323   0.486   4.871   0.000   5.680
   10        0.337   0.518   4.865   0.000   5.720
   11        0.394   0.565   8.330   0.000   9.289
   12        0.394   0.565   8.330   0.000   9.289
   13        1.561   3.453   0.000   0.000   5.014
   14        1.563   3.453   0.000   0.000   5.017
   15        1.567   3.441   0.000   0.000   5.008
   16        1.563   3.454   0.000   0.000   5.017
   17        1.561   3.453   0.000   0.000   5.014
   18        1.555   3.463   0.000   0.000   5.018
   19        1.560   3.465   0.000   0.000   5.025
   20        1.560   3.465   0.000   0.000   5.025
   21        1.562   3.454   0.000   0.000   5.016
   22        1.562   3.451   0.000   0.000   5.013
   23        1.562   3.451   0.000   0.000   5.013
   24        1.562   3.454   0.000   0.000   5.016
   25        1.566   3.449   0.000   0.000   5.015
   26        1.564   3.449   0.000   0.000   5.013
   27        1.564   3.449   0.000   0.000   5.013
   28        1.566   3.449   0.000   0.000   5.015
   29        1.555   3.461   0.000   0.000   5.016
   30        1.555   3.461   0.000   0.000   5.016
tot         42.214  99.489  39.031   1.122 181.856

 magnetization (x)

[...]

  FORCE on cell =-STRESS in cart. coord.  units (eV):
  Direction    XX          YY          ZZ          XY          YZ          ZX
  Alpha Z   969.26003   969.26003   969.26003
  Ewald   -4914.09839 -5066.33434 -4997.18103    -0.00000    24.31081     0.00000
  Hartree  1180.80675  1013.42058  1115.06901     0.00000    27.41379    -0.00000
  E(xc)   -1025.35710 -1025.48782 -1025.47388    -0.00000    -0.02008     0.00000
  Local    -795.63884  -463.96710  -648.22324    -0.00000   -51.52600     0.00000
  n-local   402.45725   404.06406   402.04568     0.00034     0.26945    -0.00087
  augment   345.56720   340.96478   345.21958    -0.00000    -0.00250     0.00000
  Kinetic  3836.05672  3826.57430  3837.10365     0.00093    -0.47898     0.00107
  Fock        0.00000     0.00000     0.00000     0.00000     0.00000     0.00000
  Total      -0.94639    -1.50550    -2.18020     0.00000    -0.03352     0.00000
  in kB      -4.23642    -6.73925    -9.75944     0.00000    -0.15006     0.00000

 VOLUME and BASIS-vectors are now :
  energy-cutoff  :      520.00
  volume of cell :      357.92
      direct lattice vectors                 reciprocal lattice vectors
    -3.911394239  0.000000000  0.000000000    -0.255663311  0.000000000  0.000000000
     0.000000000  3.889156070  7.846758924     0.000000000  0.085725936  0.084952075
     0.000000000  7.773618729 -7.844431579     0.000000000  0.085751370 -0.042501683

  length of vectors
     3.911394239  8.757691508 11.043742796     0.255663311  0.120688820  0.095706272

 FORCES acting on ions
    electron-ion (+dipol)            ewald-force                    non-local-force                 convergence-correction
   -.217E-14 -.657E-03 0.803E-04   0.607E-14 -.164E-03 -.173E-03   0.000E+00 0.000E+00 -.542E-19   -.123E-13 0.304E-05 0.232E-05
   -.293E-14 -.159E+03 0.126E+02   0.832E-14 0.158E+03 -.125E+02   0.000E+00 0.142E+01 -.189E-01   -.261E-13 0.258E-02 0.225E-02
   0.404E-14 -.976E+02 0.838E+02   0.255E-13 0.969E+02 -.829E+02   0.000E+00 0.693E+00 -.778E+00   -.216E-13 -.501E-03 -.188E-02
   0.742E-14 -.643E-03 0.125E-04   -.273E-13 -.170E-03 -.129E-03   0.000E+00 -.108E-18 0.000E+00   -.178E-13 0.204E-05 0.342E-05
   0.552E-14 0.976E+02 -.838E+02   0.194E-13 -.969E+02 0.829E+02   0.000E+00 -.693E+00 0.778E+00   -.260E-13 0.500E-03 0.188E-02
   0.957E-14 0.159E+03 -.126E+02   0.225E-13 -.158E+03 0.125E+02   0.000E+00 -.142E+01 0.189E-01   -.173E-13 -.259E-02 -.225E-02
   -.621E-13 0.362E+02 0.240E+01   0.102E-13 -.357E+02 -.227E+01   0.000E+00 -.563E+00 -.115E+00   -.676E-14 -.893E-03 0.207E-02
   -.443E-13 0.425E+02 -.332E+02   -.217E-13 -.419E+02 0.331E+02   0.000E+00 -.693E+00 0.129E+00   -.355E-14 0.103E-02 -.867E-03
   -.548E-13 -.362E+02 -.240E+01   -.301E-13 0.357E+02 0.227E+01   0.000E+00 0.563E+00 0.115E+00   -.700E-14 0.891E-03 -.207E-02
   -.734E-13 -.425E+02 0.332E+02   -.886E-14 0.419E+02 -.331E+02   0.000E+00 0.693E+00 -.129E+00   -.816E-14 -.103E-02 0.870E-03
   -.288E-12 -.712E+01 0.379E+02   -.137E-14 0.691E+01 -.369E+02   0.000E+00 0.176E+00 -.108E+01   -.364E-13 -.337E-02 -.617E-02
   -.315E-12 0.712E+01 -.379E+02   0.480E-14 -.691E+01 0.369E+02   0.000E+00 -.176E+00 0.108E+01   -.296E-13 0.337E-02 0.617E-02
   -.118E-12 0.188E+02 -.661E+02   0.263E-13 -.184E+02 0.617E+02   0.000E+00 -.420E+00 0.447E+01   -.907E-14 0.185E-02 -.546E-03
   -.123E-12 0.202E+02 -.204E+02   0.670E-14 -.194E+02 0.225E+02   0.000E+00 -.846E+00 -.207E+01   -.128E-13 0.966E-03 -.218E-02
   -.124E-12 -.709E-03 -.610E-05   -.643E-14 -.147E-04 0.135E-05   0.000E+00 -.136E-19 -.136E-19   -.721E-14 -.171E-05 -.129E-05
   -.121E-12 -.202E+02 0.204E+02   0.218E-13 0.194E+02 -.225E+02   0.000E+00 0.846E+00 0.207E+01   -.571E-14 -.965E-03 0.218E-02
   -.122E-12 -.188E+02 0.661E+02   -.272E-13 0.184E+02 -.617E+02   0.000E+00 0.420E+00 -.447E+01   -.679E-14 -.185E-02 0.546E-03
   -.119E-12 -.785E-03 -.392E-05   -.169E-13 0.500E-04 -.137E-04   0.000E+00 0.000E+00 -.108E-18   -.365E-14 -.106E-05 -.132E-05
   -.119E-12 0.187E+02 -.781E+01   0.899E-14 -.187E+02 0.733E+01   0.000E+00 -.379E-02 0.508E+00   -.132E-13 0.305E-02 -.192E-02
   -.120E-12 -.187E+02 0.781E+01   0.534E-14 0.187E+02 -.733E+01   0.000E+00 0.379E-02 -.508E+00   -.119E-13 -.305E-02 0.193E-02
   -.126E-12 -.857E+02 0.638E+01   -.236E-13 0.801E+02 -.555E+01   0.000E+00 0.565E+01 -.852E+00   -.116E-13 -.270E-02 -.129E-02
   -.119E-12 -.661E+02 0.696E+01   -.246E-13 0.602E+02 -.709E+01   0.000E+00 0.592E+01 0.140E+00   -.143E-13 0.368E-03 0.310E-02
   -.130E-12 0.661E+02 -.696E+01   0.183E-13 -.602E+02 0.709E+01   0.000E+00 -.592E+01 -.140E+00   -.171E-14 -.366E-03 -.310E-02
   -.122E-12 0.857E+02 -.638E+01   -.186E-14 -.801E+02 0.555E+01   0.000E+00 -.565E+01 0.852E+00   -.301E-14 0.269E-02 0.128E-02
   0.675E-14 0.293E+02 -.292E+02   0.490E-14 -.291E+02 0.295E+02   0.000E+00 -.262E+00 -.410E+00   -.175E-13 0.189E-02 -.258E-02
   0.522E-14 0.258E+02 -.759E+00   -.284E-13 -.260E+02 0.783E+00   0.000E+00 0.245E+00 -.347E-01   -.176E-13 0.395E-03 0.159E-02
   0.676E-14 -.258E+02 0.759E+00   0.337E-13 0.260E+02 -.783E+00   0.000E+00 -.245E+00 0.347E-01   -.160E-13 -.397E-03 -.159E-02
   0.789E-14 -.293E+02 0.292E+02   0.894E-14 0.291E+02 -.295E+02   0.000E+00 0.262E+00 0.410E+00   -.156E-13 -.189E-02 0.258E-02
   0.624E-14 -.293E+01 0.234E+02   0.196E-13 0.242E+01 -.237E+02   0.000E+00 0.539E+00 0.365E+00   -.247E-13 -.179E-02 -.245E-02
   0.982E-14 0.293E+01 -.234E+02   -.862E-14 -.242E+01 0.237E+02   0.000E+00 -.539E+00 -.365E+00   -.206E-13 0.179E-02 0.245E-02
   -.224E-11 -.521E-02 0.142E-04   0.246E-13 0.764E-13 0.391E-13   0.000E+00 -.111E-15 0.611E-15   -.426E-12 0.744E-06 0.151E-05

 POSITION                                       TOTAL-FORCE (eV/Angst)
      0.00000      3.88837      3.92377         0.000000     -0.000000      0.000000
      0.00000      3.74003      0.01013         0.000000     -0.048154      0.068917
      0.00000      3.81976     -3.83480         0.000000     -0.063919      0.060290
      0.00000      7.77518      0.00155         0.000000     -0.000000      0.000000
      0.00000      7.84145     -4.00886         0.000000      0.063919     -0.060290
      0.00000      0.14756     -0.00935         0.000000      0.048154     -0.068917
     -1.95570      5.83093     -5.88254         0.000000     -0.090111      0.019916
     -1.95570      9.72476     -1.95383         0.000000     -0.107964     -0.043162
     -1.95570      5.83028     -1.96112         0.000000      0.090111     -0.019916
     -1.95570      5.82561      1.95693         0.000000      0.107964      0.043162
     -1.95570      5.82729      5.87125         0.000000     -0.032433     -0.021701
     -1.95570      1.94946      1.97628         0.000000      0.032433      0.021701
     -1.95570      9.70723     -3.87883         0.000000     -0.019412      0.116832
     -1.95570      9.68863     -0.02453         0.000000     -0.042262     -0.014579
     -1.95570      5.83061     -3.92183         0.000000     -0.000000      0.000000
     -1.95570      5.86173      0.02763         0.000000      0.042262      0.014579
     -1.95570      5.84313      3.88193         0.000000      0.019412     -0.116832
     -1.95570      1.94380      0.00039         0.000000     -0.000000      0.000000
     -1.95570      7.77605     -1.94674         0.000000     -0.036484      0.035142
     -1.95570      7.77431      1.94984         0.000000      0.036484     -0.035142
     -1.95570      3.93732     -1.97562         0.000000      0.046175     -0.026003
     -1.95570      3.94143      1.97003         0.000000     -0.004630      0.006264
     -1.95570      3.83532      5.87751         0.000000      0.004630     -0.006264
     -1.95570      7.72389     -5.86804         0.000000     -0.046175      0.026003
      0.00000      9.69426     -1.96180         0.000000     -0.004485     -0.060436
      0.00000      9.70398      1.96085         0.000000      0.024626     -0.008656
      0.00000      5.84639     -1.95775         0.000000     -0.024626      0.008656
      0.00000      5.85611      1.96490         0.000000      0.004485      0.060436
      0.00000      5.84205      5.86768         0.000000      0.034604     -0.001021
      0.00000      1.93470      1.97985         0.000000     -0.034604      0.001021
    total drift:                               -0.000000     -0.005211      0.000016

  FREE ENERGIE OF THE ION-ELECTRON SYSTEM (eV)
  free  energy   TOTEN  =      -226.56008584 eV

  energy  without entropy=     -226.56008584  energy(sigma->0) =     -226.56008584

 total charge

[...]

 magnetization (x)

# of ion       s       p       d       f       tot
    1        0.001   0.001   0.008   0.004   0.014
    2        0.000   0.000   0.005   0.003   0.008
    3        0.001   0.001   0.010   0.005   0.017
    4        0.001   0.001   0.012   0.006   0.021
    5        0.001   0.001   0.010   0.005   0.017
    6        0.000   0.000   0.005   0.003   0.008
    7        0.025   0.023   3.640   0.000   3.688
    8        0.025   0.027   3.497   0.000   3.549
    9        0.025   0.023   3.640   0.000   3.687
   10        0.025   0.027   3.497   0.000   3.549
   11        0.013   0.006   1.699   0.000   1.718
   12        0.013   0.006   1.699   0.000   1.718
   13        0.006  -0.021   0.000   0.000  -0.015
   14        0.005  -0.026   0.000   0.000  -0.021
   15        0.008  -0.064   0.000   0.000  -0.057
   16        0.005  -0.026   0.000   0.000  -0.021
   17        0.006  -0.021   0.000   0.000  -0.015
   18        0.007   0.046   0.000   0.000   0.054
   19        0.001  -0.022   0.000   0.000  -0.021
   20        0.001  -0.022   0.000   0.000  -0.021
   21        0.005  -0.032   0.000   0.000  -0.027
   22        0.005  -0.027   0.000   0.000  -0.022
   23        0.005  -0.027   0.000   0.000  -0.022
   24        0.005  -0.032   0.000   0.000  -0.027
   25        0.006  -0.054   0.000   0.000  -0.048
   26        0.005  -0.048   0.000   0.000  -0.043
   27        0.005  -0.048   0.000   0.000  -0.043
   28        0.006  -0.054   0.000   0.000  -0.048
   29        0.006   0.027   0.000   0.000   0.033
   30        0.006   0.027   0.000   0.000   0.033
tot          0.223  -0.309  17.721   0.027  17.663

 BZINTS: Fermi energy:  7.828278;222.000000 electrons
         Band energy:-384.527794;  BLOECHL correction: -0.133248