 vasp.5.4.4.18Apr17-6-g9f103f2a35 (build Oct 03 2018 13:58:34) complex

 executed on             LinuxIFC date 2019.06.04  02:14:16

 INCAR:
 POTCAR:    PAW_PBE La 06Sep2000
 POTCAR:    PAW_PBE Mn 06Sep2000
 POTCAR:    PAW_PBE Ni 02Aug2007
 POTCAR:    PAW_PBE O 08Apr2002

 POTCAR:    PAW_PBE La 06Sep2000
   VRHFIN =La : [core=Kr4d]

   TITEL  = PAW_PBE La 06Sep2000
   POMASS =  138.900; ZVAL   =   11.000    mass and valenz
   ENMAX  =  219.292; ENMIN  =  164.469 eV

 POTCAR:    PAW_PBE Mn 06Sep2000
   VRHFIN =Mn: d6 s1

   TITEL  = PAW_PBE Mn 06Sep2000
   POMASS =   54.938; ZVAL   =    7.000    mass and valenz
   ENMAX  =  269.864; ENMIN  =  202.398 eV

 POTCAR:    PAW_PBE Ni 02Aug2007
   VRHFIN =Ni:

   TITEL  = PAW_PBE Ni 02Aug2007
   POMASS =   58.690; ZVAL   =   10.000    mass and valenz
   ENMAX  =  269.532; ENMIN  =  202.149 eV

 POTCAR:    PAW_PBE O 08Apr2002
   VRHFIN =O: s2p4

   TITEL  = PAW_PBE O 08Apr2002
   POMASS =   16.000; ZVAL   =    6.000    mass and valenz
   ENMAX  =  400.000; ENMIN  =  300.000 eV

 Optimization of the real space projectors (new method)

 maximal supplied QI-value         = 13.42
 optimisation between [QCUT,QGAM] = [ 11.67, 23.35] = [ 38.16,152.62] Ry
 Optimized for a Real-space Cutoff    1.63 Angstroem

   l    n(q)    QCUT    max X(q) W(low)/X(q) W(high)/X(q)  e(spline)
   0     11    11.673    13.882    0.27E-04    0.79E-05    0.11E-06
   0     11    11.673    12.184    0.39E-04    0.13E-04    0.19E-06
   1     11    11.673     4.523    0.73E-05    0.76E-05    0.12E-06
   1     11    11.673     4.424    0.87E-05    0.13E-04    0.19E-06
   2     10    11.673    52.481    0.65E-04    0.36E-04    0.18E-06
   2     10    11.673    38.501    0.61E-04    0.33E-04    0.17E-06
   3     10    11.673    65.631    0.17E-03    0.14E-03    0.37E-06
   3     10    11.673    56.854    0.17E-03    0.14E-03    0.37E-06
 Optimization of the real space projectors (new method)

[...]

   l    n(q)    QCUT    max X(q) W(low)/X(q) W(high)/X(q)  e(spline)
   2      9    11.539    60.317    0.19E-03    0.47E-04    0.16E-06
   2      9    11.539    55.921    0.19E-03    0.48E-04    0.16E-06
   0     10    11.539    51.690    0.80E-04    0.50E-04    0.24E-06
   0     10    11.539    30.015    0.73E-04    0.45E-04    0.22E-06
   1     10    11.539    18.849    0.87E-04    0.16E-03    0.71E-07
   1     10    11.539    14.624    0.73E-04    0.13E-03    0.64E-07
 Optimization of the real space projectors (new method)

 maximal supplied QI-value         = 24.76
 optimisation between [QCUT,QGAM] = [ 11.64, 23.27] = [ 37.91,151.63] Ry
 Optimized for a Real-space Cutoff    1.14 Angstroem

   l    n(q)    QCUT    max X(q) W(low)/X(q) W(high)/X(q)  e(spline)
   0      8    11.635    20.381    0.10E-03    0.33E-03    0.24E-06
   0      8    11.635    15.268    0.11E-03    0.35E-03    0.26E-06
   1      7    11.635     5.964    0.24E-03    0.31E-03    0.30E-06
   1      7    11.635     5.382    0.22E-03    0.25E-03    0.26E-06
  PAW_PBE La 06Sep2000                  :
  PAW_PBE Mn 06Sep2000                  :
  PAW_PBE Ni 02Aug2007                  :
  PAW_PBE O 08Apr2002                   :

 POSCAR: SCEL6_3_2_1_0_1_0/4
  positions in direct lattice
  velocities in cartesian coordinates
 exchange correlation table for  LEXCH =        8
   RHO(1)=    0.500       N(1)  =     2000
   RHO(2)=  100.500       N(2)  =     4000

 ion  position               nearest neighbor table
   1  0.339  0.492  0.679-  27 2.65  17 2.65  21 2.65  30 2.74  14 2.74  23 2.75  23 2.75  13 2.76
                            29 2.76  10 3.25  12 3.32  11 3.33  11 3.33   7 3.40   7 3.40   8 3.40
   2  0.664  0.002  0.328-  24 2.69  25 2.71  15 2.71  28 2.73  18 2.73  22 2.74  22 2.74  13 2.75
                            29 2.75  16 2.77  26 2.77  20 2.77  10 3.31  12 3.33   8 3.35   8 3.35
   3  0.997  0.494  0.993-  17 2.69  27 2.69  23 2.70  21 2.74  21 2.74  15 2.75  25 2.75  14 2.75
                            30 2.75  19 2.80  18 2.82  28 2.82  11 3.31  10 3.33  10 3.33   7 3.35
   4  0.339  0.008  0.679-  27 2.65  17 2.65  24 2.65  30 2.74  14 2.74  20 2.75  20 2.75  13 2.76
                            29 2.76  10 3.25  12 3.32  11 3.33  11 3.33   7 3.40   7 3.40   8 3.40
   5  0.664  0.498  0.328-  21 2.69  25 2.71  15 2.71  28 2.73  18 2.73  19 2.74  19 2.74  13 2.75
                            29 2.75  16 2.77  26 2.77  23 2.77  10 3.31  12 3.33   8 3.35   8 3.35
   6  0.997  0.006  0.993-  17 2.69  27 2.69  20 2.70  24 2.74  24 2.74  15 2.75  25 2.75  14 2.75
                            30 2.75  22 2.80  18 2.82  28 2.82  11 3.31  10 3.33  10 3.33   7 3.35
   7  0.833  0.750  0.666-  14 1.89  30 1.89  23 1.90  20 1.90  26 1.94  16 1.94   3 3.35   6 3.35
                             4 3.40   1 3.40   1 3.40   4 3.40   5 3.41   2 3.41
   8  0.167  0.250  0.334-  29 1.90  13 1.90  15 1.90  25 1.90  19 1.94  22 1.94   2 3.35   5 3.35
                             2 3.35   5 3.35   3 3.39   6 3.39   1 3.40   4 3.40
   9  0.166  0.750  0.333-  18 1.88  28 1.88  26 1.94  16 1.94  19 1.94  22 1.94   2 3.37   5 3.37
                             2 3.37   5 3.37
  10  0.501  0.250  0.001-  27 1.96  17 1.96  24 1.96  21 1.96  25 1.98  15 1.98   1 3.25   4 3.25
                             2 3.31   5 3.31   3 3.33   6 3.33   3 3.33   6 3.33
  11  0.832  0.250  0.664-  17 1.94  27 1.94  29 1.96  13 1.96  20 1.99  23 1.99   3 3.31   6 3.31
                             4 3.33   1 3.33   1 3.33   4 3.33   5 3.37   2 3.37
  12  0.501  0.750  0.001-  21 1.93  24 1.93  28 1.99  18 1.99  30 2.00  14 2.00   1 3.32   4 3.32
                             2 3.33   5 3.33
  13  0.002  0.250  0.496-   8 1.90  11 1.96   2 2.75   5 2.75   4 2.76   1 2.76
  14  0.670  0.750  0.829-   7 1.89  12 2.00   1 2.74   4 2.74   3 2.75   6 2.75
  15  0.330  0.250  0.172-   8 1.90  10 1.98   2 2.71   5 2.71   3 2.75   6 2.75
  16  0.999  0.750  0.499-   9 1.94   7 1.94   2 2.77   5 2.77
  17  0.667  0.250  0.832-  11 1.94  10 1.96   1 2.65   4 2.65   3 2.69   6 2.69
  18  0.331  0.750  0.173-   9 1.88  12 1.99   2 2.73   5 2.73   3 2.82   6 2.82
  19  0.167  0.500  0.334-   9 1.94   8 1.94   5 2.74   5 2.74   3 2.80
  20  0.833  0.994  0.665-   7 1.90  11 1.99   6 2.70   4 2.75   4 2.75   2 2.77
  21  0.501  0.502  0.001-  12 1.93  10 1.96   1 2.65   5 2.69   3 2.74   3 2.74
  22  0.167  1.000  0.334-   9 1.94   8 1.94   2 2.74   2 2.74   6 2.80
  23  0.833  0.506  0.665-   7 1.90  11 1.99   3 2.70   1 2.75   1 2.75   5 2.77
  24  0.501  0.998  0.001-  12 1.93  10 1.96   4 2.65   2 2.69   6 2.74   6 2.74
  25  0.841  0.250  0.172-   8 1.90  10 1.98   2 2.71   5 2.71   3 2.75   6 2.75
  26  0.500  0.750  0.499-   9 1.94   7 1.94   2 2.77   5 2.77
  27  0.165  0.250  0.832-  11 1.94  10 1.96   1 2.65   4 2.65   3 2.69   6 2.69
  28  0.842  0.750  0.173-   9 1.88  12 1.99   2 2.73   5 2.73   3 2.82   6 2.82
  29  0.494  0.250  0.496-   8 1.90  11 1.96   2 2.75   5 2.75   4 2.76   1 2.76
  30  0.158  0.750  0.829-   7 1.89  12 2.00   1 2.74   4 2.74   3 2.75   6 2.75

  LATTYP: Found a base centered orthorhombic cell.
 ALAT       =     5.4812994389
 B/A-ratio  =     3.0019832756
 C/A-ratio  =     1.4183478414

  Lattice vectors:

 A1 = (   3.8797074610,   0.0000000000,  -7.7555714543)
 A2 = (  -7.7555714640,   0.0000000000,   3.8797074513)
 A3 = (   0.0000000000,   7.7743892274,   0.0000000000)

Analysis of symmetry for initial positions (statically):
 Subroutine PRICEL returns:
 Original cell was already a primitive cell.

 Routine SETGRP: Setting up the symmetry group for a
 base centered orthorhombic supercell.

 Subroutine GETGRP returns: Found  4 space group operations
 (whereof  2 operations were pure point group operations)
 out of a pool of  8 trial point group operations.

The static configuration has the point symmetry C_1h.
 The point group associated with its full space group is C_2v.

Analysis of symmetry for dynamics (positions and initial velocities):
 Subroutine PRICEL returns:
 Original cell was already a primitive cell.

[...]

The dynamic configuration has the point symmetry C_1h.
 The point group associated with its full space group is C_2v.

Analysis of structural, dynamic, and magnetic symmetry:
 Subroutine PRICEL returns:
 Original cell was already a primitive cell.

 Routine SETGRP: Setting up the symmetry group for a
 base centered orthorhombic supercell.

 Subroutine GETGRP returns: Found  4 space group operations
 (whereof  2 operations were pure point group operations)
 out of a pool of  8 trial point group operations.

The magnetic configuration has the point symmetry C_1h.
 The point group associated with its full space group is C_2v.

 Subroutine INISYM returns: Found  4 space group operations
 (whereof  2 operations are pure point group operations),
 and found     1 'primitive' translations

 KPOINTS: Automatic mesh

Automatic generation of k-mesh.
 generate k-points for:    4    3    2
Space group operators:
 irot       det(A)        alpha          n_x          n_y          n_z        tau_x        tau_y        tau_z
    1     1.000000     0.000000     1.000000     0.000000     0.000000     0.000000     0.000000     0.000000
    2    -1.000000   180.000000    -0.707107     0.000000    -0.707107     0.000000     0.000000     0.000000
    3    -1.000000   180.000000     0.000000     1.000000     0.000000     0.000000    -0.500000     0.000000
    4     1.000000   179.999999     0.707107     0.000000    -0.707107    -0.000000    -0.500000    -0.000000

 Subroutine IBZKPT returns following result:

 Found     10 irreducible k-points:

 Following reciprocal coordinates:
            Coordinates               Weight
  0.000000  0.000000  0.000000      1.000000
  0.250000  0.000000 -0.000000      2.000000
  0.500000  0.000000 -0.000000      2.000000
  0.000000  0.333333  0.000000      2.000000
  0.250000  0.333333 -0.000000      4.000000
  0.500000  0.333333 -0.000000      4.000000
  0.000000  0.000000  0.500000      1.000000
  0.250000  0.000000  0.500000      2.000000
  0.000000  0.333333  0.500000      2.000000
  0.250000  0.333333  0.500000      4.000000

 Following cartesian coordinates:
            Coordinates               Weight
  0.000000  0.000000  0.000000      1.000000
  0.042994  0.000000  0.021508      2.000000
  0.085988  0.000000  0.043015      2.000000
  0.000000 -0.042876  0.000000      2.000000
  0.042994 -0.042876  0.021508      4.000000
  0.085988 -0.042876  0.043015      4.000000
  0.042973  0.000000 -0.042973      1.000000
  0.085967  0.000000 -0.021465      2.000000
  0.042973 -0.042876 -0.042973      2.000000
  0.085967 -0.042876 -0.021465      4.000000

 TETIRR: Found     65 inequivalent tetrahedra from      144

 SYSTEM =  final
 POSCAR =  SCEL6_3_2_1_0_1_0/4

 Startparameter for this run:
   NWRITE =      2    write-flag & timer
   PREC   = accura    normal or accurate (medium, high low for compatibility)
   ISTART =      0    job   : 0-new  1-cont  2-samecut
   ICHARG =      1    charge: 1-file 2-atom 10-const
   ISPIN  =      2    spin polarized calculation?
   LNONCOLLINEAR =      F non collinear calculations
   LSORBIT =      F    spin-orbit coupling
[...]
     30      -7.4413      1.00000
     31      -7.4324      1.00000
     32      -7.4116      1.00000
     33      -7.3496      1.00000
     34      -7.3119      1.00000
     35      -7.3075      1.00000
     36      -7.2381      1.00000
     37      -7.1928      1.00000
     38      -7.0849      1.00000
     39      -6.9959      1.00000
     40      -6.9615      1.00000
     41      -6.8338      1.00000
     42      -6.5611      1.00000
     43       0.2457      1.00000
     44       0.4550      1.00000
     45       0.5289      1.00000
     46       0.6195      1.00000
     47       0.9845      1.00000
     48       1.0227      1.00000
     49       1.0754      1.00000
     50       1.2116      1.00000
     51       1.3477      1.00000
     52       1.3662      1.00000
     53       1.4793      1.00000
     54       1.5030      1.00000
     55       1.6159      1.00000
     56       1.6652      1.00000
     57       1.6687      1.00000
     58       1.7013      1.00000
     59       1.7634      1.00000
     60       1.8579      1.00000
[...]
    132      10.9154      0.00000
    133      10.9356      0.00000
    134      10.9650      0.00000
    135      10.9752      0.00000
    136      11.0196      0.00000
    137      11.0504      0.00000
    138      11.0726      0.00000
    139      11.0855      0.00000
    140      11.0957      0.00000
    141      11.1086      0.00000
    142      11.1227      0.00000
    143      11.1382      0.00000
    144      11.1457      0.00000
    145      11.1995      0.00000
    146      11.2385      0.00000

[...]

 spin component 2

[...]

 k-point    10 :       0.2500    0.3333    0.5000
  band No.  band energies     occupation
      1     -23.8973      1.00000
      2     -23.8677      1.00000
      3     -23.8621      1.00000
      4     -23.8303      1.00000
      5     -23.8038      1.00000
      6     -23.7744      1.00000
      7     -11.1283      1.00000
      8     -10.9894      1.00000
      9     -10.8980      1.00000
     10     -10.7142      1.00000
     11     -10.5787      1.00000
     12     -10.3706      1.00000
     13     -10.1490      1.00000
     14     -10.0877      1.00000
     15      -9.9583      1.00000
     16      -9.9220      1.00000
     17      -9.8921      1.00000
     18      -9.8007      1.00000
     19      -9.7449      1.00000
     20      -9.6418      1.00000
     21      -9.5719      1.00000
     22      -9.4722      1.00000
     23      -9.3410      1.00000
     24      -9.1883      1.00000
     25      -7.7340      1.00000
     26      -7.5526      1.00000
     27      -7.4851      1.00000
     28      -7.3845      1.00000
     29      -7.3466      1.00000
     30      -7.3305      1.00000
     31      -7.2680      1.00000
     32      -7.2538      1.00000
     33      -7.2292      1.00000
     34      -7.1965      1.00000
     35      -7.1345      1.00000
     36      -7.1005      1.00000
     37      -7.0234      1.00000
     38      -6.9928      1.00000
     39      -6.9241      1.00000
     40      -6.8807      1.00000
     41      -6.8045      1.00000
     42      -6.7128      1.00000
     43       1.4557      1.00000
     44       1.8118      1.00000
     45       1.9726      1.00000
     46       2.1612      1.00000
     47       2.3134      1.00000
     48       2.3939      1.00000
     49       2.4938      1.00000
     50       2.5259      1.00000
     51       2.6207      1.00000
     52       2.7607      1.00000
     53       2.8948      1.00000
     54       2.9257      1.00000
     55       3.0050      1.00000
     56       3.0335      1.00000
     57       3.0678      1.00000
     58       3.1165      1.00000
     59       3.1672      1.00000
     60       3.1938      1.00000
[...]
    132      11.0932      0.00000
    133      11.0983      0.00000
    134      11.1078      0.00000
    135      11.1200      0.00000
    136      11.1295      0.00000
    137      11.1377      0.00000
    138      11.1465      0.00000
    139      11.1588      0.00000
    140      11.1746      0.00000
    141      11.1892      0.00000
    142      11.2085      0.00000
    143      11.2214      0.00000
    144      11.2497      0.00000
    145      11.2844      0.00000
    146      11.3160      0.00000

 soft charge-density along one line, spin component           1
         0         1         2         3         4         5         6         7         8         9
 total charge-density along one line

 soft charge-density along one line, spin component           2
         0         1         2         3         4         5         6         7         8         9
 total charge-density along one line

------------------------ aborting loop because EDIFF is reached ----------------------------------------

 total charge

# of ion       s       p       d       f       tot
    1        2.000   5.698   0.495   0.192   8.385
    2        2.000   5.700   0.491   0.192   8.383
    3        2.000   5.698   0.490   0.190   8.377
    4        2.000   5.698   0.495   0.191   8.385
    5        2.000   5.700   0.491   0.192   8.383
    6        2.000   5.698   0.490   0.190   8.377
    7        0.354   0.565   4.858   0.000   5.778
    8        0.352   0.558   4.872   0.000   5.782
    9        0.344   0.535   4.862   0.000   5.742
   10        0.401   0.586   8.336   0.000   9.323
   11        0.399   0.580   8.334   0.000   9.312
   12        0.398   0.569   8.314   0.000   9.281
   13        1.561   3.462   0.000   0.000   5.023
   14        1.563   3.449   0.000   0.000   5.012
   15        1.562   3.463   0.000   0.000   5.025
   16        1.561   3.465   0.000   0.000   5.025
   17        1.557   3.457   0.000   0.000   5.015
   18        1.564   3.448   0.000   0.000   5.011
   19        1.565   3.453   0.000   0.000   5.018
   20        1.562   3.458   0.000   0.000   5.020
   21        1.556   3.454   0.000   0.000   5.011
   22        1.565   3.453   0.000   0.000   5.018
   23        1.562   3.458   0.000   0.000   5.020
   24        1.556   3.455   0.000   0.000   5.011
   25        1.562   3.461   0.000   0.000   5.023
   26        1.562   3.461   0.000   0.000   5.023
   27        1.557   3.463   0.000   0.000   5.020
   28        1.564   3.448   0.000   0.000   5.012
   29        1.561   3.458   0.000   0.000   5.019
   30        1.564   3.450   0.000   0.000   5.013
tot         42.351  99.799  42.528   1.147 185.825

 magnetization (x)

[...]

  FORCE on cell =-STRESS in cart. coord.  units (eV):
  Direction    XX          YY          ZZ          XY          YZ          ZX
  Alpha Z   984.97248   984.97248   984.97248
  Ewald   -5169.46290 -5166.86989 -5169.46296    -0.00000     0.00000    15.80757
  Hartree  1157.14729  1169.49844  1157.14746    -0.00000    -0.00000    16.03031
  E(xc)   -1046.41355 -1046.25824 -1046.41355    -0.00000    -0.00000    -0.02389
  Local    -679.08720  -696.06847  -679.08651     0.00000    -0.00000   -31.21962
  n-local   416.47345   416.34914   416.27340     0.10173     0.09946     0.30624
  augment   489.23524   490.19256   489.23400     0.00000     0.00000    -0.00917
  Kinetic  3847.30956  3848.16112  3847.95489    -0.04544    -0.03248    -0.91351
  Fock        0.00000     0.00000     0.00000     0.00000     0.00000     0.00000
  Total       0.39679    -0.02288     0.39679     0.00000     0.00000     0.02953
  in kB       1.81325    -0.10456     1.81325     0.00000     0.00000     0.13494

 VOLUME and BASIS-vectors are now :
  energy-cutoff  :      520.00
  volume of cell :      350.60
      direct lattice vectors                 reciprocal lattice vectors
     3.875864003  0.000000000  3.875864003     0.171976250  0.000000000  0.086030739
     0.000000000 -7.774389227  0.000000000     0.000000000 -0.128627468  0.000000000
     3.879707461  0.000000000 -7.755571454     0.085945512  0.000000000 -0.085945512

  length of vectors
     5.481299439  7.774389227  8.671852084     0.192294354  0.128627468  0.121545308

 FORCES acting on ions
    electron-ion (+dipol)            ewald-force                    non-local-force                 convergence-correction
   0.656E+02 0.672E+02 -.656E+02   -.648E+02 -.665E+02 0.648E+02   -.678E+00 -.628E+00 0.678E+00   -.543E-01 -.374E-01 0.543E-01
   -.319E+02 -.340E+02 0.319E+02   0.316E+02 0.338E+02 -.316E+02   0.298E+00 0.145E+00 -.298E+00   0.332E-01 0.287E-01 -.332E-01
   -.341E+02 0.479E+02 0.341E+02   0.336E+02 -.473E+02 -.336E+02   0.391E+00 -.469E+00 -.391E+00   0.196E-01 -.287E-01 -.196E-01
   0.656E+02 -.672E+02 -.656E+02   -.648E+02 0.665E+02 0.648E+02   -.678E+00 0.628E+00 0.678E+00   -.543E-01 0.374E-01 0.543E-01
   -.319E+02 0.340E+02 0.319E+02   0.316E+02 -.338E+02 -.316E+02   0.298E+00 -.145E+00 -.298E+00   0.332E-01 -.287E-01 -.332E-01
   -.341E+02 -.479E+02 0.341E+02   0.336E+02 0.473E+02 -.336E+02   0.391E+00 0.469E+00 -.391E+00   0.196E-01 0.287E-01 -.196E-01
   0.308E+02 0.157E-04 -.308E+02   -.305E+02 -.138E-13 0.305E+02   -.336E+00 0.000E+00 0.336E+00   -.393E-01 -.117E-07 0.393E-01
   -.795E+01 0.168E-04 0.795E+01   0.800E+01 -.431E-13 -.800E+01   0.131E-02 0.000E+00 -.131E-02   0.125E-01 -.130E-07 -.125E-01
   -.246E+02 0.158E-04 0.246E+02   0.242E+02 0.685E-14 -.242E+02   0.409E+00 0.000E+00 -.409E+00   0.230E-01 -.640E-08 -.230E-01
   -.316E+02 0.282E-04 0.316E+02   0.304E+02 0.610E-13 -.304E+02   0.113E+01 0.000E+00 -.113E+01   0.352E-01 -.304E-09 -.352E-01
   0.427E+02 0.293E-04 -.427E+02   -.415E+02 0.111E-13 0.415E+02   -.115E+01 0.000E+00 0.115E+01   -.539E-01 -.802E-09 0.539E-01
   -.771E+01 0.262E-04 0.771E+01   0.782E+01 -.148E-14 -.782E+01   -.121E+00 0.000E+00 0.121E+00   0.232E-01 0.423E-09 -.231E-01
   0.826E+01 0.151E-04 -.463E+02   -.804E+01 0.161E-13 0.416E+02   -.210E+00 0.000E+00 0.476E+01   -.707E-02 0.158E-07 0.454E-02
   0.971E+01 0.170E-04 -.359E+02   -.963E+01 0.120E-13 0.299E+02   -.838E-01 0.000E+00 0.597E+01   -.993E-02 0.149E-07 0.140E-01
   -.934E+01 0.159E-04 0.518E+02   0.877E+01 -.348E-13 -.466E+02   0.552E+00 0.000E+00 -.520E+01   0.133E-01 0.181E-07 -.276E-01
   -.449E+01 0.157E-04 -.101E+02   0.507E+01 -.161E-13 0.100E+02   -.623E+00 0.000E+00 0.131E+00   -.418E-02 0.232E-07 0.402E-02
   0.272E+00 0.159E-04 -.618E+01   0.152E+00 -.190E-13 0.576E+01   -.419E+00 0.000E+00 0.407E+00   -.539E-02 0.209E-08 0.226E-01
   -.425E+01 0.167E-04 0.477E+02   0.354E+01 0.673E-14 -.417E+02   0.746E+00 0.000E+00 -.604E+01   0.135E-01 0.116E-07 -.172E-01
   -.117E+02 0.163E+02 0.117E+02   0.119E+02 -.163E+02 -.119E+02   -.246E+00 0.445E-01 0.246E+00   0.125E-01 -.654E-02 -.125E-01
   0.238E+02 -.486E+02 -.238E+02   -.241E+02 0.431E+02 0.241E+02   0.426E+00 0.545E+01 -.426E+00   -.223E-01 0.629E-02 0.223E-01
   -.120E+02 0.108E+02 0.120E+02   0.122E+02 -.982E+01 -.122E+02   -.187E+00 -.103E+01 0.187E+00   0.102E-01 -.151E-01 -.102E-01
   -.117E+02 -.163E+02 0.117E+02   0.119E+02 0.163E+02 -.119E+02   -.246E+00 -.445E-01 0.246E+00   0.125E-01 0.654E-02 -.125E-01
   0.238E+02 0.486E+02 -.238E+02   -.241E+02 -.431E+02 0.241E+02   0.426E+00 -.545E+01 -.426E+00   -.223E-01 -.629E-02 0.223E-01
   -.120E+02 -.108E+02 0.120E+02   0.122E+02 0.982E+01 -.122E+02   -.187E+00 0.103E+01 0.187E+00   0.102E-01 0.151E-01 -.102E-01
   -.518E+02 0.435E-04 0.934E+01   0.466E+02 -.394E-13 -.877E+01   0.520E+01 0.000E+00 -.552E+00   0.276E-01 0.179E-08 -.133E-01
   0.101E+02 0.423E-04 0.449E+01   -.100E+02 0.360E-14 -.507E+01   -.131E+00 0.000E+00 0.623E+00   -.402E-02 0.442E-08 0.418E-02
   0.618E+01 0.447E-04 -.272E+00   -.576E+01 -.106E-13 -.152E+00   -.407E+00 0.000E+00 0.419E+00   -.226E-01 0.682E-08 0.539E-02
   -.477E+02 0.426E-04 0.425E+01   0.417E+02 -.275E-13 -.354E+01   0.604E+01 0.000E+00 -.746E+00   0.172E-01 0.732E-08 -.135E-01
   0.463E+02 0.425E-04 -.827E+01   -.416E+02 0.302E-13 0.804E+01   -.476E+01 0.000E+00 0.210E+00   -.454E-02 0.474E-08 0.707E-02
   0.359E+02 0.441E-04 -.971E+01   -.299E+02 -.363E-13 0.963E+01   -.597E+01 0.000E+00 0.838E-01   -.140E-01 -.186E-08 0.993E-02
   0.123E+00 0.749E-03 -.128E+00   -.711E-14 -.729E-13 -.604E-13   -.138E+00 0.111E-14 0.138E+00   -.182E-02 0.152E-06 0.179E-02

 POSITION                                       TOTAL-FORCE (eV/Angst)
      3.94875     -3.82627     -3.94875         0.082533      0.060120     -0.082533
      3.84656     -0.01920      0.02931        -0.036062      0.022814      0.036062
      7.71567     -3.84138     -3.83980        -0.054191      0.045066      0.054191
      3.94875     -0.06092     -3.94875         0.082533     -0.060120     -0.082533
      3.84656     -3.86800      0.02931        -0.036062     -0.022814      0.036062
      7.71567     -0.04581     -3.83980        -0.054191     -0.045066      0.054191
      5.81413     -5.83079     -1.93827        -0.055808     -0.000000      0.055808
      1.94516     -1.94360     -1.94516         0.061416     -0.000000     -0.061416
      1.93564     -5.83079     -1.93564         0.056152     -0.000000     -0.056152
      1.94509     -1.94360      1.93077         0.036238     -0.000000     -0.036238
      5.80208     -1.94360     -1.92622        -0.055859     -0.000000      0.055859
      1.94427     -5.83079      1.93160         0.009989     -0.000000     -0.009989
      1.93518     -1.94360     -3.84030         0.006646     -0.000000      0.029556
      5.81327     -5.83079     -3.82788        -0.009370     -0.000000     -0.006899
      1.94629     -1.94360     -0.04939        -0.001931     -0.000000     -0.008941
      5.80626     -5.83079      0.00434        -0.048093     -0.000000      0.017990
      5.81426     -1.94360     -3.86830        -0.000655     -0.000000      0.008079
      1.95118     -5.83079     -0.05593         0.046357     -0.000000     -0.016134
      1.94217     -3.88848     -1.94217        -0.012287     -0.031941      0.012287
      5.80767     -7.72585     -1.93181         0.013772      0.012476     -0.013772
      1.94514     -3.90404      1.93073        -0.004481     -0.023804      0.004481
      1.94217     -7.77310     -1.94217        -0.012287      0.031941      0.012287
      5.80767     -3.93574     -1.93181         0.013772     -0.012476     -0.013772
      1.94514     -7.75755      1.93073        -0.004481      0.023804      0.004481
      3.92525     -1.94360      1.92958         0.008941     -0.000000      0.001931
      3.87153     -5.83079     -1.93039        -0.017990     -0.000000      0.048093
      3.86830     -1.94360     -5.81426        -0.008079     -0.000000      0.000655
      3.93179     -5.83079      1.92469         0.016134     -0.000000     -0.046357
      3.84030     -1.94360     -1.93518        -0.029556     -0.000000     -0.006646
      3.82788     -5.83079     -5.81327         0.006899     -0.000000      0.009370
    total drift:                               -0.016321      0.000749      0.011136

  FREE ENERGIE OF THE ION-ELECTRON SYSTEM (eV)
  free  energy   TOTEN  =      -220.60673224 eV

  energy  without entropy=     -220.60673224  energy(sigma->0) =     -220.60673224

 total charge

[...]

 magnetization (x)

# of ion       s       p       d       f       tot
    1        0.000   0.001   0.006   0.003   0.011
    2        0.001   0.001   0.010   0.004   0.016
    3        0.000   0.001   0.006   0.003   0.009
    4        0.000   0.001   0.006   0.003   0.011
    5        0.001   0.001   0.010   0.004   0.016
    6        0.000   0.001   0.006   0.003   0.009
    7        0.023   0.031   3.238   0.000   3.292
    8        0.024   0.029   3.315   0.000   3.369
    9        0.022   0.020   3.343   0.000   3.385
   10        0.013   0.010   1.651   0.000   1.674
   11        0.011   0.003   1.654   0.000   1.668
   12        0.014   0.000   1.633   0.000   1.647
   13        0.004  -0.015   0.000   0.000  -0.010
   14        0.005  -0.040   0.000   0.000  -0.035
   15        0.005  -0.013   0.000   0.000  -0.008
   16        0.001  -0.009   0.000   0.000  -0.008
   17        0.007   0.004   0.000   0.000   0.011
   18        0.005  -0.039   0.000   0.000  -0.034
   19        0.003  -0.063   0.000   0.000  -0.060
   20        0.005  -0.005   0.000   0.000   0.001
   21        0.006  -0.004   0.000   0.000   0.002
   22        0.003  -0.064   0.000   0.000  -0.060
   23        0.005  -0.005   0.000   0.000   0.000
   24        0.006  -0.004   0.000   0.000   0.002
   25        0.005  -0.016   0.000   0.000  -0.011
   26        0.002  -0.013   0.000   0.000  -0.010
   27        0.007   0.006   0.000   0.000   0.013
   28        0.005  -0.042   0.000   0.000  -0.037
   29        0.005  -0.019   0.000   0.000  -0.015
   30        0.005  -0.043   0.000   0.000  -0.038
tot          0.197  -0.286  14.877   0.020  14.808

 BZINTS: Fermi energy:  7.702752;225.000000 electrons
         Band energy:-325.381932;  BLOECHL correction: -0.031680