 vasp.5.4.4.18Apr17-6-g9f103f2a35 (build Oct 03 2018 13:58:34) complex

 executed on             LinuxIFC date 2019.06.04  01:15:47

 INCAR:
 POTCAR:    PAW_PBE La 06Sep2000
 POTCAR:    PAW_PBE Mn 06Sep2000
 POTCAR:    PAW_PBE Ni 02Aug2007
 POTCAR:    PAW_PBE O 08Apr2002

 POTCAR:    PAW_PBE La 06Sep2000
   VRHFIN =La : [core=Kr4d]

   TITEL  = PAW_PBE La 06Sep2000
   POMASS =  138.900; ZVAL   =   11.000    mass and valenz
   ENMAX  =  219.292; ENMIN  =  164.469 eV

 POTCAR:    PAW_PBE Mn 06Sep2000
   VRHFIN =Mn: d6 s1

   TITEL  = PAW_PBE Mn 06Sep2000
   POMASS =   54.938; ZVAL   =    7.000    mass and valenz
   ENMAX  =  269.864; ENMIN  =  202.398 eV

 POTCAR:    PAW_PBE Ni 02Aug2007
   VRHFIN =Ni:

   TITEL  = PAW_PBE Ni 02Aug2007
   POMASS =   58.690; ZVAL   =   10.000    mass and valenz
   ENMAX  =  269.532; ENMIN  =  202.149 eV

 POTCAR:    PAW_PBE O 08Apr2002
   VRHFIN =O: s2p4

   TITEL  = PAW_PBE O 08Apr2002
   POMASS =   16.000; ZVAL   =    6.000    mass and valenz
   ENMAX  =  400.000; ENMIN  =  300.000 eV

 Optimization of the real space projectors (new method)

 maximal supplied QI-value         = 13.42
 optimisation between [QCUT,QGAM] = [ 11.67, 23.35] = [ 38.16,152.62] Ry
 Optimized for a Real-space Cutoff    1.63 Angstroem

   l    n(q)    QCUT    max X(q) W(low)/X(q) W(high)/X(q)  e(spline)
   0     11    11.673    13.882    0.27E-04    0.79E-05    0.11E-06
   0     11    11.673    12.184    0.39E-04    0.13E-04    0.19E-06
   1     11    11.673     4.523    0.73E-05    0.76E-05    0.12E-06
   1     11    11.673     4.424    0.87E-05    0.13E-04    0.19E-06
   2     10    11.673    52.481    0.65E-04    0.36E-04    0.18E-06
   2     10    11.673    38.501    0.61E-04    0.33E-04    0.17E-06
   3     10    11.673    65.631    0.17E-03    0.14E-03    0.37E-06
   3     10    11.673    56.854    0.17E-03    0.14E-03    0.37E-06
 Optimization of the real space projectors (new method)

[...]

   l    n(q)    QCUT    max X(q) W(low)/X(q) W(high)/X(q)  e(spline)
   2      9    11.539    60.317    0.19E-03    0.47E-04    0.16E-06
   2      9    11.539    55.921    0.19E-03    0.48E-04    0.16E-06
   0     10    11.539    51.690    0.80E-04    0.50E-04    0.24E-06
   0     10    11.539    30.015    0.73E-04    0.45E-04    0.22E-06
   1     10    11.539    18.849    0.87E-04    0.16E-03    0.71E-07
   1     10    11.539    14.624    0.73E-04    0.13E-03    0.64E-07
 Optimization of the real space projectors (new method)

 maximal supplied QI-value         = 24.76
 optimisation between [QCUT,QGAM] = [ 11.64, 23.27] = [ 37.91,151.63] Ry
 Optimized for a Real-space Cutoff    1.14 Angstroem

   l    n(q)    QCUT    max X(q) W(low)/X(q) W(high)/X(q)  e(spline)
   0      8    11.635    20.381    0.10E-03    0.33E-03    0.24E-06
   0      8    11.635    15.268    0.11E-03    0.35E-03    0.26E-06
   1      7    11.635     5.964    0.24E-03    0.31E-03    0.30E-06
   1      7    11.635     5.382    0.22E-03    0.25E-03    0.26E-06
  PAW_PBE La 06Sep2000                  :
  PAW_PBE Mn 06Sep2000                  :
  PAW_PBE Ni 02Aug2007                  :
  PAW_PBE O 08Apr2002                   :

 POSCAR: SCEL4_1_4_1_1_0_0/2
  positions in direct lattice
  velocities in cartesian coordinates
 exchange correlation table for  LEXCH =        8
   RHO(1)=    0.500       N(1)  =     2000
   RHO(2)=  100.500       N(2)  =     4000

 ion  position               nearest neighbor table
   1  0.000  0.500  0.250-  19 2.73  19 2.73  20 2.74  18 2.74  15 2.74  16 2.74  15 2.74  16 2.74
                            10 2.74  11 2.74  10 2.74  11 2.74   7 3.34   7 3.34   7 3.34   7 3.34
   2  0.000  0.000  0.494-  19 2.66  15 2.69  10 2.69  10 2.69  15 2.69  18 2.73  18 2.73   9 2.77
                             9 2.77  14 2.77  14 2.77  17 2.80   7 3.29   7 3.29   8 3.34   8 3.34
   3  0.000  0.500  0.750-  18 2.72  20 2.72  13 2.73  14 2.73   9 2.73  12 2.73   9 2.73  12 2.73
                            13 2.73  14 2.73  17 2.73  17 2.73   5 3.34   5 3.34   5 3.34   5 3.34
   4  0.000  0.000  0.006-  19 2.66  16 2.69  11 2.69  11 2.69  16 2.69  20 2.73  20 2.73  12 2.77
                            12 2.77  13 2.77  13 2.77  17 2.80   7 3.29   7 3.29   6 3.34   6 3.34
   5  0.500  0.000  0.750-   9 1.90  12 1.90  13 1.90  14 1.90  17 1.93  17 1.93   3 3.34   3 3.34
                             3 3.34   3 3.34   2 3.40   4 3.40   4 3.40   2 3.40
   6  0.500  0.500  1.000-  20 1.93  20 1.93  11 1.95  16 1.95  13 1.96  12 1.96   4 3.34   4 3.34
                             4 3.34   4 3.34   3 3.34   3 3.34   1 3.34   1 3.34
   7  0.500  0.000  0.250-  10 1.91  11 1.91  15 1.91  16 1.91  19 1.93  19 1.93   2 3.29   2 3.29
                             4 3.29   4 3.29   1 3.34   1 3.34   1 3.34   1 3.34
   8  0.500  0.500  0.500-  18 1.93  18 1.93  10 1.95  15 1.95  14 1.96   9 1.96   2 3.34   2 3.34
                             2 3.34   2 3.34   3 3.34   3 3.34   1 3.34   1 3.34
   9  0.500  0.753  0.628-   5 1.90   8 1.96   3 2.73   3 2.73   2 2.77   2 2.77
  10  0.500  0.246  0.374-   7 1.91   8 1.95   2 2.69   2 2.69   1 2.74   1 2.74
  11  0.500  0.754  0.126-   7 1.91   6 1.95   4 2.69   4 2.69   1 2.74   1 2.74
  12  0.500  0.247  0.872-   5 1.90   6 1.96   3 2.73   3 2.73   4 2.77   4 2.77
  13  0.500  0.753  0.872-   5 1.90   6 1.96   3 2.73   3 2.73   4 2.77   4 2.77
  14  0.500  0.247  0.628-   5 1.90   8 1.96   3 2.73   3 2.73   2 2.77   2 2.77
  15  0.500  0.754  0.374-   7 1.91   8 1.95   2 2.69   2 2.69   1 2.74   1 2.74
  16  0.500  0.246  0.126-   7 1.91   6 1.95   4 2.69   4 2.69   1 2.74   1 2.74
  17  0.000  0.000  0.750-   5 1.93   5 1.93   3 2.73   3 2.73   4 2.80   2 2.80
  18  0.000  0.500  0.501-   8 1.93   8 1.93   3 2.72   2 2.73   2 2.73   1 2.74
  19  0.000  0.000  0.250-   7 1.93   7 1.93   2 2.66   4 2.66   1 2.73   1 2.73
  20  0.000  0.500  0.999-   6 1.93   6 1.93   3 2.72   4 2.73   4 2.73   1 2.74

  LATTYP: Found a simple orthorhombic cell.
 ALAT       =     3.8659094544
 B/A-ratio  =     1.4108785144
 C/A-ratio  =     2.8245061037

  Lattice vectors:

 A1 = (   3.8659094544,   0.0000000000,   0.0000000000)
 A2 = (   0.0000000000,   3.8567927313,   3.8567927313)
 A3 = (   0.0000000000,  -7.7211003632,   7.7211003632)

Analysis of symmetry for initial positions (statically):
 Subroutine PRICEL returns:
 Original cell was already a primitive cell.

 Routine SETGRP: Setting up the symmetry group for a
 simple orthorhombic supercell.

 Subroutine GETGRP returns: Found  8 space group operations
 (whereof  4 operations were pure point group operations)
 out of a pool of  8 trial point group operations.

The static configuration has the point symmetry C_2v.
 The point group associated with its full space group is D_2h.

Analysis of symmetry for dynamics (positions and initial velocities):
 Subroutine PRICEL returns:
 Original cell was already a primitive cell.

[...]

The dynamic configuration has the point symmetry C_2v.
 The point group associated with its full space group is D_2h.

Analysis of structural, dynamic, and magnetic symmetry:
 Subroutine PRICEL returns:
 Original cell was already a primitive cell.

 Routine SETGRP: Setting up the symmetry group for a
 simple orthorhombic supercell.

 Subroutine GETGRP returns: Found  8 space group operations
 (whereof  4 operations were pure point group operations)
 out of a pool of  8 trial point group operations.

The magnetic configuration has the point symmetry C_2v.
 The point group associated with its full space group is D_2h.

 Subroutine INISYM returns: Found  8 space group operations
 (whereof  4 operations are pure point group operations),
 and found     1 'primitive' translations

 KPOINTS: Automatic mesh

Automatic generation of k-mesh.
 generate k-points for:    5    4    2
Space group operators:
 irot       det(A)        alpha          n_x          n_y          n_z        tau_x        tau_y        tau_z
    1     1.000000     0.000000     1.000000     0.000000     0.000000     0.000000     0.000000     0.000000
    2     1.000000   180.000000     0.000000    -0.707107     0.707107     0.000000     0.000000     0.000000
    3    -1.000000   180.000000     0.000000     0.707107     0.707107     0.000000     0.000000     0.000000
    4    -1.000000   180.000000     1.000000     0.000000     0.000000     0.000000     0.000000     0.000000
    5    -1.000000     0.000000     1.000000     0.000000     0.000000     0.000000     0.000000     0.500000
    6    -1.000000   180.000000     0.000000    -0.707107     0.707107     0.000000     0.000000     0.500000
    7     1.000000   180.000000     0.000000     0.707107     0.707107     0.000000     0.000000     0.500000
    8     1.000000   180.000000     1.000000     0.000000     0.000000     0.000000     0.000000     0.500000

 Subroutine IBZKPT returns following result:

 Found     18 irreducible k-points:

 Following reciprocal coordinates:
            Coordinates               Weight
  0.000000  0.000000  0.000000      1.000000
  0.200000  0.000000  0.000000      2.000000
  0.400000  0.000000  0.000000      2.000000
  0.000000  0.250000  0.000000      2.000000
  0.200000  0.250000  0.000000      4.000000
  0.400000  0.250000  0.000000      4.000000
  0.000000  0.500000  0.000000      1.000000
  0.200000  0.500000  0.000000      2.000000
  0.400000  0.500000  0.000000      2.000000
  0.000000  0.000000  0.500000      1.000000
  0.200000  0.000000  0.500000      2.000000
  0.400000  0.000000  0.500000      2.000000
  0.000000  0.250000  0.500000      2.000000
  0.200000  0.250000  0.500000      4.000000
  0.400000  0.250000  0.500000      4.000000
  0.000000  0.500000  0.500000      1.000000
  0.200000  0.500000  0.500000      2.000000
  0.400000  0.500000  0.500000      2.000000

 Following cartesian coordinates:
            Coordinates               Weight
  0.000000  0.000000  0.000000      1.000000
  0.051734  0.000000  0.000000      2.000000
  0.103469  0.000000  0.000000      2.000000
  0.000000  0.032410  0.032410      2.000000
  0.051734  0.032410  0.032410      4.000000
  0.103469  0.032410  0.032410      4.000000
  0.000000  0.064821  0.064821      1.000000
  0.051734  0.064821  0.064821      2.000000
  0.103469  0.064821  0.064821      2.000000
  0.000000 -0.032379  0.032379      1.000000
  0.051734 -0.032379  0.032379      2.000000
  0.103469 -0.032379  0.032379      2.000000
  0.000000  0.000032  0.064789      2.000000
  0.051734  0.000032  0.064789      4.000000
  0.103469  0.000032  0.064789      4.000000
  0.000000  0.032442  0.097200      1.000000
  0.051734  0.032442  0.097200      2.000000
  0.103469  0.032442  0.097200      2.000000

 TETIRR: Found    120 inequivalent tetrahedra from      240

 SYSTEM =  final
 POSCAR =  SCEL4_1_4_1_1_0_0/2

 Startparameter for this run:
   NWRITE =      2    write-flag & timer
   PREC   = accura    normal or accurate (medium, high low for compatibility)
   ISTART =      0    job   : 0-new  1-cont  2-samecut
   ICHARG =      1    charge: 1-file 2-atom 10-const
   ISPIN  =      2    spin polarized calculation?
   LNONCOLLINEAR =      F non collinear calculations
   LSORBIT =      F    spin-orbit coupling
[...]
  0.5441  0.4482

[...]

--------------------------------------- Iteration      1(  18)  ---------------------------------------

atom =   1  type =  1  l = 0

[...]

  o =  0.7862  v =  0.0000  1.0000      0.0000  0.0000
  o =  0.7927  v =  1.0000  0.0000      0.0000  0.0000
atom =  20  type =  4  l = 0

 onsite density matrix

[...]

  0.7848

 occupancies and eigenvectors

  o =  0.7848  v =  0.0000  1.0000      0.0000  0.0000
  o =  0.7903  v =  1.0000  0.0000      0.0000  0.0000
 BZINTS: Fermi energy:  7.516328;153.000000 electrons
         Band energy:-180.257531;  BLOECHL correction: -0.089714

 eigenvalue-minimisations  :  6967
 total energy-change (2. order) :-0.6781524E-03  (-0.9066349E-03)
 number of electron     153.0000084 magnetization       6.9978330
 augmentation part       22.2531359 magnetization       5.7824084

 Free energy of the ion-electron system (eV)
  alpha Z        PSCENC =       661.41424563
  Ewald energy   TEWEN  =    -10772.33304830
  -Hartree energ DENC   =     -2557.07638293
  -exchange      EXHF   =         0.00000000
  -V(xc)+E(xc)   XCENC  =       551.65860673
  PAW double counting   =     13023.05317440   -13168.60793393
  entropy T*S    EENTRO =         0.00000000
  eigenvalues    EBANDS =      -180.25753112
  atomic energy  EATOM  =     12301.96174248
  Solvation  Ediel_sol  =         0.00000000
  free energy    TOTEN  =      -140.18712703 eV

  energy without entropy =     -140.18712703  energy(sigma->0) =     -140.18712703

 average (electrostatic) potential at core
  the test charge radii are     1.1480  1.0210  0.9791  0.7215
  (the norm of the test charge is              1.0000)
       1 -95.0220       2 -95.0594       3 -95.1331       4 -95.0594       5 -43.0540
       6 -83.7055       7 -83.9760       8 -83.7055       9 -66.7530      10 -66.6551
      11 -66.6551      12 -66.7530      13 -66.7530      14 -66.7530      15 -66.6551
      16 -66.6551      17 -67.1241      18 -66.4882      19 -66.7248      20 -66.4882

 E-fermi :   7.5163     XC(G=0): -11.8173     alpha+bet :-16.8391

[...]

 k-point     1 :       0.0000    0.0000    0.0000
  band No.  band energies     occupation
      1     -23.6270      1.00000
      2     -23.5424      1.00000
      3     -23.5249      1.00000
      4     -23.4419      1.00000
      5     -10.9388      1.00000
      6     -10.6298      1.00000
      7     -10.5970      1.00000
      8     -10.0995      1.00000
      9     -10.0779      1.00000
     10      -9.9419      1.00000
     11      -9.7768      1.00000
     12      -9.7615      1.00000
     13      -9.4909      1.00000
     14      -9.3686      1.00000
     15      -9.2682      1.00000
     16      -9.2445      1.00000
     17      -7.1331      1.00000
     18      -7.1105      1.00000
     19      -7.1101      1.00000
     20      -7.0081      1.00000
     21      -6.9882      1.00000
     22      -6.8481      1.00000
     23      -6.8405      1.00000
     24      -6.8012      1.00000
     25      -6.6304      1.00000
     26      -6.6025      1.00000
     27      -6.6017      1.00000
     28      -6.5550      1.00000
     29       0.4112      1.00000
     30       0.5878      1.00000
     31       1.0087      1.00000
     32       1.0816      1.00000
     33       1.4956      1.00000
     34       1.6596      1.00000
     35       1.7579      1.00000
     36       1.9241      1.00000
     37       1.9257      1.00000
     38       1.9716      1.00000
     39       2.1294      1.00000
     40       2.2240      1.00000
     41       2.3048      1.00000
     42       2.3754      1.00000
     43       2.4103      1.00000
     44       2.7309      1.00000
     45       2.7419      1.00000
     46       2.7542      1.00000
     47       3.4201      1.00000
     48       3.4536      1.00000
     49       3.4984      1.00000
     50       3.5069      1.00000
     51       3.6173      1.00000
     52       3.8316      1.00000
     53       3.9440      1.00000
     54       3.9864      1.00000
     55       4.4059      1.00000
     56       4.5297      1.00000
     57       5.0660      1.00000
     58       5.0757      1.00000
     59       5.1080      1.00000
     60       5.4097      1.00000
[...]
     84      10.5014      0.00000
     85      10.5197      0.00000
     86      10.9662      0.00000
     87      11.1338      0.00000
     88      11.1641      0.00000
     89      11.2110      0.00000
     90      11.2245      0.00000
     91      11.3001      0.00000
     92      11.3857      0.00000
     93      11.4163      0.00000
     94      11.4460      0.00000
     95      11.4769      0.00000
     96      11.5109      0.00000
     97      11.5421      0.00000
     98      11.5646      0.00000

[...]

 spin component 2

[...]

 k-point    18 :       0.4000    0.5000    0.5000
  band No.  band energies     occupation
      1     -23.5431      1.00000
      2     -23.4663      1.00000
      3     -23.4654      1.00000
      4     -23.4191      1.00000
      5     -10.5851      1.00000
      6     -10.4928      1.00000
      7     -10.4022      1.00000
      8     -10.3419      1.00000
      9     -10.1861      1.00000
     10     -10.0318      1.00000
     11      -9.8858      1.00000
     12      -9.8685      1.00000
     13      -9.5655      1.00000
     14      -9.5031      1.00000
     15      -9.4545      1.00000
     16      -9.3669      1.00000
     17      -7.1426      1.00000
     18      -7.0853      1.00000
     19      -7.0026      1.00000
     20      -6.9797      1.00000
     21      -6.8804      1.00000
     22      -6.7718      1.00000
     23      -6.7673      1.00000
     24      -6.7270      1.00000
     25      -6.6601      1.00000
     26      -6.6146      1.00000
     27      -6.5828      1.00000
     28      -6.5549      1.00000
     29       1.7045      1.00000
     30       1.8276      1.00000
     31       1.8388      1.00000
     32       1.9309      1.00000
     33       1.9334      1.00000
     34       2.0094      1.00000
     35       2.2001      1.00000
     36       2.3001      1.00000
     37       2.4541      1.00000
     38       2.6228      1.00000
     39       2.6996      1.00000
     40       2.8044      1.00000
     41       2.8338      1.00000
     42       3.2304      1.00000
     43       3.2682      1.00000
     44       3.5149      1.00000
     45       3.6799      1.00000
     46       3.7371      1.00000
     47       3.8104      1.00000
     48       3.8976      1.00000
     49       4.1132      1.00000
     50       4.1350      1.00000
     51       4.2046      1.00000
     52       4.3009      1.00000
     53       5.5234      1.00000
     54       5.5476      1.00000
     55       5.5506      1.00000
     56       5.5837      1.00000
     57       5.5854      1.00000
     58       5.6684      1.00000
     59       5.8259      1.00000
     60       5.8369      1.00000
[...]
     84      11.2382      0.00000
     85      11.3022      0.00000
     86      11.3623      0.00000
     87      11.3769      0.00000
     88      11.3894      0.00000
     89      11.4049      0.00000
     90      11.4299      0.00000
     91      11.4355      0.00000
     92      11.4512      0.00000
     93      11.4673      0.00000
     94      11.4738      0.00000
     95      11.4904      0.00000
     96      11.5025      0.00000
     97      11.5397      0.00000
     98      11.5765      0.00000

 soft charge-density along one line, spin component           1
         0         1         2         3         4         5         6         7         8         9
 total charge-density along one line

 soft charge-density along one line, spin component           2
         0         1         2         3         4         5         6         7         8         9
 total charge-density along one line

------------------------ aborting loop because EDIFF is reached ----------------------------------------

 total charge

# of ion       s       p       d       f       tot
    1        1.999   5.701   0.491   0.190   8.382
    2        2.000   5.701   0.497   0.193   8.391
    3        2.000   5.702   0.498   0.195   8.395
    4        2.001   5.701   0.497   0.193   8.392
    5        0.350   0.557   4.869   0.000   5.776
    6        0.410   0.606   8.311   0.000   9.327
    7        0.444   0.680   8.327   0.000   9.451
    8        0.410   0.606   8.311   0.000   9.327
    9        1.562   3.458   0.000   0.000   5.021
   10        1.563   3.435   0.000   0.000   4.998
   11        1.563   3.435   0.000   0.000   4.998
   12        1.562   3.458   0.000   0.000   5.021
   13        1.562   3.458   0.000   0.000   5.021
   14        1.562   3.458   0.000   0.000   5.021
   15        1.563   3.435   0.000   0.000   4.998
   16        1.563   3.435   0.000   0.000   4.998
   17        1.564   3.465   0.000   0.000   5.029
   18        1.560   3.439   0.000   0.000   4.999
   19        1.564   3.437   0.000   0.000   5.001
   20        1.560   3.439   0.000   0.000   4.999
tot         28.362  66.606  31.803   0.771 127.543

 magnetization (x)

[...]

  FORCE on cell =-STRESS in cart. coord.  units (eV):
  Direction    XX          YY          ZZ          XY          YZ          ZX
  Alpha Z   661.41425   661.41425   661.41425
  Ewald   -3563.95892 -3604.20219 -3604.20219     0.00000    22.39882    -0.00000
  Hartree   880.87288   838.02043   838.02043     0.00000    23.20305    -0.00000
  E(xc)    -718.00905  -718.13895  -718.13895    -0.00000    -0.01344     0.00000
  Local    -598.40256  -516.00936  -516.00936     0.00000   -45.05179    -0.00000
  n-local   290.76161   290.42953   290.42768    -0.60125     0.22440    -0.59750
  augment   471.07291   471.28075   471.28075     0.00000    -0.03507     0.00000
  Kinetic  2575.74285  2577.26752  2577.26706     1.49019    -0.72924     1.48920
  Fock        0.00000     0.00000     0.00000     0.00000     0.00000     0.00000
  Total      -0.50603     0.06082     0.06082     0.00000    -0.00331     0.00000
  in kB      -3.52127     0.42323     0.42323     0.00000    -0.02305     0.00000

 VOLUME and BASIS-vectors are now :
  energy-cutoff  :      520.00
  volume of cell :      230.24
      direct lattice vectors                 reciprocal lattice vectors
     3.865909454  0.000000000  0.000000000     0.258671345  0.000000000  0.000000000
     0.000000000  3.856792731  3.856792731     0.000000000  0.129641398  0.129641398
     0.000000000 -7.721100363  7.721100363     0.000000000 -0.064757609  0.064757609

  length of vectors
     3.865909454  5.454328588 10.919284850     0.258671345  0.183340623  0.091581089

 FORCES acting on ions
    electron-ion (+dipol)            ewald-force                    non-local-force                 convergence-correction
   -.870E-14 0.181E-12 -.202E-12   0.973E-14 -.142E-13 0.142E-13   0.000E+00 -.542E-19 0.108E-18   -.147E-14 -.174E-12 0.149E-12
   -.631E-15 0.832E+02 -.832E+02   -.194E-13 -.825E+02 0.825E+02   0.000E+00 -.519E+00 0.519E+00   -.270E-14 -.706E-01 0.706E-01
   -.913E-14 0.133E-12 -.146E-12   0.931E-14 -.426E-13 0.568E-13   0.000E+00 -.108E-18 -.542E-19   -.603E-15 0.182E-12 -.177E-12
   -.109E-13 -.832E+02 0.832E+02   0.559E-14 0.825E+02 -.825E+02   0.000E+00 0.519E+00 -.519E+00   -.300E-14 0.706E-01 -.706E-01
   0.652E-13 -.172E-11 0.173E-11   0.114E-13 -.284E-13 -.213E-13   0.000E+00 0.169E-20 0.762E-20   0.129E-13 0.150E-12 -.161E-12
   0.316E-12 -.488E+02 0.488E+02   -.323E-14 0.486E+02 -.486E+02   0.000E+00 0.181E+00 -.181E+00   0.583E-13 0.764E-01 -.764E-01
   0.311E-12 -.930E-12 0.986E-12   -.297E-14 -.284E-13 -.284E-13   0.000E+00 0.678E-20 0.678E-20   0.570E-13 -.151E-12 0.178E-12
   0.310E-12 0.488E+02 -.488E+02   -.121E-13 -.486E+02 0.486E+02   0.000E+00 -.181E+00 0.181E+00   0.569E-13 -.764E-01 0.764E-01
   0.121E-12 0.135E+02 -.624E+02   0.212E-13 -.131E+02 0.579E+02   0.867E-18 -.381E+00 0.463E+01   0.298E-13 -.268E-01 -.153E-01
   0.119E-12 0.147E+02 -.370E+02   -.112E-13 -.143E+02 0.386E+02   0.108E-18 -.393E+00 -.167E+01   0.340E-13 -.285E-01 0.585E-01
   0.117E-12 -.147E+02 0.370E+02   0.123E-13 0.143E+02 -.386E+02   -.108E-18 0.393E+00 0.167E+01   0.378E-13 0.285E-01 -.585E-01
   0.118E-12 -.135E+02 0.624E+02   -.664E-14 0.131E+02 -.579E+02   -.173E-17 0.381E+00 -.463E+01   0.345E-13 0.268E-01 0.153E-01
   0.114E-12 -.624E+02 0.135E+02   -.141E-14 0.579E+02 -.131E+02   0.173E-17 0.463E+01 -.381E+00   0.418E-13 -.153E-01 -.268E-01
   0.128E-12 0.624E+02 -.135E+02   0.777E-14 -.579E+02 0.131E+02   -.867E-18 -.463E+01 0.381E+00   0.311E-13 0.153E-01 0.268E-01
   0.123E-12 0.370E+02 -.147E+02   0.886E-14 -.386E+02 0.143E+02   -.108E-18 0.167E+01 0.393E+00   0.275E-13 -.585E-01 0.285E-01
   0.124E-12 -.370E+02 0.147E+02   -.130E-13 0.386E+02 -.143E+02   0.108E-18 -.167E+01 -.393E+00   0.451E-13 0.585E-01 -.285E-01
   -.254E-14 -.462E-12 0.465E-12   -.159E-13 0.000E+00 -.213E-13   0.000E+00 0.271E-19 0.407E-19   0.453E-14 0.141E-12 -.131E-12
   -.514E-14 0.291E+02 -.291E+02   -.188E-13 -.290E+02 0.290E+02   0.000E+00 0.600E-01 -.600E-01   -.856E-14 -.402E-01 0.402E-01
   -.550E-14 -.393E-13 0.455E-13   0.916E-14 -.284E-13 -.284E-13   0.000E+00 0.108E-18 0.813E-19   -.650E-14 -.791E-13 0.113E-12
   -.695E-14 -.291E+02 0.291E+02   0.359E-14 0.290E+02 -.290E+02   0.000E+00 -.600E-01 0.600E-01   -.431E-14 0.402E-01 -.402E-01
   0.192E-11 -.104E-10 0.166E-10   -.558E-14 0.675E-13 -.639E-13   0.000E+00 0.666E-15 -.736E-15   0.444E-12 -.327E-13 0.890E-13

 POSITION                                       TOTAL-FORCE (eV/Angst)
      0.00000     -0.00188      3.85867         0.000000     -0.000000      0.000000
      0.00000     -3.81126      3.81126         0.000000      0.128135     -0.128135
      0.00000     -3.86243      7.71922         0.000000     -0.000000      0.000000
      0.00000     -0.04929      0.04929         0.000000     -0.128135      0.128135
      1.93295     -5.79083      5.79083         0.000000     -0.000000      0.000000
      1.93295     -5.79269      9.64948         0.000000     -0.011362      0.011362
      1.93295     -1.93028      1.93028         0.000000     -0.000000      0.000000
      1.93295     -1.93217      5.78896         0.000000      0.011362     -0.011362
      1.93295     -1.94168      7.74929         0.000000     -0.015513      0.089554
      1.93295     -1.93777      3.83685         0.000000     -0.020188     -0.042488
      1.93295      1.93401      3.88049         0.000000      0.020188      0.042488
      1.93295     -5.78317      7.68915         0.000000      0.015513     -0.089554
      1.93295     -3.83236      9.63997         0.000000      0.089554     -0.015513
      1.93295     -3.89250      5.79848         0.000000     -0.089554      0.015513
      1.93295      0.01994      5.79456         0.000000      0.042488      0.020188
      1.93295     -0.02370      1.92278         0.000000     -0.042488     -0.020188
      0.00000     -5.79083      5.79083         0.000000     -0.000000      0.000000
      0.00000     -1.93616      5.79296         0.000000      0.042270     -0.042270
      0.00000     -1.93028      1.93028         0.000000     -0.000000      0.000000
      0.00000     -5.78869      9.64549         0.000000     -0.042270      0.042270
    total drift:                                0.000000     -0.000000      0.000000

  FREE ENERGIE OF THE ION-ELECTRON SYSTEM (eV)
  free  energy   TOTEN  =      -140.18712703 eV

  energy  without entropy=     -140.18712703  energy(sigma->0) =     -140.18712703

 total charge

[...]

 magnetization (x)

# of ion       s       p       d       f       tot
    1        0.000  -0.001   0.005   0.002   0.006
    2        0.000   0.000   0.006   0.003   0.010
    3        0.000   0.001   0.009   0.004   0.014
    4        0.000   0.000   0.006   0.003   0.010
    5        0.022   0.027   3.285   0.000   3.334
    6        0.013   0.005   1.504   0.000   1.523
    7        0.019   0.014   1.253   0.000   1.286
    8        0.013   0.005   1.504   0.000   1.523
    9        0.005  -0.026   0.000   0.000  -0.022
   10        0.006  -0.092   0.000   0.000  -0.086
   11        0.006  -0.092   0.000   0.000  -0.086
   12        0.005  -0.026   0.000   0.000  -0.022
   13        0.005  -0.026   0.000   0.000  -0.022
   14        0.005  -0.026   0.000   0.000  -0.022
   15        0.006  -0.092   0.000   0.000  -0.086
   16        0.006  -0.092   0.000   0.000  -0.086
   17        0.002  -0.057   0.000   0.000  -0.054
   18        0.006  -0.069   0.000   0.000  -0.064
   19        0.007  -0.086   0.000   0.000  -0.079
   20        0.006  -0.069   0.000   0.000  -0.064
tot          0.130  -0.701   7.572   0.012   7.014

 BZINTS: Fermi energy:  7.516328;153.000000 electrons
         Band energy:-180.257531;  BLOECHL correction: -0.089714