 vasp.5.4.4.18Apr17-6-g9f103f2a35 (build Oct 03 2018 13:58:34) complex

 executed on             LinuxIFC date 2019.06.04  01:50:47

 INCAR:
 POTCAR:    PAW_PBE La 06Sep2000
 POTCAR:    PAW_PBE Mn 06Sep2000
 POTCAR:    PAW_PBE Ni 02Aug2007
 POTCAR:    PAW_PBE O 08Apr2002

 POTCAR:    PAW_PBE La 06Sep2000
   VRHFIN =La : [core=Kr4d]

   TITEL  = PAW_PBE La 06Sep2000
   POMASS =  138.900; ZVAL   =   11.000    mass and valenz
   ENMAX  =  219.292; ENMIN  =  164.469 eV

 POTCAR:    PAW_PBE Mn 06Sep2000
   VRHFIN =Mn: d6 s1

   TITEL  = PAW_PBE Mn 06Sep2000
   POMASS =   54.938; ZVAL   =    7.000    mass and valenz
   ENMAX  =  269.864; ENMIN  =  202.398 eV

 POTCAR:    PAW_PBE Ni 02Aug2007
   VRHFIN =Ni:

   TITEL  = PAW_PBE Ni 02Aug2007
   POMASS =   58.690; ZVAL   =   10.000    mass and valenz
   ENMAX  =  269.532; ENMIN  =  202.149 eV

 POTCAR:    PAW_PBE O 08Apr2002
   VRHFIN =O: s2p4

   TITEL  = PAW_PBE O 08Apr2002
   POMASS =   16.000; ZVAL   =    6.000    mass and valenz
   ENMAX  =  400.000; ENMIN  =  300.000 eV

 Optimization of the real space projectors (new method)

 maximal supplied QI-value         = 13.42
 optimisation between [QCUT,QGAM] = [ 11.67, 23.35] = [ 38.16,152.62] Ry
 Optimized for a Real-space Cutoff    1.63 Angstroem

   l    n(q)    QCUT    max X(q) W(low)/X(q) W(high)/X(q)  e(spline)
   0     11    11.673    13.882    0.27E-04    0.79E-05    0.11E-06
   0     11    11.673    12.184    0.39E-04    0.13E-04    0.19E-06
   1     11    11.673     4.523    0.73E-05    0.76E-05    0.12E-06
   1     11    11.673     4.424    0.87E-05    0.13E-04    0.19E-06
   2     10    11.673    52.481    0.65E-04    0.36E-04    0.18E-06
   2     10    11.673    38.501    0.61E-04    0.33E-04    0.17E-06
   3     10    11.673    65.631    0.17E-03    0.14E-03    0.37E-06
   3     10    11.673    56.854    0.17E-03    0.14E-03    0.37E-06
 Optimization of the real space projectors (new method)

[...]

   l    n(q)    QCUT    max X(q) W(low)/X(q) W(high)/X(q)  e(spline)
   2      9    11.539    60.317    0.19E-03    0.47E-04    0.16E-06
   2      9    11.539    55.921    0.19E-03    0.48E-04    0.16E-06
   0     10    11.539    51.690    0.80E-04    0.50E-04    0.24E-06
   0     10    11.539    30.015    0.73E-04    0.45E-04    0.22E-06
   1     10    11.539    18.849    0.87E-04    0.16E-03    0.71E-07
   1     10    11.539    14.624    0.73E-04    0.13E-03    0.64E-07
 Optimization of the real space projectors (new method)

 maximal supplied QI-value         = 24.76
 optimisation between [QCUT,QGAM] = [ 11.64, 23.27] = [ 37.91,151.63] Ry
 Optimized for a Real-space Cutoff    1.14 Angstroem

   l    n(q)    QCUT    max X(q) W(low)/X(q) W(high)/X(q)  e(spline)
   0      8    11.635    20.381    0.10E-03    0.33E-03    0.24E-06
   0      8    11.635    15.268    0.11E-03    0.35E-03    0.26E-06
   1      7    11.635     5.964    0.24E-03    0.31E-03    0.30E-06
   1      7    11.635     5.382    0.22E-03    0.25E-03    0.26E-06
  PAW_PBE La 06Sep2000                  :
  PAW_PBE Mn 06Sep2000                  :
  PAW_PBE Ni 02Aug2007                  :
  PAW_PBE O 08Apr2002                   :

 POSCAR: SCEL5_1_5_1_2_0_0/0
  positions in direct lattice
  velocities in cartesian coordinates
 exchange correlation table for  LEXCH =        8
   RHO(1)=    0.500       N(1)  =     2000
   RHO(2)=  100.500       N(2)  =     4000

 ion  position               nearest neighbor table
   1  0.000  0.396  0.191-  25 2.68  15 2.72  15 2.72  19 2.73  19 2.73  24 2.77  23 2.77  17 2.81
                            17 2.81  10 3.32  10 3.32   8 3.39   8 3.39   9 3.40   9 3.40
   2  0.000  0.800  0.400-  24 2.76  22 2.76  23 2.76  21 2.76  14 2.76  18 2.76  14 2.76  18 2.76
                            16 2.76  16 2.76  13 2.76  13 2.76   9 3.39   9 3.39   6 3.39   6 3.39
   3  0.000  0.204  0.609-  25 2.68  12 2.72  12 2.72  20 2.73  20 2.73  21 2.77  22 2.77  17 2.81
                            17 2.81  10 3.32  10 3.32   6 3.39   6 3.39   7 3.40   7 3.40
   4  0.000  0.591  0.804-  25 2.68  19 2.72  19 2.72  12 2.73  12 2.73  22 2.77  24 2.77  11 2.81
                            11 2.81  10 3.32  10 3.32   9 3.39   9 3.39   6 3.40   6 3.40
   5  0.000  0.009  0.996-  25 2.68  20 2.72  20 2.72  15 2.73  15 2.73  23 2.77  21 2.77  11 2.81
                            11 2.81  10 3.32  10 3.32   7 3.39   7 3.39   8 3.40   8 3.40
   6  0.500  0.500  0.500-  12 1.92  14 1.93  17 1.95  22 1.96  22 1.96  16 1.99   3 3.39   3 3.39
                             2 3.39   2 3.39   4 3.40   4 3.40
   7  0.500  0.900  0.700-  20 1.92  16 1.93  11 1.95  21 1.96  21 1.96  13 1.99   5 3.39   5 3.39
                             2 3.39   2 3.39   3 3.40   3 3.40
   8  0.500  0.100  0.300-  15 1.92  13 1.93  17 1.95  23 1.96  23 1.96  18 1.99   1 3.39   1 3.39
                             2 3.39   2 3.39   5 3.40   5 3.40
   9  0.500  0.700  0.100-  19 1.92  18 1.93  11 1.95  24 1.96  24 1.96  14 1.99   4 3.39   4 3.39
                             2 3.39   2 3.39   1 3.40   1 3.40
  10  0.500  0.300  0.900-  25 1.96  25 1.96  12 1.99  20 1.99  15 1.99  19 1.99   3 3.32   3 3.32
                             5 3.32   5 3.32   1 3.32   4 3.32   4 3.32   1 3.32
  11  0.500  0.800  0.900-   7 1.95   9 1.95   4 2.81   4 2.81   5 2.81   5 2.81
  12  0.500  0.402  0.696-   6 1.92  10 1.99   3 2.72   3 2.72   4 2.73   4 2.73
  13  0.500  0.000  0.496-   8 1.93   7 1.99   2 2.76   2 2.76
  14  0.500  0.600  0.304-   6 1.93   9 1.99   2 2.76   2 2.76
  15  0.500  0.198  0.104-   8 1.92  10 1.99   1 2.72   1 2.72   5 2.73   5 2.73
  16  0.500  0.704  0.600-   7 1.93   6 1.99   2 2.76   2 2.76
  17  0.500  0.300  0.400-   8 1.95   6 1.95   1 2.81   1 2.81   3 2.81   3 2.81
  18  0.500  0.896  0.200-   9 1.93   8 1.99   2 2.76   2 2.76
  19  0.500  0.504  0.002-   9 1.92  10 1.99   4 2.72   4 2.72   1 2.73   1 2.73
  20  0.500  0.096  0.798-   7 1.92  10 1.99   5 2.72   5 2.72   3 2.73   3 2.73
  21  0.000  0.901  0.699-   7 1.96   7 1.96   2 2.76   3 2.77   5 2.77
  22  0.000  0.501  0.501-   6 1.96   6 1.96   2 2.76   4 2.77   3 2.77
  23  0.000  0.099  0.299-   8 1.96   8 1.96   2 2.76   5 2.77   1 2.77
  24  0.000  0.699  0.101-   9 1.96   9 1.96   2 2.76   1 2.77   4 2.77
  25  0.000  0.300  0.900-  10 1.96  10 1.96   3 2.68   5 2.68   4 2.68   1 2.68

  LATTYP: Found a simple tetragonal cell.
 ALAT       =     8.7539774789
 C/A-ratio  =     0.4473982325

  Lattice vectors:

 A1 = (   0.0000000000,   7.8297954845,   3.9148977474)
 A2 = (   0.0000000000,  -3.9148977474,   7.8297954845)
 A3 = (   3.9165140512,   0.0000000000,   0.0000000000)

Analysis of symmetry for initial positions (statically):
 Subroutine PRICEL returns:
 Original cell was already a primitive cell.

 Routine SETGRP: Setting up the symmetry group for a
 simple tetragonal supercell.

 Subroutine GETGRP returns: Found  8 space group operations
 (whereof  2 operations were pure point group operations)
 out of a pool of 16 trial point group operations.

The static configuration has the point symmetry C_1h.
 The point group associated with its full space group is C_4h.

Analysis of symmetry for dynamics (positions and initial velocities):
 Subroutine PRICEL returns:
 Original cell was already a primitive cell.

[...]

The dynamic configuration has the point symmetry C_1h.
 The point group associated with its full space group is C_4h.

Analysis of structural, dynamic, and magnetic symmetry:
 Subroutine PRICEL returns:
 Original cell was already a primitive cell.

 Routine SETGRP: Setting up the symmetry group for a
 simple tetragonal supercell.

 Subroutine GETGRP returns: Found  8 space group operations
 (whereof  2 operations were pure point group operations)
 out of a pool of 16 trial point group operations.

The magnetic configuration has the point symmetry C_1h.
 The point group associated with its full space group is C_4h.

 Subroutine INISYM returns: Found  8 space group operations
 (whereof  2 operations are pure point group operations),
 and found     1 'primitive' translations

 KPOINTS: Automatic mesh

Automatic generation of k-mesh.
 generate k-points for:    5    2    2
Space group operators:
 irot       det(A)        alpha          n_x          n_y          n_z        tau_x        tau_y        tau_z
    1     1.000000     0.000000     1.000000     0.000000     0.000000     0.000000     0.000000     0.000000
    2    -1.000000   180.000000     1.000000     0.000000     0.000000     0.000000     0.000000     0.000000
    3    -1.000000     0.000000     1.000000     0.000000     0.000000     0.000000     0.600000    -0.200000
    4     1.000000    90.000000    -1.000000     0.000000     0.000000     0.000000     0.400000    -0.800000
    5    -1.000000    90.000000    -1.000000     0.000000     0.000000     0.000000     0.200000    -0.400000
    6     1.000000   180.000000     1.000000     0.000000     0.000000     0.000000     0.600000    -0.200000
    7     1.000000    90.000000     1.000000     0.000000     0.000000     0.000000     0.200000    -0.400000
    8    -1.000000    90.000000     1.000000     0.000000     0.000000     0.000000     0.400000    -0.800000

 Subroutine IBZKPT returns following result:

 Found      9 irreducible k-points:

 Following reciprocal coordinates:
            Coordinates               Weight
  0.000000  0.000000  0.000000      1.000000
  0.200000  0.000000  0.000000      2.000000
  0.400000  0.000000  0.000000      2.000000
  0.000000  0.500000  0.000000      2.000000
  0.200000  0.500000  0.000000      4.000000
  0.400000  0.500000  0.000000      4.000000
  0.000000  0.500000  0.500000      1.000000
  0.200000  0.500000  0.500000      2.000000
  0.400000  0.500000  0.500000      2.000000

 Following cartesian coordinates:
            Coordinates               Weight
  0.000000  0.000000  0.000000      1.000000
 -0.051066  0.000000  0.000000      2.000000
 -0.102132  0.000000  0.000000      2.000000
  0.000000  0.051087  0.025543      2.000000
 -0.051066  0.051087  0.025543      4.000000
 -0.102132  0.051087  0.025543      4.000000
  0.000000  0.076630 -0.025543      1.000000
 -0.051066  0.076630 -0.025543      2.000000
 -0.102132  0.076630 -0.025543      2.000000

 TETIRR: Found     31 inequivalent tetrahedra from      120

 SYSTEM =  final
 POSCAR =  SCEL5_1_5_1_2_0_0/0

 Startparameter for this run:
   NWRITE =      2    write-flag & timer
   PREC   = accura    normal or accurate (medium, high low for compatibility)
   ISTART =      0    job   : 0-new  1-cont  2-samecut
   ICHARG =      1    charge: 1-file 2-atom 10-const
   ISPIN  =      2    spin polarized calculation?
   LNONCOLLINEAR =      F non collinear calculations
   LSORBIT =      F    spin-orbit coupling
   INIWAV =      1    electr: 0-lowe 1-rand  2-diag
   LASPH  =      F    aspherical Exc in radial PAW
   METAGGA=      F    non-selfconsistent MetaGGA calc.

 Electronic Relaxation 1
   ENCUT  =  520.0 eV  38.22 Ry    6.18 a.u.   7.28 16.28 16.28*2*pi/ulx,y,z
   ENINI  =  520.0     initial cutoff
   ENAUG  =  605.4 eV  augmentation charge cutoff
   NELM   =    100;   NELMIN=  2; NELMDL= -5     # of ELM steps
   EDIFF  = 0.1E-02   stopping-criterion for ELM
[...]
       1 -95.9955       2 -95.9914       3 -95.9955       4 -95.9955       5 -95.9955
       6 -42.6145       7 -42.6145       8 -42.6145       9 -42.6145      10 -83.7337
      11 -67.2561      12 -67.1549      13 -67.2603      14 -67.2603      15 -67.1549
      16 -67.2603      17 -67.2561      18 -67.2603      19 -67.1549      20 -67.1549
      21 -67.2748      22 -67.2748      23 -67.2748      24 -67.2748      25 -66.7999

 E-fermi :   8.0706     XC(G=0): -11.5841     alpha+bet :-16.0557

[...]

 k-point     1 :       0.0000    0.0000    0.0000
  band No.  band energies     occupation
      1     -24.4759      1.00000
      2     -24.4106      1.00000
      3     -24.4090      1.00000
      4     -24.4090      1.00000
      5     -24.3914      1.00000
      6     -11.3343      1.00000
      7     -11.3343      1.00000
      8     -11.3233      1.00000
      9     -11.2529      1.00000
     10     -11.1048      1.00000
     11     -10.2738      1.00000
     12     -10.2738      1.00000
     13     -10.2317      1.00000
     14     -10.1859      1.00000
     15      -9.9471      1.00000
     16      -9.9283      1.00000
     17      -9.9283      1.00000
     18      -9.9274      1.00000
     19      -9.9105      1.00000
     20      -9.7739      1.00000
     21      -7.9821      1.00000
     22      -7.9692      1.00000
     23      -7.9692      1.00000
     24      -7.8718      1.00000
     25      -7.8587      1.00000
     26      -7.8587      1.00000
     27      -7.8285      1.00000
     28      -7.7605      1.00000
     29      -7.7170      1.00000
     30      -7.7170      1.00000
     31      -7.7002      1.00000
     32      -7.3717      1.00000
     33      -7.3717      1.00000
     34      -7.3433      1.00000
     35      -7.2099      1.00000
     36       0.3656      1.00000
     37       0.7065      1.00000
     38       1.1734      1.00000
     39       1.1734      1.00000
     40       1.6500      1.00000
     41       1.6883      1.00000
     42       1.6923      1.00000
     43       1.6923      1.00000
     44       1.9137      1.00000
     45       2.0119      1.00000
     46       2.1125      1.00000
     47       2.1125      1.00000
     48       2.2063      1.00000
     49       2.2375      1.00000
     50       2.2375      1.00000
     51       2.2574      1.00000
     52       2.3326      1.00000
     53       2.3326      1.00000
     54       2.3709      1.00000
     55       2.4323      1.00000
     56       2.9699      1.00000
     57       2.9978      1.00000
     58       2.9978      1.00000
     59       3.0450      1.00000
     60       3.0454      1.00000
[...]
    106       9.7125      0.00000
    107       9.7153      0.00000
    108      10.2509      0.00000
    109      10.2974      0.00000
    110      10.3087      0.00000
    111      10.3847      0.00000
    112      10.4118      0.00000
    113      10.4337      0.00000
    114      10.4681      0.00000
    115      10.4863      0.00000
    116      10.5159      0.00000
    117      10.5298      0.00000
    118      10.5524      0.00000
    119      10.6026      0.00000
    120      10.6110      0.00000

[...]

 spin component 2

[...]

 k-point     9 :       0.4000    0.5000    0.5000
  band No.  band energies     occupation
      1     -24.3928      1.00000
      2     -24.3754      1.00000
      3     -24.3753      1.00000
      4     -24.3730      1.00000
      5     -24.3206      1.00000
      6     -11.0656      1.00000
      7     -11.0287      1.00000
      8     -11.0276      1.00000
      9     -11.0276      1.00000
     10     -10.4250      1.00000
     11     -10.4016      1.00000
     12     -10.4016      1.00000
     13     -10.2818      1.00000
     14     -10.0905      1.00000
     15     -10.0905      1.00000
     16     -10.0243      1.00000
     17      -9.9218      1.00000
     18      -9.9218      1.00000
     19      -9.8761      1.00000
     20      -9.8201      1.00000
     21      -8.3563      1.00000
     22      -8.3171      1.00000
     23      -8.3171      1.00000
     24      -7.9143      1.00000
     25      -7.9143      1.00000
     26      -7.8986      1.00000
     27      -7.8785      1.00000
     28      -7.6536      1.00000
     29      -7.6123      1.00000
     30      -7.6123      1.00000
     31      -7.4746      1.00000
     32      -7.4619      1.00000
     33      -7.4499      1.00000
     34      -7.4499      1.00000
     35      -7.3041      1.00000
     36       0.9523      1.00000
     37       1.8435      1.00000
     38       1.8435      1.00000
     39       1.8663      1.00000
     40       1.9367      1.00000
     41       2.2873      1.00000
     42       2.2874      1.00000
     43       2.6528      1.00000
     44       2.6805      1.00000
     45       2.7632      1.00000
     46       3.1354      1.00000
     47       3.1354      1.00000
     48       3.1394      1.00000
     49       3.1656      1.00000
     50       3.1656      1.00000
     51       3.1875      1.00000
     52       3.1888      1.00000
     53       3.2466      1.00000
     54       3.3037      1.00000
     55       3.3037      1.00000
     56       3.5342      1.00000
     57       3.6182      1.00000
     58       3.6182      1.00000
     59       3.7618      1.00000
     60       3.7807      1.00000
[...]
    106      10.5215      0.00000
    107      10.5250      0.00000
    108      10.5414      0.00000
    109      10.5421      0.00000
    110      10.5483      0.00000
    111      10.5661      0.00000
    112      10.6320      0.00000
    113      10.6373      0.00000
    114      10.6455      0.00000
    115      10.6730      0.00000
    116      10.7211      0.00000
    117      10.7397      0.00000
    118      10.8407      0.00000
    119      11.0047      0.00000
    120      11.3049      0.00000

 soft charge-density along one line, spin component           1
         0         1         2         3         4         5         6         7         8         9
 total charge-density along one line

 soft charge-density along one line, spin component           2
         0         1         2         3         4         5         6         7         8         9
 total charge-density along one line

------------------------ aborting loop because EDIFF is reached ----------------------------------------

 total charge

# of ion       s       p       d       f       tot
    1        1.999   5.695   0.478   0.184   8.356
    2        1.999   5.697   0.479   0.185   8.360
    3        1.999   5.695   0.478   0.185   8.356
    4        1.999   5.695   0.478   0.184   8.356
    5        1.999   5.695   0.478   0.184   8.356
    6        0.322   0.486   4.889   0.000   5.697
    7        0.321   0.486   4.884   0.000   5.691
    8        0.322   0.486   4.889   0.000   5.697
    9        0.321   0.486   4.885   0.000   5.692
   10        0.392   0.560   8.331   0.000   9.283
   11        1.567   3.442   0.000   0.000   5.008
   12        1.560   3.458   0.000   0.000   5.018
   13        1.563   3.456   0.000   0.000   5.019
   14        1.563   3.456   0.000   0.000   5.019
   15        1.560   3.458   0.000   0.000   5.018
   16        1.564   3.460   0.000   0.000   5.023
   17        1.567   3.450   0.000   0.000   5.018
   18        1.564   3.460   0.000   0.000   5.023
   19        1.560   3.461   0.000   0.000   5.021
   20        1.560   3.460   0.000   0.000   5.021
   21        1.563   3.455   0.000   0.000   5.018
   22        1.564   3.456   0.000   0.000   5.020
   23        1.564   3.456   0.000   0.000   5.020
   24        1.563   3.455   0.000   0.000   5.018
   25        1.554   3.463   0.000   0.000   5.017
tot         35.106  82.827  30.269   0.923 149.125

 magnetization (x)

[...]

  FORCE on cell =-STRESS in cart. coord.  units (eV):
  Direction    XX          YY          ZZ          XY          YZ          ZX
  Alpha Z   805.34089   805.34089   805.34089
  Ewald   -4033.15961 -4096.72984 -4096.72984    -0.00000    -0.00000     0.00000
  Hartree   898.88659   836.79036   836.79036     0.00000     0.00000    -0.00000
  E(xc)    -841.21581  -841.28827  -841.28827    -0.00000     0.00000    -0.00000
  Local    -535.46534  -407.28623  -407.28623    -0.00000     0.00000    -0.00000
  n-local   326.91319   327.39545   327.54428    -0.00169     0.56188    -0.00153
  augment   190.57034   189.21634   189.21634    -0.00000     0.00056     0.00000
  Kinetic  3188.83784  3186.84914  3186.53909     0.00596    -1.62359     0.00571
  Fock        0.00000     0.00000     0.00000     0.00000     0.00000     0.00000
  Total       0.70809     0.20723     0.20723     0.00000    -0.00000     0.00000
  in kB       3.77996     1.10627     1.10627     0.00000    -0.00000     0.00000

 VOLUME and BASIS-vectors are now :
  energy-cutoff  :      520.00
  volume of cell :      300.13
      direct lattice vectors                 reciprocal lattice vectors
    -3.916514051  0.000000000  0.000000000    -0.255329098  0.000000000  0.000000000
     0.000000000  7.829795485  3.914897747     0.000000000  0.102173805  0.051086903
     0.000000000  3.914897747 -7.829795485     0.000000000  0.051086903 -0.102173805

  length of vectors
     3.916514051  8.753977479  8.753977479     0.255329098  0.114233787  0.114233787

 FORCES acting on ions
    electron-ion (+dipol)            ewald-force                    non-local-force                 convergence-correction
   0.147E-13 -.743E+02 0.709E+02   -.648E-14 0.736E+02 -.703E+02   0.000E+00 0.575E+00 -.554E+00   -.123E-13 0.185E-01 -.142E-01
   0.828E-14 0.300E-10 -.621E-10   -.129E-14 0.546E-11 0.169E-10   0.000E+00 0.000E+00 0.000E+00   -.118E-13 -.260E-12 -.329E-13
   0.302E-14 0.743E+02 -.709E+02   0.117E-13 -.736E+02 0.703E+02   -.108E-18 -.575E+00 0.554E+00   -.646E-14 -.185E-01 0.142E-01
   0.578E-14 -.709E+02 -.743E+02   -.310E-13 0.703E+02 0.736E+02   0.217E-18 0.554E+00 0.575E+00   -.148E-13 0.142E-01 0.185E-01
   0.335E-14 0.709E+02 0.743E+02   0.159E-13 -.703E+02 -.736E+02   0.000E+00 -.554E+00 -.575E+00   -.987E-14 -.142E-01 -.185E-01
   -.647E-13 -.584E+01 -.261E+02   0.233E-13 0.548E+01 0.260E+02   0.136E-19 0.372E+00 0.208E+00   -.962E-14 0.804E-02 0.128E-01
   -.574E-13 0.261E+02 -.584E+01   -.141E-13 -.260E+02 0.548E+01   -.339E-20 -.208E+00 0.372E+00   -.188E-13 -.128E-01 0.804E-02
   -.752E-13 0.584E+01 0.261E+02   -.212E-13 -.548E+01 -.260E+02   0.000E+00 -.372E+00 -.208E+00   -.176E-14 -.804E-02 -.128E-01
   -.559E-13 -.261E+02 0.584E+01   0.204E-13 0.260E+02 -.548E+01   0.000E+00 0.208E+00 -.372E+00   -.212E-14 0.128E-01 -.804E-02
   -.288E-12 0.417E-11 0.425E-11   0.750E-14 -.140E-10 0.948E-11   0.000E+00 0.169E-19 0.136E-19   -.588E-13 0.312E-13 -.339E-13
   -.122E-12 0.376E-10 -.639E-10   0.757E-15 -.150E-10 0.161E-10   0.000E+00 -.271E-19 0.542E-19   -.173E-13 -.161E-13 -.318E-13
   -.120E-12 -.157E+01 -.725E+02   0.492E-14 0.159E+01 0.683E+02   0.000E+00 -.533E-02 0.412E+01   -.232E-13 0.107E-02 0.229E-01
   -.119E-12 0.909E+01 0.291E+01   -.181E-13 -.858E+01 -.499E+01   0.678E-20 -.509E+00 0.209E+01   -.192E-13 -.731E-02 0.262E-02
   -.116E-12 -.909E+01 -.291E+01   0.619E-14 0.858E+01 0.499E+01   0.000E+00 0.509E+00 -.209E+01   -.330E-13 0.731E-02 -.262E-02
   -.115E-12 0.157E+01 0.725E+02   0.844E-14 -.159E+01 -.683E+02   0.000E+00 0.533E-02 -.412E+01   -.175E-13 -.107E-02 -.229E-01
   -.115E-12 0.291E+01 -.909E+01   0.169E-13 -.499E+01 0.858E+01   -.847E-21 0.209E+01 0.509E+00   -.168E-13 0.262E-02 0.731E-02
   -.113E-12 0.267E-10 -.644E-10   -.707E-14 0.167E-11 0.640E-12   0.000E+00 -.542E-19 0.271E-19   -.129E-13 0.210E-12 0.340E-13
   -.113E-12 -.291E+01 0.909E+01   -.326E-14 0.499E+01 -.858E+01   -.678E-20 -.209E+01 -.509E+00   -.112E-13 -.262E-02 -.731E-02
   -.116E-12 -.725E+02 0.157E+01   -.169E-13 0.683E+02 -.159E+01   0.000E+00 0.412E+01 0.533E-02   -.613E-14 0.229E-01 -.107E-02
   -.112E-12 0.725E+02 -.157E+01   0.347E-13 -.683E+02 0.159E+01   -.136E-19 -.412E+01 -.533E-02   -.335E-13 -.229E-01 0.107E-02
   -.373E-14 0.244E+02 -.647E+00   0.195E-13 -.248E+02 0.155E+00   -.271E-19 0.542E+00 0.537E+00   -.718E-14 -.727E-02 0.364E-02
   0.353E-14 -.647E+00 -.244E+02   -.162E-13 0.155E+00 0.248E+02   0.000E+00 0.537E+00 -.542E+00   -.983E-14 0.364E-02 0.727E-02
   -.109E-14 0.647E+00 0.244E+02   0.184E-13 -.155E+00 -.248E+02   0.000E+00 -.537E+00 0.542E+00   -.122E-13 -.364E-02 -.727E-02
   0.174E-14 -.244E+02 0.647E+00   -.161E-13 0.248E+02 -.155E+00   0.000E+00 -.542E+00 -.537E+00   -.168E-13 0.727E-02 -.364E-02
   0.235E-14 0.341E-10 -.676E-10   -.128E-13 0.599E-11 -.774E-12   0.000E+00 0.271E-19 0.000E+00   -.434E-14 -.145E-15 0.422E-13
   -.166E-11 0.237E-10 -.128E-08   0.241E-13 -.782E-13 -.373E-13   0.771E-19 0.777E-15 -.111E-15   -.387E-12 0.265E-12 0.900E-13

 POSITION                                       TOTAL-FORCE (eV/Angst)
      0.00000      3.84751      0.05886        -0.000000     -0.028084     -0.023370
      0.00000      7.82980      0.00000         0.000000      0.000000      0.000000
      0.00000      3.98228     -3.97375         0.000000      0.028084      0.023370
      0.00000      7.77094     -3.98228         0.000000      0.023370     -0.028084
      0.00000      3.97375     -7.76241        -0.000000     -0.023370      0.028084
     -1.95826      5.86930     -1.95431         0.000000      0.021926      0.086801
     -1.95826      9.78411     -1.96050         0.000000     -0.086801      0.021926
     -1.95826      1.96050     -1.96058         0.000000     -0.021926     -0.086801
     -1.95826      5.87548      1.96050         0.000000      0.086801     -0.021926
     -1.95826      5.87235     -5.87235         0.000000      0.000000      0.000000
     -1.95826      9.78724     -3.91490         0.000000      0.000000      0.000000
     -1.95826      5.87366     -3.87927         0.000000      0.013948     -0.035510
     -1.95826      1.94593     -3.88620         0.000000     -0.009203      0.017379
     -1.95826      5.88386     -0.02869         0.000000      0.009203     -0.017379
     -1.95826      1.95613     -0.03562         0.000000     -0.013948      0.035510
     -1.95826      7.85849     -1.94593         0.000000      0.017379      0.009203
     -1.95826      3.91490     -1.95745         0.000000      0.000000      0.000000
     -1.95826      7.80110      1.94593         0.000000     -0.017379     -0.009203
     -1.95826      3.95052      1.95613         0.000000     -0.035510     -0.013948
     -1.95826      3.87927     -5.87103         0.000000      0.035510      0.013948
      0.00000      9.78770     -1.94644         0.000000      0.081550      0.048802
      0.00000      5.88335     -1.95791         0.000000      0.048802     -0.081550
      0.00000      1.94644     -1.95699         0.000000     -0.048802      0.081550
      0.00000      5.87189      1.94644        -0.000000     -0.081550     -0.048802
      0.00000      5.87235     -5.87235         0.000000      0.000000      0.000000
    total drift:                               -0.000000      0.000000     -0.000000

  FREE ENERGIE OF THE ION-ELECTRON SYSTEM (eV)
  free  energy   TOTEN  =      -192.67823264 eV

  energy  without entropy=     -192.67823264  energy(sigma->0) =     -192.67823264

 total charge

[...]

 magnetization (x)

# of ion       s       p       d       f       tot
    1        0.000   0.000   0.009   0.006   0.016
    2        0.001   0.001   0.013   0.007   0.021
    3        0.000   0.000   0.009   0.006   0.016
    4        0.001   0.001   0.009   0.005   0.016
    5        0.001   0.001   0.009   0.005   0.016
    6        0.026   0.027   3.719   0.000   3.772
    7        0.025   0.027   3.714   0.000   3.766
    8        0.026   0.027   3.719   0.000   3.772
    9        0.025   0.027   3.714   0.000   3.766
   10        0.012   0.004   1.713   0.000   1.730
   11        0.008  -0.057   0.000   0.000  -0.049
   12        0.005  -0.008   0.000   0.000  -0.002
   13        0.005  -0.033   0.000   0.000  -0.028
   14        0.005  -0.033   0.000   0.000  -0.028
   15        0.005  -0.008   0.000   0.000  -0.003
   16        0.005  -0.029   0.000   0.000  -0.024
   17        0.008  -0.044   0.000   0.000  -0.036
   18        0.005  -0.028   0.000   0.000  -0.023
   19        0.005  -0.006   0.000   0.000  -0.000
   20        0.005  -0.006   0.000   0.000  -0.001
   21        0.005  -0.037   0.000   0.000  -0.032
   22        0.005  -0.037   0.000   0.000  -0.032
   23        0.005  -0.037   0.000   0.000  -0.032
   24        0.005  -0.037   0.000   0.000  -0.032
   25        0.007   0.035   0.000   0.000   0.042
tot          0.201  -0.248  16.629   0.028  16.610

 BZINTS: Fermi energy:  8.070642;183.000000 electrons
         Band energy:-340.059588;  BLOECHL correction: -0.086326