 vasp.5.4.4.18Apr17-6-g9f103f2a35 (build Oct 03 2018 13:58:34) complex

 executed on             LinuxIFC date 2019.06.04  01:24:45

 INCAR:
 POTCAR:    PAW_PBE La 06Sep2000
 POTCAR:    PAW_PBE Mn 06Sep2000
 POTCAR:    PAW_PBE Ni 02Aug2007
 POTCAR:    PAW_PBE O 08Apr2002

 POTCAR:    PAW_PBE La 06Sep2000
   VRHFIN =La : [core=Kr4d]

   TITEL  = PAW_PBE La 06Sep2000
   POMASS =  138.900; ZVAL   =   11.000    mass and valenz
   ENMAX  =  219.292; ENMIN  =  164.469 eV

 POTCAR:    PAW_PBE Mn 06Sep2000
   VRHFIN =Mn: d6 s1

   TITEL  = PAW_PBE Mn 06Sep2000
   POMASS =   54.938; ZVAL   =    7.000    mass and valenz
   ENMAX  =  269.864; ENMIN  =  202.398 eV

 POTCAR:    PAW_PBE Ni 02Aug2007
   VRHFIN =Ni:

   TITEL  = PAW_PBE Ni 02Aug2007
   POMASS =   58.690; ZVAL   =   10.000    mass and valenz
   ENMAX  =  269.532; ENMIN  =  202.149 eV

 POTCAR:    PAW_PBE O 08Apr2002
   VRHFIN =O: s2p4

   TITEL  = PAW_PBE O 08Apr2002
   POMASS =   16.000; ZVAL   =    6.000    mass and valenz
   ENMAX  =  400.000; ENMIN  =  300.000 eV

 Optimization of the real space projectors (new method)

 maximal supplied QI-value         = 13.42
 optimisation between [QCUT,QGAM] = [ 11.67, 23.35] = [ 38.16,152.62] Ry
 Optimized for a Real-space Cutoff    1.63 Angstroem

   l    n(q)    QCUT    max X(q) W(low)/X(q) W(high)/X(q)  e(spline)
   0     11    11.673    13.882    0.27E-04    0.79E-05    0.11E-06
   0     11    11.673    12.184    0.39E-04    0.13E-04    0.19E-06
   1     11    11.673     4.523    0.73E-05    0.76E-05    0.12E-06
   1     11    11.673     4.424    0.87E-05    0.13E-04    0.19E-06
   2     10    11.673    52.481    0.65E-04    0.36E-04    0.18E-06
   2     10    11.673    38.501    0.61E-04    0.33E-04    0.17E-06
   3     10    11.673    65.631    0.17E-03    0.14E-03    0.37E-06
   3     10    11.673    56.854    0.17E-03    0.14E-03    0.37E-06
 Optimization of the real space projectors (new method)

[...]

   l    n(q)    QCUT    max X(q) W(low)/X(q) W(high)/X(q)  e(spline)
   2      9    11.539    60.317    0.19E-03    0.47E-04    0.16E-06
   2      9    11.539    55.921    0.19E-03    0.48E-04    0.16E-06
   0     10    11.539    51.690    0.80E-04    0.50E-04    0.24E-06
   0     10    11.539    30.015    0.73E-04    0.45E-04    0.22E-06
   1     10    11.539    18.849    0.87E-04    0.16E-03    0.71E-07
   1     10    11.539    14.624    0.73E-04    0.13E-03    0.64E-07
 Optimization of the real space projectors (new method)

 maximal supplied QI-value         = 24.76
 optimisation between [QCUT,QGAM] = [ 11.64, 23.27] = [ 37.91,151.63] Ry
 Optimized for a Real-space Cutoff    1.14 Angstroem

   l    n(q)    QCUT    max X(q) W(low)/X(q) W(high)/X(q)  e(spline)
   0      8    11.635    20.381    0.10E-03    0.33E-03    0.24E-06
   0      8    11.635    15.268    0.11E-03    0.35E-03    0.26E-06
   1      7    11.635     5.964    0.24E-03    0.31E-03    0.30E-06
   1      7    11.635     5.382    0.22E-03    0.25E-03    0.26E-06
  PAW_PBE La 06Sep2000                  :
  PAW_PBE Mn 06Sep2000                  :
  PAW_PBE Ni 02Aug2007                  :
  PAW_PBE O 08Apr2002                   :

 POSCAR: SCEL4_1_4_1_2_0_0/2
  positions in direct lattice
  velocities in cartesian coordinates
 exchange correlation table for  LEXCH =        8
   RHO(1)=    0.500       N(1)  =     2000
   RHO(2)=  100.500       N(2)  =     4000

 ion  position               nearest neighbor table
   1  0.000  0.253  0.496-  20 2.68  15 2.70  15 2.70  12 2.71  12 2.71  19 2.73  18 2.74  11 2.75
                            11 2.75  13 2.76  13 2.76  17 2.78   6 3.31   6 3.31   7 3.34   7 3.34
   2  0.000  0.507  0.004-  18 2.68  14 2.70  14 2.70  10 2.71  10 2.71  19 2.73  20 2.74  11 2.75
                            11 2.75  16 2.76  16 2.76  17 2.78   8 3.31   8 3.31   7 3.34   7 3.34
   3  0.000  0.743  0.496-  20 2.68  15 2.70  15 2.70  10 2.71  10 2.71  19 2.73  18 2.74   9 2.75
                             9 2.75  13 2.76  13 2.76  17 2.78   6 3.31   6 3.31   7 3.34   7 3.34
   4  0.000  0.997  0.004-  18 2.68  14 2.70  14 2.70  12 2.71  12 2.71  19 2.73  20 2.74   9 2.75
                             9 2.75  16 2.76  16 2.76  17 2.78   8 3.31   8 3.31   7 3.34   7 3.34
   5  0.500  0.125  0.750-   9 1.90  11 1.90  13 1.90  16 1.90  17 1.93  17 1.93   2 3.38   2 3.38
                             3 3.38   3 3.38   4 3.38   1 3.38   4 3.38   1 3.38
   6  0.500  0.375  0.249-  20 1.93  20 1.93  10 1.93  12 1.93  15 1.94  16 1.95   3 3.31   3 3.31
                             1 3.31   1 3.31   4 3.34   4 3.34   2 3.34   2 3.34
   7  0.500  0.625  0.750-  14 1.92  15 1.92  19 1.93  19 1.93   9 1.97  11 1.97   1 3.34   1 3.34
                             4 3.34   4 3.34   2 3.34   3 3.34   3 3.34   2 3.34
   8  0.500  0.875  0.251-  18 1.93  18 1.93  10 1.93  12 1.93  14 1.94  13 1.95   2 3.31   2 3.31
                             4 3.31   4 3.31   1 3.34   1 3.34   3 3.34   3 3.34
   9  0.500  0.880  0.750-   5 1.90   7 1.97   3 2.75   3 2.75   4 2.75   4 2.75
  10  0.500  0.625  0.250-   6 1.93   8 1.93   2 2.71   3 2.71   2 2.71   3 2.71
  11  0.500  0.370  0.750-   5 1.90   7 1.97   2 2.75   2 2.75   1 2.75   1 2.75
  12  0.500  0.125  0.250-   6 1.93   8 1.93   1 2.71   4 2.71   1 2.71   4 2.71
  13  0.500  0.002  0.504-   5 1.90   8 1.95   3 2.76   3 2.76   1 2.76   1 2.76
  14  0.500  0.749  0.999-   7 1.92   8 1.94   4 2.70   4 2.70   2 2.70   2 2.70
  15  0.500  0.501  0.501-   7 1.92   6 1.94   1 2.70   1 2.70   3 2.70   3 2.70
  16  0.500  0.248  0.996-   5 1.90   6 1.95   2 2.76   2 2.76   4 2.76   4 2.76
  17  0.000  0.125  0.750-   5 1.93   5 1.93   2 2.78   3 2.78   1 2.78   4 2.78
  18  0.000  0.875  0.250-   8 1.93   8 1.93   2 2.68   4 2.68   1 2.74   3 2.74
  19  0.000  0.625  0.750-   7 1.93   7 1.93   1 2.73   4 2.73   3 2.73   2 2.73
  20  0.000  0.375  0.250-   6 1.93   6 1.93   3 2.68   1 2.68   4 2.74   2 2.74

  LATTYP: Found a base centered orthorhombic cell.
 ALAT       =     7.7332438241
 B/A-ratio  =     1.9950509637
 C/A-ratio  =     0.4986068245

  Lattice vectors:

 A1 = (   0.0000000000,   7.7141077721,   3.8666219072)
 A2 = (   0.0000000000,  -7.7141077719,   3.8666219168)
 A3 = (   3.8558481459,   0.0000000000,   0.0000000000)

Analysis of symmetry for initial positions (statically):
 Subroutine PRICEL returns:
 Original cell was already a primitive cell.

 Routine SETGRP: Setting up the symmetry group for a
 base centered orthorhombic supercell.

 Subroutine GETGRP returns: Found  8 space group operations
 (whereof  2 operations were pure point group operations)
 out of a pool of  8 trial point group operations.

The static configuration has the point symmetry C_1h.
 The point group associated with its full space group is D_2h.

Analysis of symmetry for dynamics (positions and initial velocities):
 Subroutine PRICEL returns:
 Original cell was already a primitive cell.

[...]

The dynamic configuration has the point symmetry C_1h.
 The point group associated with its full space group is D_2h.

Analysis of structural, dynamic, and magnetic symmetry:
 Subroutine PRICEL returns:
 Original cell was already a primitive cell.

 Routine SETGRP: Setting up the symmetry group for a
 base centered orthorhombic supercell.

 Subroutine GETGRP returns: Found  8 space group operations
 (whereof  2 operations were pure point group operations)
 out of a pool of  8 trial point group operations.

The magnetic configuration has the point symmetry C_1h.
 The point group associated with its full space group is D_2h.

 Subroutine INISYM returns: Found  8 space group operations
 (whereof  2 operations are pure point group operations),
 and found     1 'primitive' translations

 KPOINTS: Automatic mesh

Automatic generation of k-mesh.
 generate k-points for:    5    3    3
Space group operators:
 irot       det(A)        alpha          n_x          n_y          n_z        tau_x        tau_y        tau_z
    1     1.000000     0.000000     1.000000     0.000000     0.000000     0.000000     0.000000     0.000000
    2    -1.000000   180.000000     1.000000     0.000000     0.000000     0.000000     0.000000     0.000000
    3    -1.000000     0.000000     1.000000     0.000000     0.000000     0.000000     0.250000    -0.500000
    4     1.000000   180.000000     1.000000     0.000000     0.000000     0.000000     0.250000    -0.500000
    5     1.000000   180.000000     0.000000    -1.000000     0.000000     0.000000     0.500000    -0.000000
    6    -1.000000   180.000000     0.000000    -1.000000     0.000000     0.000000     0.750000     0.500000
    7     1.000000   180.000000     0.000000     0.000000     1.000000     0.000000     0.750000     0.500000
    8    -1.000000   180.000000     0.000000     0.000000     1.000000     0.000000     0.500000    -0.000000

 Subroutine IBZKPT returns following result:

 Found     12 irreducible k-points:

 Following reciprocal coordinates:
            Coordinates               Weight
  0.000000  0.000000  0.000000      1.000000
  0.200000  0.000000  0.000000      2.000000
  0.400000  0.000000  0.000000      2.000000
  0.000000  0.333333  0.000000      4.000000
  0.200000  0.333333  0.000000      8.000000
  0.400000  0.333333  0.000000      8.000000
  0.000000  0.000000  0.333333      2.000000
  0.200000  0.000000  0.333333      4.000000
  0.400000  0.000000  0.333333      4.000000
  0.000000  0.333333  0.333333      2.000000
  0.200000  0.333333  0.333333      4.000000
  0.400000  0.333333  0.333333      4.000000

 Following cartesian coordinates:
            Coordinates               Weight
  0.000000  0.000000  0.000000      1.000000
 -0.051869  0.000000  0.000000      2.000000
 -0.103739  0.000000  0.000000      2.000000
  0.000000  0.021605  0.043104      4.000000
 -0.051869  0.021605  0.043104      8.000000
 -0.103739  0.021605  0.043104      8.000000
  0.000000  0.043211 -0.000000      2.000000
 -0.051869  0.043211 -0.000000      4.000000
 -0.103739  0.043211 -0.000000      4.000000
  0.000000  0.064816  0.043104      2.000000
 -0.051869  0.064816  0.043104      4.000000
 -0.103739  0.064816  0.043104      4.000000

 TETIRR: Found     90 inequivalent tetrahedra from      270

 SYSTEM =  final
 POSCAR =  SCEL4_1_4_1_2_0_0/2

 Startparameter for this run:
   NWRITE =      2    write-flag & timer
   PREC   = accura    normal or accurate (medium, high low for compatibility)
   ISTART =      0    job   : 0-new  1-cont  2-samecut
   ICHARG =      1    charge: 1-file 2-atom 10-const
   ISPIN  =      2    spin polarized calculation?
   LNONCOLLINEAR =      F non collinear calculations
   LSORBIT =      F    spin-orbit coupling
   INIWAV =      1    electr: 0-lowe 1-rand  2-diag
   LASPH  =      F    aspherical Exc in radial PAW
   METAGGA=      F    non-selfconsistent MetaGGA calc.

 Electronic Relaxation 1
   ENCUT  =  520.0 eV  38.22 Ry    6.18 a.u.   7.17 14.38 16.04*2*pi/ulx,y,z
   ENINI  =  520.0     initial cutoff
   ENAUG  =  605.4 eV  augmentation charge cutoff
   NELM   =    100;   NELMIN=  2; NELMDL= -5     # of ELM steps
   EDIFF  = 0.1E-02   stopping-criterion for ELM
   LREAL  =      T    real-space projection
[...]
  0.5672  0.4868

[...]

--------------------------------------- Iteration      1(  18)  ---------------------------------------

atom =   1  type =  1  l = 0

[...]

  o =  0.7851  v =  0.0000  1.0000      0.0000  0.0000
  o =  0.7903  v =  1.0000  0.0000      0.0000  0.0000
atom =  20  type =  4  l = 0

 onsite density matrix

[...]

  0.7854

 occupancies and eigenvectors

  o =  0.7854  v =  0.0000  1.0000      0.0000  0.0000
  o =  0.7912  v =  1.0000  0.0000      0.0000  0.0000
 BZINTS: Fermi energy:  7.530217;153.000000 electrons
         Band energy:-179.021082;  BLOECHL correction: -0.050646

 eigenvalue-minimisations  :  4651
 total energy-change (2. order) :-0.8953351E-03  (-0.7682095E-03)
 number of electron     153.0000048 magnetization       7.0060600
 augmentation part       22.2526834 magnetization       5.7859056

 Free energy of the ion-electron system (eV)
  alpha Z        PSCENC =       662.05396157
  Ewald energy   TEWEN  =    -10784.76058251
  -Hartree energ DENC   =     -2546.50568326
  -exchange      EXHF   =         0.00000000
  -V(xc)+E(xc)   XCENC  =       551.66685080
  PAW double counting   =     13028.14666964   -13173.72151754
  entropy T*S    EENTRO =         0.00000000
  eigenvalues    EBANDS =      -179.02108154
  atomic energy  EATOM  =     12301.96174248
  Solvation  Ediel_sol  =         0.00000000
  free energy    TOTEN  =      -140.17964036 eV

  energy without entropy =     -140.17964036  energy(sigma->0) =     -140.17964036

 average (electrostatic) potential at core
  the test charge radii are     1.1480  1.0210  0.9791  0.7215
  (the norm of the test charge is              1.0000)
       1 -95.0523       2 -95.0523       3 -95.0523       4 -95.0523       5 -43.0380
       6 -83.8327       7 -83.7675       8 -83.8327       9 -66.6900      10 -66.6573
      11 -66.6900      12 -66.6573      13 -66.7372      14 -66.6627      15 -66.6627
      16 -66.7372      17 -67.0252      18 -66.6296      19 -66.5322      20 -66.6296

 E-fermi :   7.5302     XC(G=0): -11.8231     alpha+bet :-16.8554

[...]

 k-point     1 :       0.0000    0.0000    0.0000
  band No.  band energies     occupation
      1     -23.5853      1.00000
      2     -23.5140      1.00000
      3     -23.4901      1.00000
      4     -23.4800      1.00000
      5     -11.1361      1.00000
      6     -10.8085      1.00000
      7     -10.7443      1.00000
      8     -10.5935      1.00000
      9      -9.7841      1.00000
     10      -9.7548      1.00000
     11      -9.5896      1.00000
     12      -9.4577      1.00000
     13      -9.3861      1.00000
     14      -9.3556      1.00000
     15      -9.2601      1.00000
     16      -9.2400      1.00000
     17      -7.0960      1.00000
     18      -7.0936      1.00000
     19      -7.0879      1.00000
     20      -6.9797      1.00000
     21      -6.9732      1.00000
     22      -6.9192      1.00000
     23      -6.9023      1.00000
     24      -6.7727      1.00000
     25      -6.7574      1.00000
     26      -6.4830      1.00000
     27      -6.3970      1.00000
     28      -6.2082      1.00000
     29       0.3884      1.00000
     30       0.4174      1.00000
     31       0.7371      1.00000
     32       1.2848      1.00000
     33       1.5668      1.00000
     34       1.6296      1.00000
     35       1.8134      1.00000
     36       2.0567      1.00000
     37       2.1568      1.00000
     38       2.1834      1.00000
     39       2.1945      1.00000
     40       2.2384      1.00000
     41       2.2504      1.00000
     42       2.6082      1.00000
     43       2.7162      1.00000
     44       2.7199      1.00000
     45       2.8555      1.00000
     46       3.1765      1.00000
     47       3.1818      1.00000
     48       3.1994      1.00000
     49       3.4858      1.00000
     50       3.5122      1.00000
     51       3.5216      1.00000
     52       3.6741      1.00000
     53       3.8550      1.00000
     54       3.9332      1.00000
     55       3.9637      1.00000
     56       4.3521      1.00000
     57       4.5618      1.00000
     58       4.6671      1.00000
     59       4.8758      1.00000
     60       5.0511      1.00000
[...]
     84       9.6053      0.00000
     85      10.5092      0.00000
     86      10.5408      0.00000
     87      11.1538      0.00000
     88      11.1810      0.00000
     89      11.1914      0.00000
     90      11.3030      0.00000
     91      11.3449      0.00000
     92      11.4059      0.00000
     93      11.4391      0.00000
     94      11.4594      0.00000
     95      11.4879      0.00000
     96      11.5238      0.00000
     97      11.5528      0.00000
     98      11.5958      0.00000

[...]

 spin component 2

[...]

 k-point    12 :       0.4000    0.3333    0.3333
  band No.  band energies     occupation
      1     -23.4778      1.00000
      2     -23.4752      1.00000
      3     -23.4639      1.00000
      4     -23.4158      1.00000
      5     -10.6530      1.00000
      6     -10.6388      1.00000
      7     -10.5731      1.00000
      8     -10.0883      1.00000
      9      -9.9248      1.00000
     10      -9.7993      1.00000
     11      -9.7803      1.00000
     12      -9.7594      1.00000
     13      -9.4852      1.00000
     14      -9.4107      1.00000
     15      -9.3208      1.00000
     16      -9.2875      1.00000
     17      -7.4906      1.00000
     18      -7.2691      1.00000
     19      -7.1869      1.00000
     20      -7.1578      1.00000
     21      -7.1294      1.00000
     22      -6.8800      1.00000
     23      -6.7981      1.00000
     24      -6.7382      1.00000
     25      -6.6727      1.00000
     26      -6.5827      1.00000
     27      -6.5142      1.00000
     28      -6.4973      1.00000
     29       1.2429      1.00000
     30       1.9157      1.00000
     31       1.9564      1.00000
     32       1.9760      1.00000
     33       2.1706      1.00000
     34       2.3105      1.00000
     35       2.3601      1.00000
     36       2.4950      1.00000
     37       2.6037      1.00000
     38       2.6760      1.00000
     39       2.6857      1.00000
     40       2.8307      1.00000
     41       2.8492      1.00000
     42       3.3145      1.00000
     43       3.4330      1.00000
     44       3.5397      1.00000
     45       3.6324      1.00000
     46       3.6564      1.00000
     47       3.8372      1.00000
     48       3.8841      1.00000
     49       3.9042      1.00000
     50       4.0774      1.00000
     51       4.0859      1.00000
     52       4.5370      1.00000
     53       5.3022      1.00000
     54       5.4545      1.00000
     55       5.4816      1.00000
     56       5.5107      1.00000
     57       5.6781      1.00000
     58       5.7844      1.00000
     59       5.8170      1.00000
     60       5.9028      1.00000
[...]
     84      11.3043      0.00000
     85      11.3308      0.00000
     86      11.3687      0.00000
     87      11.3986      0.00000
     88      11.4215      0.00000
     89      11.4390      0.00000
     90      11.4512      0.00000
     91      11.4626      0.00000
     92      11.4719      0.00000
     93      11.4813      0.00000
     94      11.5102      0.00000
     95      11.5282      0.00000
     96      11.5600      0.00000
     97      11.6115      0.00000
     98      11.6504      0.00000

 soft charge-density along one line, spin component           1
         0         1         2         3         4         5         6         7         8         9
 total charge-density along one line

 soft charge-density along one line, spin component           2
         0         1         2         3         4         5         6         7         8         9
 total charge-density along one line

------------------------ aborting loop because EDIFF is reached ----------------------------------------

 total charge

# of ion       s       p       d       f       tot
    1        2.000   5.701   0.497   0.193   8.391
    2        2.000   5.701   0.497   0.193   8.391
    3        2.000   5.701   0.497   0.193   8.390
    4        2.000   5.701   0.497   0.193   8.391
    5        0.350   0.559   4.865   0.000   5.773
    6        0.422   0.634   8.317   0.000   9.372
    7        0.419   0.628   8.318   0.000   9.364
    8        0.422   0.634   8.317   0.000   9.372
    9        1.563   3.456   0.000   0.000   5.019
   10        1.562   3.440   0.000   0.000   5.002
   11        1.563   3.456   0.000   0.000   5.019
   12        1.562   3.439   0.000   0.000   5.001
   13        1.563   3.454   0.000   0.000   5.017
   14        1.562   3.438   0.000   0.000   5.000
   15        1.562   3.438   0.000   0.000   5.000
   16        1.563   3.454   0.000   0.000   5.017
   17        1.563   3.466   0.000   0.000   5.029
   18        1.561   3.442   0.000   0.000   5.004
   19        1.560   3.439   0.000   0.000   4.999
   20        1.561   3.442   0.000   0.000   5.004
tot         28.358  66.622  31.803   0.771 127.554

 magnetization (x)

[...]

  FORCE on cell =-STRESS in cart. coord.  units (eV):
  Direction    XX          YY          ZZ          XY          YZ          ZX
  Alpha Z   662.05396   662.05396   662.05396
  Ewald   -3560.90245 -3607.22653 -3616.66216    -0.00000     0.00000    -0.00000
  Hartree   878.13838   834.60485   833.62994     0.00000    -0.00002    -0.00000
  E(xc)    -718.00007  -718.12655  -718.16976     0.00000    -0.00001    -0.00000
  Local    -598.32366  -509.54215  -501.98917     0.00000    -0.00039    -0.00000
  n-local   290.88692   290.63481   290.36132     0.22886     0.41509    -0.59046
  augment   470.61192   471.13210   471.95887     0.00000     0.00037    -0.00000
  Kinetic  2575.21410  2576.55389  2578.75803    -0.50199    -1.37884     1.93324
  Fock        0.00000     0.00000     0.00000     0.00000     0.00000     0.00000
  Total      -0.32089     0.08439    -0.05898     0.00000    -0.00000     0.00000
  in kB      -2.23514     0.58783    -0.41080     0.00000    -0.00000     0.00000

 VOLUME and BASIS-vectors are now :
  energy-cutoff  :      520.00
  volume of cell :      230.02
      direct lattice vectors                 reciprocal lattice vectors
    -3.855848146  0.000000000  0.000000000    -0.259346313  0.000000000  0.000000000
     0.000000000  0.000000000  7.733243824     0.000000000  0.064816310  0.129311842
     0.000000000  7.714107772 -3.866621917     0.000000000  0.129632620 -0.000000000

  length of vectors
     3.855848146  7.733243824  8.628917879     0.259346313  0.144646833  0.129632620

 FORCES acting on ions
    electron-ion (+dipol)            ewald-force                    non-local-force                 convergence-correction
   -.588E-14 -.549E+02 0.521E+02   0.151E-13 0.544E+02 -.515E+02   0.000E+00 0.299E+00 -.397E+00   -.560E-14 0.981E-01 -.243E-01
   0.627E-14 0.549E+02 0.521E+02   0.329E-13 -.544E+02 -.515E+02   0.000E+00 -.299E+00 -.397E+00   -.212E-13 -.981E-01 -.243E-01
   0.523E-14 -.549E+02 -.521E+02   -.252E-13 0.544E+02 0.515E+02   0.000E+00 0.299E+00 0.397E+00   -.975E-14 0.981E-01 0.243E-01
   0.116E-13 0.549E+02 -.521E+02   -.176E-13 -.544E+02 0.515E+02   0.000E+00 -.299E+00 0.397E+00   -.181E-13 -.981E-01 0.243E-01
   -.549E-13 0.917E-12 0.180E-11   -.156E-13 0.121E-12 0.872E-13   0.000E+00 0.169E-20 0.000E+00   -.659E-14 -.187E-12 -.939E-13
   -.287E-12 0.302E+02 -.171E-04   0.503E-13 -.301E+02 0.413E-07   0.000E+00 -.585E-01 0.364E-10   -.310E-13 -.310E-01 0.293E-06
   -.317E-12 0.252E-11 0.376E-11   0.151E-14 -.675E-13 0.222E-12   0.000E+00 0.000E+00 -.339E-20   -.375E-13 -.394E-12 0.143E-12
   -.285E-12 -.302E+02 0.171E-04   -.298E-13 0.301E+02 -.412E-07   0.000E+00 0.585E-01 -.364E-10   -.482E-13 0.310E-01 -.293E-06
   -.118E-12 0.198E-04 -.589E+02   -.611E-14 0.351E-08 0.541E+02   0.000E+00 0.663E-10 0.484E+01   -.268E-13 0.114E-07 0.271E-01
   -.126E-12 -.228E-11 -.160E-11   0.134E-14 0.334E-13 -.406E-11   0.000E+00 0.000E+00 0.000E+00   -.214E-13 0.298E-12 -.425E-13
   -.120E-12 -.198E-04 0.589E+02   0.876E-14 -.351E-08 -.541E+02   0.000E+00 -.663E-10 -.484E+01   -.208E-13 -.114E-07 -.271E-01
   -.118E-12 -.703E-12 -.542E-13   0.169E-13 0.257E-13 -.404E-11   0.000E+00 -.271E-19 0.000E+00   -.290E-13 0.170E-12 -.666E-13
   -.109E-12 -.675E+02 -.420E-04   0.246E-13 0.634E+02 -.393E-07   0.000E+00 0.409E+01 -.255E-08   -.237E-13 0.560E-01 0.113E-06
   -.122E-12 0.782E+01 0.258E-04   0.170E-13 -.721E+01 -.270E-07   0.000E+00 -.552E+00 0.343E-09   -.835E-14 -.391E-01 -.276E-06
   -.113E-12 -.782E+01 -.258E-04   -.164E-13 0.721E+01 0.270E-07   0.000E+00 0.552E+00 -.343E-09   -.132E-13 0.391E-01 0.276E-06
   -.121E-12 0.675E+02 0.420E-04   -.301E-13 -.634E+02 0.393E-07   0.000E+00 -.409E+01 0.255E-08   -.965E-14 -.560E-01 -.113E-06
   0.388E-14 -.580E-13 -.494E-12   0.176E-13 -.711E-14 0.144E-12   0.000E+00 -.136E-19 -.678E-20   -.128E-13 -.230E-12 -.730E-13
   0.740E-15 -.189E+02 0.103E-04   -.456E-14 0.194E+02 -.212E-07   0.000E+00 -.552E+00 0.343E-09   -.367E-14 0.167E-01 -.107E-06
   0.136E-14 -.121E-13 -.269E-12   -.325E-14 -.817E-13 0.204E-12   0.000E+00 0.000E+00 0.000E+00   -.127E-13 -.299E-12 0.848E-13
   0.838E-14 0.189E+02 -.103E-04   -.348E-13 -.194E+02 0.212E-07   0.000E+00 0.552E+00 -.343E-09   -.140E-13 -.167E-01 0.107E-06
   -.186E-11 -.220E-11 0.702E-10   0.260E-14 0.711E-14 -.784E-13   0.000E+00 -.888E-15 -.678E-20   -.374E-12 -.110E-12 -.220E-13

 POSITION                                       TOTAL-FORCE (eV/Angst)
      0.00000      3.82596      0.03810        -0.000000     -0.060297      0.106187
      0.00000      0.03109      3.90472        -0.000000      0.060297      0.106187
      0.00000      3.82596      3.82852         0.000000     -0.060297     -0.106187
      0.00000      0.03109      7.69514        -0.000000      0.060297     -0.106187
     -1.92792      5.78558     -1.93331        -0.000000      0.000000      0.000000
     -1.92792      1.92368      1.93331        -0.000000     -0.034681      0.000000
     -1.92792      5.78558      1.93331        -0.000000      0.000000      0.000000
     -1.92792      1.93337      5.79993        -0.000000      0.034681     -0.000000
     -1.92792      5.78558      3.90447        -0.000000      0.000000      0.040052
     -1.92792      1.92853      3.86662        -0.000000      0.000000      0.000000
     -1.92792      5.78558     -0.03785        -0.000000     -0.000000     -0.040052
     -1.92792      1.92853     -0.00000        -0.000000      0.000000      0.000000
     -1.92792      3.88476     -1.93331        -0.000000      0.058718     -0.000000
     -1.92792      7.70279      1.93331        -0.000000      0.025513     -0.000000
     -1.92792      3.86837      1.93331        -0.000000     -0.025513      0.000000
     -1.92792      7.68640     -1.93331        -0.000000     -0.058718      0.000000
      0.00000      5.78558     -1.93331        -0.000000      0.000000      0.000000
      0.00000      1.92505      5.79993        -0.000000     -0.051395      0.000000
      0.00000      5.78558      1.93331        -0.000000      0.000000      0.000000
      0.00000      1.93200      1.93331        -0.000000      0.051395     -0.000000
    total drift:                               -0.000000     -0.000000      0.000000

  FREE ENERGIE OF THE ION-ELECTRON SYSTEM (eV)
  free  energy   TOTEN  =      -140.17964036 eV

  energy  without entropy=     -140.17964036  energy(sigma->0) =     -140.17964036

 total charge

[...]

 magnetization (x)

# of ion       s       p       d       f       tot
    1        0.000   0.000   0.006   0.003   0.009
    2        0.000   0.000   0.006   0.003   0.009
    3        0.000   0.000   0.006   0.003   0.009
    4        0.000   0.000   0.006   0.003   0.009
    5        0.021   0.027   3.263   0.000   3.311
    6        0.015   0.010   1.417   0.000   1.441
    7        0.013   0.007   1.433   0.000   1.452
    8        0.015   0.010   1.417   0.000   1.441
    9        0.005  -0.025   0.000   0.000  -0.019
   10        0.006  -0.079   0.000   0.000  -0.073
   11        0.005  -0.025   0.000   0.000  -0.019
   12        0.006  -0.082   0.000   0.000  -0.076
   13        0.005  -0.034   0.000   0.000  -0.029
   14        0.006  -0.088   0.000   0.000  -0.082
   15        0.006  -0.088   0.000   0.000  -0.082
   16        0.005  -0.034   0.000   0.000  -0.029
   17        0.001  -0.051   0.000   0.000  -0.050
   18        0.006  -0.075   0.000   0.000  -0.069
   19        0.005  -0.072   0.000   0.000  -0.067
   20        0.006  -0.075   0.000   0.000  -0.069
tot          0.125  -0.673   7.553   0.011   7.016

 BZINTS: Fermi energy:  7.530217;153.000000 electrons
         Band energy:-179.021082;  BLOECHL correction: -0.050646