 vasp.5.4.4.18Apr17-6-g9f103f2a35 (build Oct 03 2018 13:58:34) complex

 executed on             LinuxIFC date 2019.06.04  00:34:26

 INCAR:
 POTCAR:    PAW_PBE La 06Sep2000
 POTCAR:    PAW_PBE Mn 06Sep2000
 POTCAR:    PAW_PBE Ni 02Aug2007
 POTCAR:    PAW_PBE O 08Apr2002

 POTCAR:    PAW_PBE La 06Sep2000
   VRHFIN =La : [core=Kr4d]

   TITEL  = PAW_PBE La 06Sep2000
   POMASS =  138.900; ZVAL   =   11.000    mass and valenz
   ENMAX  =  219.292; ENMIN  =  164.469 eV

 POTCAR:    PAW_PBE Mn 06Sep2000
   VRHFIN =Mn: d6 s1

   TITEL  = PAW_PBE Mn 06Sep2000
   POMASS =   54.938; ZVAL   =    7.000    mass and valenz
   ENMAX  =  269.864; ENMIN  =  202.398 eV

 POTCAR:    PAW_PBE Ni 02Aug2007
   VRHFIN =Ni:

   TITEL  = PAW_PBE Ni 02Aug2007
   POMASS =   58.690; ZVAL   =   10.000    mass and valenz
   ENMAX  =  269.532; ENMIN  =  202.149 eV

 POTCAR:    PAW_PBE O 08Apr2002
   VRHFIN =O: s2p4

   TITEL  = PAW_PBE O 08Apr2002
   POMASS =   16.000; ZVAL   =    6.000    mass and valenz
   ENMAX  =  400.000; ENMIN  =  300.000 eV

 Optimization of the real space projectors (new method)

 maximal supplied QI-value         = 13.42
 optimisation between [QCUT,QGAM] = [ 11.67, 23.35] = [ 38.16,152.62] Ry
 Optimized for a Real-space Cutoff    1.63 Angstroem

   l    n(q)    QCUT    max X(q) W(low)/X(q) W(high)/X(q)  e(spline)
   0     11    11.673    13.882    0.27E-04    0.79E-05    0.11E-06
   0     11    11.673    12.184    0.39E-04    0.13E-04    0.19E-06
   1     11    11.673     4.523    0.73E-05    0.76E-05    0.12E-06
   1     11    11.673     4.424    0.87E-05    0.13E-04    0.19E-06
   2     10    11.673    52.481    0.65E-04    0.36E-04    0.18E-06
   2     10    11.673    38.501    0.61E-04    0.33E-04    0.17E-06
   3     10    11.673    65.631    0.17E-03    0.14E-03    0.37E-06
   3     10    11.673    56.854    0.17E-03    0.14E-03    0.37E-06
 Optimization of the real space projectors (new method)

[...]

   l    n(q)    QCUT    max X(q) W(low)/X(q) W(high)/X(q)  e(spline)
   2      9    11.539    60.317    0.19E-03    0.47E-04    0.16E-06
   2      9    11.539    55.921    0.19E-03    0.48E-04    0.16E-06
   0     10    11.539    51.690    0.80E-04    0.50E-04    0.24E-06
   0     10    11.539    30.015    0.73E-04    0.45E-04    0.22E-06
   1     10    11.539    18.849    0.87E-04    0.16E-03    0.71E-07
   1     10    11.539    14.624    0.73E-04    0.13E-03    0.64E-07
 Optimization of the real space projectors (new method)

 maximal supplied QI-value         = 24.76
 optimisation between [QCUT,QGAM] = [ 11.64, 23.27] = [ 37.91,151.63] Ry
 Optimized for a Real-space Cutoff    1.14 Angstroem

   l    n(q)    QCUT    max X(q) W(low)/X(q) W(high)/X(q)  e(spline)
   0      8    11.635    20.381    0.10E-03    0.33E-03    0.24E-06
   0      8    11.635    15.268    0.11E-03    0.35E-03    0.26E-06
   1      7    11.635     5.964    0.24E-03    0.31E-03    0.30E-06
   1      7    11.635     5.382    0.22E-03    0.25E-03    0.26E-06
  PAW_PBE La 06Sep2000                  :
  PAW_PBE Mn 06Sep2000                  :
  PAW_PBE Ni 02Aug2007                  :
  PAW_PBE O 08Apr2002                   :

 POSCAR: SCEL6_6_1_1_0_4_1/1
  positions in direct lattice
  velocities in cartesian coordinates
 exchange correlation table for  LEXCH =        8
   RHO(1)=    0.500       N(1)  =     2000
   RHO(2)=  100.500       N(2)  =     4000

 ion  position               nearest neighbor table
   1  0.500  0.334  0.846-  23 2.65  30 2.65  18 2.70  29 2.72  22 2.72  17 2.77  17 2.77  28 2.81
                            21 2.81  12 3.27  11 3.32  11 3.32  10 3.38  10 3.38
   2  0.000  0.663  0.672-  22 2.70  29 2.70  17 2.71  28 2.75  21 2.75  20 2.75  27 2.75  16 2.76
                            16 2.76  19 2.79  26 2.79  15 2.80  11 3.31   9 3.35  10 3.36  10 3.36
   3  0.500  0.003  0.495-  24 2.70  25 2.70  14 2.71  19 2.75  26 2.75  20 2.75  27 2.75  15 2.76
                            15 2.76  28 2.79  21 2.79  16 2.80  12 3.31   7 3.35   8 3.36   8 3.36
   4  0.000  0.333  0.320-  23 2.65  30 2.65  13 2.70  25 2.72  24 2.72  14 2.77  14 2.77  19 2.81
                            26 2.81  11 3.27  12 3.32  12 3.32   8 3.38   8 3.38
   5  0.500  0.659  0.161-  23 2.70  30 2.70  29 2.72  22 2.72  14 2.76  13 2.77  13 2.77  18 2.78
                            26 2.81  19 2.81  24 2.82  25 2.82  12 3.33  11 3.34  11 3.34  10 3.35
   6  0.000  0.008  0.005-  23 2.70  30 2.70  25 2.72  24 2.72  17 2.76  18 2.77  18 2.77  13 2.78
                            21 2.81  28 2.81  22 2.82  29 2.82  11 3.33  12 3.34  12 3.34   8 3.35
   7  0.500  0.499  0.500-  14 1.90  16 1.95  20 1.95  27 1.95  26 1.99  19 1.99   3 3.35   2 3.40
                             2 3.40   3 3.41   5 3.41
   8  0.000  0.833  0.333-  13 1.89  24 1.92  25 1.92  19 1.93  26 1.93  15 1.94   6 3.35   3 3.36
                             3 3.36   4 3.38   4 3.38   5 3.42   5 3.42
   9  0.000  0.168  0.667-  17 1.90  15 1.95  20 1.95  27 1.95  21 1.99  28 1.99   2 3.35   3 3.40
                             3 3.40   2 3.41   6 3.41
  10  0.500  0.833  0.834-  18 1.89  22 1.92  29 1.92  28 1.93  21 1.93  16 1.94   5 3.35   2 3.36
                             2 3.36   1 3.38   1 3.38   6 3.42   6 3.42
  11  0.000  0.501  0.999-  23 1.96  30 1.96  29 1.98  22 1.98  17 1.98  13 1.99   4 3.27   2 3.31
                             1 3.32   1 3.32   6 3.33   5 3.34   5 3.34
  12  0.500  0.165  0.167-  23 1.96  30 1.96  25 1.98  24 1.98  14 1.98  18 1.99   1 3.27   3 3.31
                             4 3.32   4 3.32   5 3.33   6 3.34   6 3.34
  13  0.000  0.671  0.170-   8 1.89  11 1.99   4 2.70   5 2.77   5 2.77   6 2.78
  14  0.500  0.335  0.337-   7 1.90  12 1.98   3 2.71   5 2.76   4 2.77   4 2.77
  15  0.000  0.999  0.500-   8 1.94   9 1.95   3 2.76   3 2.76   2 2.80
  16  0.500  0.668  0.666-  10 1.94   7 1.95   2 2.76   2 2.76   3 2.80
  17  0.000  0.331  0.829-   9 1.90  11 1.98   2 2.71   6 2.76   1 2.77   1 2.77
  18  0.500  0.996  0.996-  10 1.89  12 1.99   1 2.70   6 2.77   6 2.77   5 2.78
  19  0.753  0.670  0.416-   8 1.93   7 1.99   3 2.75   2 2.79   4 2.81   5 2.81
  20  0.250  0.333  0.583-   7 1.95   9 1.95   3 2.75   2 2.75
  21  0.747  0.996  0.750-  10 1.93   9 1.99   2 2.75   3 2.79   1 2.81   6 2.81
  22  0.254  0.669  0.914-  10 1.92  11 1.98   2 2.70   1 2.72   5 2.72   6 2.82
  23  0.750  0.333  0.083-  12 1.96  11 1.96   1 2.65   4 2.65   6 2.70   5 2.70
  24  0.246  0.998  0.253-   8 1.92  12 1.98   3 2.70   4 2.72   6 2.72   5 2.82
  25  0.754  0.998  0.253-   8 1.92  12 1.98   3 2.70   4 2.72   6 2.72   5 2.82
  26  0.247  0.670  0.416-   8 1.93   7 1.99   3 2.75   2 2.79   4 2.81   5 2.81
  27  0.750  0.333  0.583-   7 1.95   9 1.95   3 2.75   2 2.75
  28  0.253  0.996  0.750-  10 1.93   9 1.99   2 2.75   3 2.79   1 2.81   6 2.81
  29  0.746  0.669  0.914-  10 1.92  11 1.98   2 2.70   1 2.72   5 2.72   6 2.82
  30  0.250  0.333  0.083-  12 1.96  11 1.96   1 2.65   4 2.65   6 2.70   5 2.70

  LATTYP: Found a simple monoclinic cell.
 ALAT       =    11.6519169714
 B/A-ratio  =     0.4743223340
 C/A-ratio  =     1.4153891384
 COS(beta)  =    -0.9421643221

  Lattice vectors:

 A1 = (   0.0017044024,  -0.0017044024, -11.6519167221)
 A2 = (  -3.9080126230,  -3.9080126230,   0.0000000000)
 A3 = (  -3.9106740312,   3.9106740312,  15.5370271655)

Analysis of symmetry for initial positions (statically):
 Subroutine PRICEL returns:
 Original cell was already a primitive cell.

 Routine SETGRP: Setting up the symmetry group for a
 simple monoclinic supercell.

 Subroutine GETGRP returns: Found  4 space group operations
 (whereof  2 operations were pure point group operations)
 out of a pool of  4 trial point group operations.

The static configuration has the point symmetry C_1h.
 The point group associated with its full space group is C_2h.

Analysis of symmetry for dynamics (positions and initial velocities):
 Subroutine PRICEL returns:
 Original cell was already a primitive cell.

[...]

The dynamic configuration has the point symmetry C_1h.
 The point group associated with its full space group is C_2h.

Analysis of structural, dynamic, and magnetic symmetry:
 Subroutine PRICEL returns:
 Original cell was already a primitive cell.

 Routine SETGRP: Setting up the symmetry group for a
 simple monoclinic supercell.

 Subroutine GETGRP returns: Found  4 space group operations
 (whereof  2 operations were pure point group operations)
 out of a pool of  4 trial point group operations.

The magnetic configuration has the point symmetry C_1h.
 The point group associated with its full space group is C_2h.

 Subroutine INISYM returns: Found  4 space group operations
 (whereof  2 operations are pure point group operations),
 and found     1 'primitive' translations

 KPOINTS: Automatic mesh

Automatic generation of k-mesh.
 generate k-points for:    4    3    2
Space group operators:
 irot       det(A)        alpha          n_x          n_y          n_z        tau_x        tau_y        tau_z
    1     1.000000     0.000001     1.000000     0.000000     0.000000     0.000000     0.000000     0.000000
    2    -1.000000   179.999999     0.707107     0.707107     0.000000     0.000000     0.000000     0.000000
    3    -1.000000     0.000001     1.000000     0.000000     0.000000    -0.500000     0.666667     0.166667
    4     1.000000   179.999999     0.707107     0.707107     0.000000    -0.500000     0.666667     0.166667

 Subroutine IBZKPT returns following result:

 Found     12 irreducible k-points:

 Following reciprocal coordinates:
            Coordinates               Weight
  0.000000  0.000000  0.000000      1.000000
  0.250000  0.000000  0.000000      2.000000
  0.500000  0.000000  0.000000      1.000000
  0.000000  0.333333  0.000000      2.000000
  0.250000  0.333333  0.000000      4.000000
  0.500000  0.333333 -0.000000      2.000000
  0.000000  0.000000  0.500000      1.000000
  0.250000 -0.000000  0.500000      2.000000
  0.500000 -0.000000  0.500000      1.000000
  0.000000  0.333333  0.500000      2.000000
  0.250000  0.333333  0.500000      4.000000
  0.500000  0.333333  0.500000      2.000000

 Following cartesian coordinates:
            Coordinates               Weight
  0.000000  0.000000  0.000000      1.000000
  0.031986  0.031986  0.000000      2.000000
  0.063971  0.063971  0.000000      1.000000
 -0.028425  0.028425  0.028599      2.000000
  0.003561  0.060410  0.028599      4.000000
  0.035547  0.092396  0.028599      2.000000
  0.021328 -0.021328  0.042918      1.000000
  0.053313  0.010658  0.042918      2.000000
  0.085299  0.042643  0.042918      1.000000
 -0.007097  0.007097  0.071517      2.000000
  0.024889  0.039082  0.071517      4.000000
  0.056874  0.071068  0.071517      2.000000

 TETIRR: Found     72 inequivalent tetrahedra from      144

 SYSTEM =  final
 POSCAR =  SCEL6_6_1_1_0_4_1/1

 Startparameter for this run:
   NWRITE =      2    write-flag & timer
   PREC   = accura    normal or accurate (medium, high low for compatibility)
   ISTART =      0    job   : 0-new  1-cont  2-samecut
   ICHARG =      1    charge: 1-file 2-atom 10-const
   ISPIN  =      2    spin polarized calculation?
[...]
     30      -7.7470      1.00000
     31      -7.7142      1.00000
     32      -7.6971      1.00000
     33      -7.6734      1.00000
     34      -7.5046      1.00000
     35      -7.4985      1.00000
     36      -7.4552      1.00000
     37      -7.4270      1.00000
     38      -7.3716      1.00000
     39      -7.2304      1.00000
     40      -7.1980      1.00000
     41      -7.1691      1.00000
     42      -7.0268      1.00000
     43       0.2349      1.00000
     44       0.3064      1.00000
     45       0.6282      1.00000
     46       0.9251      1.00000
     47       1.0141      1.00000
     48       1.1111      1.00000
     49       1.1731      1.00000
     50       1.2996      1.00000
     51       1.3472      1.00000
     52       1.4251      1.00000
     53       1.5500      1.00000
     54       1.6763      1.00000
     55       1.7187      1.00000
     56       1.7220      1.00000
     57       1.7492      1.00000
     58       1.7880      1.00000
     59       1.8425      1.00000
     60       1.8553      1.00000
[...]
    130      10.5751      0.00000
    131      10.5941      0.00000
    132      10.6256      0.00000
    133      10.6685      0.00000
    134      10.6875      0.00000
    135      10.7165      0.00000
    136      10.7235      0.00000
    137      10.7398      0.00000
    138      10.7455      0.00000
    139      10.7709      0.00000
    140      10.7903      0.00000
    141      10.8091      0.00000
    142      10.8253      0.00000
    143      10.8624      0.00000
    144      10.8885      0.00000

[...]

 spin component 2

[...]

 k-point    12 :       0.5000    0.3333    0.5000
  band No.  band energies     occupation
      1     -24.1758      1.00000
      2     -24.1758      1.00000
      3     -24.1505      1.00000
      4     -24.1504      1.00000
      5     -24.0926      1.00000
      6     -24.0926      1.00000
      7     -11.3622      1.00000
      8     -11.3622      1.00000
      9     -10.9039      1.00000
     10     -10.9039      1.00000
     11     -10.7340      1.00000
     12     -10.7340      1.00000
     13     -10.3457      1.00000
     14     -10.3457      1.00000
     15     -10.0437      1.00000
     16     -10.0437      1.00000
     17      -9.9382      1.00000
     18      -9.9382      1.00000
     19      -9.9077      1.00000
     20      -9.9077      1.00000
     21      -9.7640      1.00000
     22      -9.7640      1.00000
     23      -9.4984      1.00000
     24      -9.4984      1.00000
     25      -7.7170      1.00000
     26      -7.7170      1.00000
     27      -7.6717      1.00000
     28      -7.6717      1.00000
     29      -7.6461      1.00000
     30      -7.6461      1.00000
     31      -7.6010      1.00000
     32      -7.6010      1.00000
     33      -7.5539      1.00000
     34      -7.5539      1.00000
     35      -7.3631      1.00000
     36      -7.3631      1.00000
     37      -7.2604      1.00000
     38      -7.2604      1.00000
     39      -7.1426      1.00000
     40      -7.1426      1.00000
     41      -6.8718      1.00000
     42      -6.8718      1.00000
     43       1.7691      1.00000
     44       1.7691      1.00000
     45       1.8376      1.00000
     46       1.8376      1.00000
     47       2.2277      1.00000
     48       2.2278      1.00000
     49       2.4856      1.00000
     50       2.4856      1.00000
     51       2.8420      1.00000
     52       2.8420      1.00000
     53       2.8762      1.00000
     54       2.8762      1.00000
     55       2.9604      1.00000
     56       2.9604      1.00000
     57       3.0065      1.00000
     58       3.0065      1.00000
     59       3.1055      1.00000
     60       3.1055      1.00000
[...]
    130      10.7816      0.00000
    131      10.7883      0.00000
    132      10.7985      0.00000
    133      10.8088      0.00000
    134      10.8193      0.00000
    135      10.8283      0.00000
    136      10.8489      0.00000
    137      10.8670      0.00000
    138      10.8765      0.00000
    139      10.9021      0.00000
    140      10.9170      0.00000
    141      10.9398      0.00000
    142      10.9708      0.00000
    143      11.0647      0.00000
    144      11.1147      0.00000

 soft charge-density along one line, spin component           1
         0         1         2         3         4         5         6         7         8         9
 total charge-density along one line

 soft charge-density along one line, spin component           2
         0         1         2         3         4         5         6         7         8         9
 total charge-density along one line

------------------------ aborting loop because EDIFF is reached ----------------------------------------

 total charge

# of ion       s       p       d       f       tot
    1        1.999   5.696   0.490   0.189   8.374
    2        1.999   5.698   0.483   0.188   8.368
    3        1.999   5.698   0.483   0.188   8.368
    4        1.999   5.696   0.490   0.189   8.374
    5        1.998   5.696   0.481   0.186   8.361
    6        1.999   5.696   0.481   0.186   8.362
    7        0.321   0.478   4.890   0.000   5.689
    8        0.344   0.543   4.862   0.000   5.749
    9        0.321   0.478   4.890   0.000   5.689
   10        0.344   0.543   4.862   0.000   5.749
   11        0.394   0.564   8.328   0.000   9.286
   12        0.394   0.564   8.328   0.000   9.286
   13        1.562   3.455   0.000   0.000   5.017
   14        1.561   3.458   0.000   0.000   5.019
   15        1.561   3.466   0.000   0.000   5.027
   16        1.561   3.466   0.000   0.000   5.027
   17        1.561   3.458   0.000   0.000   5.019
   18        1.562   3.454   0.000   0.000   5.017
   19        1.564   3.457   0.000   0.000   5.021
   20        1.567   3.448   0.000   0.000   5.015
   21        1.564   3.457   0.000   0.000   5.021
   22        1.561   3.454   0.000   0.000   5.016
   23        1.556   3.461   0.000   0.000   5.017
   24        1.561   3.454   0.000   0.000   5.016
   25        1.561   3.458   0.000   0.000   5.018
   26        1.564   3.456   0.000   0.000   5.020
   27        1.567   3.448   0.000   0.000   5.015
   28        1.564   3.456   0.000   0.000   5.020
   29        1.561   3.458   0.000   0.000   5.018
   30        1.555   3.462   0.000   0.000   5.018
tot         42.223  99.577  39.068   1.125 181.993

 magnetization (x)

[...]

  FORCE on cell =-STRESS in cart. coord.  units (eV):
  Direction    XX          YY          ZZ          XY          YZ          ZX
  Alpha Z   974.62750   974.62750   974.62750
  Ewald   -4991.36978 -4991.36978 -5043.70154    19.29880    18.55415   -18.55415
  Hartree  1117.24942  1117.24942  1044.07782    19.43288    20.12633   -20.12633
  E(xc)   -1025.83830 -1025.83830 -1025.85498    -0.01144    -0.01405     0.01405
  Local    -659.63517  -659.63517  -525.46438   -39.21443   -38.71170    38.71170
  n-local   402.71310   403.01176   403.86552     0.03100     0.27687     0.07325
  augment   345.16803   345.16803   342.41883     0.07831     0.03517    -0.03417
  Kinetic  3837.78987  3836.66762  3830.46994     0.37246    -0.58081    -0.36244
  Fock        0.00000     0.00000     0.00000     0.00000     0.00000     0.00000
  Total       0.29287     0.29287     0.43871    -0.01361    -0.00296     0.00296
  in kB       1.31828     1.31828     1.97474    -0.06125    -0.01331     0.01331

 VOLUME and BASIS-vectors are now :
  energy-cutoff  :      520.00
  volume of cell :      355.94
      direct lattice vectors                 reciprocal lattice vectors
     3.908012623  3.908012623  0.000000000     0.127942268  0.127942268  0.000000000
    -3.908969629  3.908969629  3.885110443    -0.085273866  0.085273866  0.085797843
     3.907265226 -3.907265226  7.766806279     0.042655678 -0.042655678  0.085835269

  length of vectors
     5.526764453  6.756786979  9.531879294     0.180937691  0.148001805  0.104912855

 FORCES acting on ions
    electron-ion (+dipol)            ewald-force                    non-local-force                 convergence-correction
   0.451E+02 -.451E+02 0.117E+03   -.446E+02 0.446E+02 -.116E+03   -.392E+00 0.392E+00 -.983E+00   -.278E-01 0.278E-01 -.601E-01
   0.340E+02 -.340E+02 0.450E+02   -.337E+02 0.337E+02 -.447E+02   -.267E+00 0.267E+00 -.287E+00   -.225E-01 0.225E-01 -.217E-01
   -.340E+02 0.340E+02 -.450E+02   0.337E+02 -.337E+02 0.447E+02   0.267E+00 -.267E+00 0.287E+00   0.225E-01 -.225E-01 0.217E-01
   -.451E+02 0.451E+02 -.117E+03   0.446E+02 -.446E+02 0.116E+03   0.392E+00 -.392E+00 0.983E+00   0.278E-01 -.278E-01 0.601E-01
   0.509E-01 -.509E-01 -.733E+02   0.101E+00 -.101E+00 0.725E+02   -.145E+00 0.145E+00 0.689E+00   0.690E-02 -.690E-02 0.379E-01
   -.509E-01 0.509E-01 0.733E+02   -.101E+00 0.101E+00 -.725E+02   0.145E+00 -.145E+00 -.689E+00   -.690E-02 0.690E-02 -.379E-01
   -.131E+01 0.131E+01 -.290E+02   0.164E+01 -.164E+01 0.284E+02   -.322E+00 0.322E+00 0.733E+00   -.162E-02 0.162E-02 0.228E-01
   -.241E+02 0.241E+02 -.362E+02   0.238E+02 -.238E+02 0.358E+02   0.196E+00 -.196E+00 0.512E+00   0.243E-01 -.243E-01 0.442E-01
   0.131E+01 -.131E+01 0.290E+02   -.164E+01 0.164E+01 -.284E+02   0.322E+00 -.322E+00 -.733E+00   0.163E-02 -.163E-02 -.228E-01
   0.241E+02 -.241E+02 0.362E+02   -.238E+02 0.238E+02 -.358E+02   -.196E+00 0.196E+00 -.512E+00   -.243E-01 0.243E-01 -.442E-01
   0.344E+02 -.344E+02 0.962E+01   -.332E+02 0.332E+02 -.981E+01   -.117E+01 0.117E+01 0.221E+00   -.292E-01 0.292E-01 -.299E-01
   -.344E+02 0.344E+02 -.962E+01   0.332E+02 -.332E+02 0.981E+01   0.117E+01 -.117E+01 -.221E+00   0.292E-01 -.292E-01 0.299E-01
   0.113E+01 -.113E+01 -.532E+02   -.143E+01 0.143E+01 0.478E+02   0.307E+00 -.307E+00 0.539E+01   0.523E-02 -.523E-02 0.353E-01
   -.117E+02 0.117E+02 -.771E+02   0.114E+02 -.114E+02 0.722E+02   0.209E+00 -.209E+00 0.487E+01   0.111E-01 -.111E-01 0.424E-01
   -.947E+01 0.947E+01 -.224E+02   0.941E+01 -.941E+01 0.228E+02   0.565E-01 -.565E-01 -.408E+00   0.104E-01 -.104E-01 0.797E-02
   0.947E+01 -.947E+01 0.224E+02   -.941E+01 0.941E+01 -.228E+02   -.565E-01 0.565E-01 0.408E+00   -.104E-01 0.104E-01 -.797E-02
   0.117E+02 -.117E+02 0.771E+02   -.114E+02 0.114E+02 -.722E+02   -.209E+00 0.209E+00 -.487E+01   -.111E-01 0.111E-01 -.424E-01
   -.113E+01 0.113E+01 0.533E+02   0.143E+01 -.143E+01 -.478E+02   -.307E+00 0.307E+00 -.539E+01   -.524E-02 0.524E-02 -.353E-01
   -.141E+02 0.250E+02 -.245E+02   0.144E+02 -.271E+02 0.243E+02   -.328E+00 0.209E+01 0.874E-01   0.923E-02 -.834E-02 0.253E-01
   0.243E-04 -.155E-04 0.686E-03   -.796E-04 0.406E-04 0.161E-04   0.000E+00 0.000E+00 0.000E+00   0.240E-05 -.217E-05 -.785E-06
   0.141E+02 -.250E+02 0.245E+02   -.144E+02 0.271E+02 -.243E+02   0.328E+00 -.209E+01 -.874E-01   -.923E-02 0.834E-02 -.252E-01
   0.243E+02 -.528E+02 0.142E+02   -.248E+02 0.485E+02 -.138E+02   0.567E+00 0.431E+01 -.420E+00   -.155E-01 0.313E-01 -.228E-01
   0.180E-04 -.367E-04 0.743E-03   -.892E-04 0.467E-04 -.353E-04   -.237E-19 0.237E-19 -.322E-19   0.170E-05 -.112E-05 -.243E-05
   -.243E+02 0.528E+02 -.142E+02   0.248E+02 -.485E+02 0.138E+02   -.567E+00 -.431E+01 0.420E+00   0.155E-01 -.313E-01 0.228E-01
   -.528E+02 0.243E+02 -.142E+02   0.485E+02 -.248E+02 0.138E+02   0.431E+01 0.567E+00 0.420E+00   0.313E-01 -.155E-01 0.228E-01
   -.250E+02 0.141E+02 -.245E+02   0.271E+02 -.144E+02 0.243E+02   -.209E+01 0.328E+00 0.874E-01   0.834E-02 -.923E-02 0.253E-01
   0.155E-04 -.243E-04 0.686E-03   -.406E-04 0.796E-04 0.161E-04   -.136E-19 0.136E-19 -.136E-19   0.217E-05 -.240E-05 -.785E-06
   0.250E+02 -.141E+02 0.245E+02   -.271E+02 0.144E+02 -.243E+02   0.209E+01 -.328E+00 -.874E-01   -.834E-02 0.923E-02 -.252E-01
   0.528E+02 -.243E+02 0.142E+02   -.485E+02 0.248E+02 -.138E+02   -.431E+01 -.567E+00 -.420E+00   -.313E-01 0.155E-01 -.228E-01
   0.367E-04 -.180E-04 0.743E-03   -.467E-04 0.892E-04 -.353E-04   0.000E+00 0.000E+00 0.271E-19   0.112E-05 -.170E-05 -.243E-05
   -.356E-04 0.356E-04 0.531E-02   0.131E-12 -.108E-13 -.675E-13   -.888E-15 0.000E+00 0.555E-16   -.339E-05 0.339E-05 0.246E-05

 POSITION                                       TOTAL-FORCE (eV/Angst)
      3.95580     -0.04779      7.86903         0.058845     -0.058845      0.050259
      0.03209     -0.03209      7.79644         0.058452     -0.058452      0.007272
      3.87441      0.03360      3.85491        -0.058452      0.058452     -0.007272
     -0.04930      0.04930      3.78232        -0.058845      0.058845     -0.050259
      0.01033      3.89768      3.81204         0.013613     -0.013613     -0.049471
     -0.01109      0.01109      0.07251        -0.013613      0.013613      0.049471
      1.95683      1.95119      5.82225         0.008839     -0.008839      0.102607
     -1.95620      1.95620      5.82299         0.013355     -0.013355      0.099000
      1.94968     -1.94968      5.82910        -0.008839      0.008839     -0.102607
      1.95373      1.95428      9.71347        -0.013355      0.013355     -0.099000
      1.94491     -1.94491      9.70896        -0.037417      0.037417     -0.001515
      1.96159      1.94642      1.94238         0.037417     -0.037417      0.001515
     -1.95561      1.95561      3.92854         0.011922     -0.011922     -0.025434
      1.96148      1.94653      3.92356        -0.018996      0.018996     -0.061525
     -1.94879      1.94879      7.76703         0.009300     -0.009300     -0.014465
      1.94632      1.96169      7.76942        -0.009300      0.009300      0.014465
      1.94502     -1.94502      7.72779         0.018996     -0.018996      0.061525
      1.95314      1.95487     11.60792        -0.011922      0.011922      0.025434
      1.95062      3.93647      5.83911        -0.034463      0.001966     -0.017439
      1.95325      0.00075      5.82567         0.000000     -0.000000      0.000000
      1.95492      3.88202      9.69735         0.034463     -0.001966      0.017439
      1.94847      0.03466      9.69673         0.052945      0.013365     -0.026618
      1.95363      3.90839      1.94227         0.000000     -0.000000      0.000000
     -1.95093      3.87582      5.83973        -0.052945     -0.013365      0.026618
      0.03220      5.85895      5.83973         0.013365      0.052945      0.026618
     -0.02846      1.95739      5.83911        -0.001966      0.034463     -0.017439
      3.90726      1.95476      5.82567         0.000000     -0.000000      0.000000
      0.02600      1.95309      9.69735         0.001966     -0.034463      0.017439
      3.87335      1.95955      9.69673        -0.013365     -0.052945     -0.026618
     -0.00038      1.95439      1.94227         0.000000     -0.000000      0.000000
    total drift:                               -0.000039      0.000039      0.005312

  FREE ENERGIE OF THE ION-ELECTRON SYSTEM (eV)
  free  energy   TOTEN  =      -226.63735624 eV

  energy  without entropy=     -226.63735624  energy(sigma->0) =     -226.63735624

 total charge

[...]

 magnetization (x)

# of ion       s       p       d       f       tot
    1        0.000   0.001   0.008   0.004   0.013
    2        0.001   0.001   0.012   0.006   0.020
    3        0.001   0.001   0.012   0.006   0.020
    4        0.000   0.001   0.008   0.004   0.013
    5        0.000   0.001   0.007   0.004   0.012
    6        0.001   0.001   0.007   0.004   0.012
    7        0.026   0.023   3.723   0.000   3.772
    8        0.024   0.032   3.404   0.000   3.460
    9        0.026   0.023   3.723   0.000   3.772
   10        0.024   0.032   3.405   0.000   3.461
   11        0.012   0.003   1.689   0.000   1.704
   12        0.012   0.003   1.689   0.000   1.704
   13        0.005  -0.026   0.000   0.000  -0.021
   14        0.005  -0.023   0.000   0.000  -0.018
   15        0.002  -0.024   0.000   0.000  -0.022
   16        0.002  -0.024   0.000   0.000  -0.022
   17        0.005  -0.023   0.000   0.000  -0.018
   18        0.005  -0.026   0.000   0.000  -0.021
   19        0.005  -0.032   0.000   0.000  -0.026
   20        0.007  -0.061   0.000   0.000  -0.054
   21        0.005  -0.032   0.000   0.000  -0.026
   22        0.005  -0.018   0.000   0.000  -0.013
   23        0.007   0.034   0.000   0.000   0.041
   24        0.005  -0.018   0.000   0.000  -0.013
   25        0.005  -0.016   0.000   0.000  -0.011
   26        0.005  -0.034   0.000   0.000  -0.029
   27        0.007  -0.063   0.000   0.000  -0.055
   28        0.005  -0.034   0.000   0.000  -0.029
   29        0.005  -0.016   0.000   0.000  -0.011
   30        0.007   0.035   0.000   0.000   0.042
tot          0.221  -0.281  17.686   0.029  17.655

 BZINTS: Fermi energy:  8.156380;222.000000 electrons
         Band energy:-372.864589;  BLOECHL correction:  0.000000