 vasp.5.4.4.18Apr17-6-g9f103f2a35 (build Oct 03 2018 13:58:34) complex

 executed on             LinuxIFC date 2019.06.04  00:10:32

 INCAR:
 POTCAR:    PAW_PBE La 06Sep2000
 POTCAR:    PAW_PBE Mn 06Sep2000
 POTCAR:    PAW_PBE Ni 02Aug2007
 POTCAR:    PAW_PBE O 08Apr2002

 POTCAR:    PAW_PBE La 06Sep2000
   VRHFIN =La : [core=Kr4d]

   TITEL  = PAW_PBE La 06Sep2000
   POMASS =  138.900; ZVAL   =   11.000    mass and valenz
   ENMAX  =  219.292; ENMIN  =  164.469 eV

 POTCAR:    PAW_PBE Mn 06Sep2000
   VRHFIN =Mn: d6 s1

   TITEL  = PAW_PBE Mn 06Sep2000
   POMASS =   54.938; ZVAL   =    7.000    mass and valenz
   ENMAX  =  269.864; ENMIN  =  202.398 eV

 POTCAR:    PAW_PBE Ni 02Aug2007
   VRHFIN =Ni:

   TITEL  = PAW_PBE Ni 02Aug2007
   POMASS =   58.690; ZVAL   =   10.000    mass and valenz
   ENMAX  =  269.532; ENMIN  =  202.149 eV

 POTCAR:    PAW_PBE O 08Apr2002
   VRHFIN =O: s2p4

   TITEL  = PAW_PBE O 08Apr2002
   POMASS =   16.000; ZVAL   =    6.000    mass and valenz
   ENMAX  =  400.000; ENMIN  =  300.000 eV

 Optimization of the real space projectors (new method)

 maximal supplied QI-value         = 13.42
 optimisation between [QCUT,QGAM] = [ 11.67, 23.35] = [ 38.16,152.62] Ry
 Optimized for a Real-space Cutoff    1.63 Angstroem

   l    n(q)    QCUT    max X(q) W(low)/X(q) W(high)/X(q)  e(spline)
   0     11    11.673    13.882    0.27E-04    0.79E-05    0.11E-06
   0     11    11.673    12.184    0.39E-04    0.13E-04    0.19E-06
   1     11    11.673     4.523    0.73E-05    0.76E-05    0.12E-06
   1     11    11.673     4.424    0.87E-05    0.13E-04    0.19E-06
   2     10    11.673    52.481    0.65E-04    0.36E-04    0.18E-06
   2     10    11.673    38.501    0.61E-04    0.33E-04    0.17E-06
   3     10    11.673    65.631    0.17E-03    0.14E-03    0.37E-06
   3     10    11.673    56.854    0.17E-03    0.14E-03    0.37E-06
 Optimization of the real space projectors (new method)

[...]

   l    n(q)    QCUT    max X(q) W(low)/X(q) W(high)/X(q)  e(spline)
   2      9    11.539    60.317    0.19E-03    0.47E-04    0.16E-06
   2      9    11.539    55.921    0.19E-03    0.48E-04    0.16E-06
   0     10    11.539    51.690    0.80E-04    0.50E-04    0.24E-06
   0     10    11.539    30.015    0.73E-04    0.45E-04    0.22E-06
   1     10    11.539    18.849    0.87E-04    0.16E-03    0.71E-07
   1     10    11.539    14.624    0.73E-04    0.13E-03    0.64E-07
 Optimization of the real space projectors (new method)

 maximal supplied QI-value         = 24.76
 optimisation between [QCUT,QGAM] = [ 11.64, 23.27] = [ 37.91,151.63] Ry
 Optimized for a Real-space Cutoff    1.14 Angstroem

   l    n(q)    QCUT    max X(q) W(low)/X(q) W(high)/X(q)  e(spline)
   0      8    11.635    20.381    0.10E-03    0.33E-03    0.24E-06
   0      8    11.635    15.268    0.11E-03    0.35E-03    0.26E-06
   1      7    11.635     5.964    0.24E-03    0.31E-03    0.30E-06
   1      7    11.635     5.382    0.22E-03    0.25E-03    0.26E-06
  PAW_PBE La 06Sep2000                  :
  PAW_PBE Mn 06Sep2000                  :
  PAW_PBE Ni 02Aug2007                  :
  PAW_PBE O 08Apr2002                   :

 POSCAR: SCEL6_1_6_1_1_0_0/2
  positions in direct lattice
  velocities in cartesian coordinates
 exchange correlation table for  LEXCH =        8
   RHO(1)=    0.500       N(1)  =     2000
   RHO(2)=  100.500       N(2)  =     4000

 ion  position               nearest neighbor table
   1  0.000  0.500  0.167-  16 2.76  23 2.76  16 2.76  23 2.76  17 2.76  17 2.76  24 2.76  24 2.76
                            29 2.76  29 2.76  28 2.78  30 2.78  11 3.37  11 3.37  12 3.37  12 3.37
   2  0.000  0.000  0.331-  29 2.73  16 2.74  16 2.74  23 2.74  23 2.74  28 2.76  28 2.76  15 2.78
                            15 2.78  22 2.78  22 2.78  27 2.81  10 3.35  10 3.35  11 3.38  11 3.38
   3  0.000  0.500  0.491-  28 2.59  22 2.68  15 2.68  15 2.68  22 2.68  27 2.77  27 2.77  11 3.27
                            11 3.27   9 3.38   9 3.38   9 3.38   9 3.38
   4  0.000  0.000  0.667-  25 2.75  27 2.75  13 2.75  20 2.75  13 2.75  20 2.75  14 2.75  14 2.75
                            21 2.75  21 2.75  26 2.76  26 2.76   7 3.38   7 3.38   7 3.38   7 3.38
   5  0.000  0.500  0.842-  30 2.59  19 2.68  18 2.68  18 2.68  19 2.68  25 2.77  25 2.77  12 3.27
                            12 3.27   8 3.38   8 3.38   8 3.38   8 3.38
   6  0.000  0.000  0.002-  29 2.73  17 2.74  17 2.74  24 2.74  24 2.74  30 2.76  30 2.76  19 2.78
                            19 2.78  18 2.78  18 2.78  25 2.81  10 3.35  10 3.35  12 3.38  12 3.38
   7  0.500  0.500  0.667-  26 1.95  26 1.95  13 1.98  20 1.98  14 1.98  21 1.98   4 3.38   4 3.38
                             4 3.38   4 3.38
   8  0.500  0.000  0.833-  18 1.91  19 1.91  13 1.92  20 1.92  25 1.95  25 1.95   4 3.38   4 3.38
                             5 3.38   5 3.38   5 3.38   5 3.38   6 3.40   6 3.40
   9  0.500  0.000  0.500-  15 1.91  22 1.91  21 1.92  14 1.92  27 1.95  27 1.95   4 3.38   4 3.38
                             3 3.38   3 3.38   3 3.38   3 3.38   2 3.40   2 3.40
  10  0.500  0.000  0.167-  16 1.90  23 1.90  17 1.90  24 1.90  29 1.95  29 1.95   2 3.35   2 3.35
                             6 3.35   6 3.35   1 3.38   1 3.38   1 3.38   1 3.38
  11  0.500  0.500  0.332-  28 1.95  28 1.95  16 1.99  23 1.99  22 2.00  15 2.00   3 3.27   3 3.27
                             1 3.37   1 3.37   2 3.38   2 3.38   2 3.38   2 3.38
  12  0.500  0.500  0.001-  30 1.95  30 1.95  17 1.99  24 1.99  19 2.00  18 2.00   5 3.27   5 3.27
                             1 3.37   1 3.37   6 3.38   6 3.38   6 3.38   6 3.38
  13  0.500  0.756  0.751-   8 1.92   7 1.98   4 2.75   4 2.75
  14  0.500  0.244  0.583-   9 1.92   7 1.98   4 2.75   4 2.75
  15  0.500  0.754  0.419-   9 1.91  11 2.00   3 2.68   3 2.68   2 2.78   2 2.78
  16  0.500  0.243  0.248-  10 1.90  11 1.99   2 2.74   2 2.74   1 2.76   1 2.76
  17  0.500  0.757  0.085-  10 1.90  12 1.99   6 2.74   6 2.74   1 2.76   1 2.76
  18  0.500  0.246  0.914-   8 1.91  12 2.00   5 2.68   5 2.68   6 2.78   6 2.78
  19  0.500  0.754  0.914-   8 1.91  12 2.00   5 2.68   5 2.68   6 2.78   6 2.78
  20  0.500  0.244  0.751-   8 1.92   7 1.98   4 2.75   4 2.75
  21  0.500  0.756  0.583-   9 1.92   7 1.98   4 2.75   4 2.75
  22  0.500  0.246  0.419-   9 1.91  11 2.00   3 2.68   3 2.68   2 2.78   2 2.78
  23  0.500  0.757  0.248-  10 1.90  11 1.99   2 2.74   2 2.74   1 2.76   1 2.76
  24  0.500  0.243  0.085-  10 1.90  12 1.99   6 2.74   6 2.74   1 2.76   1 2.76
  25  0.000  0.000  0.832-   8 1.95   8 1.95   4 2.75   5 2.77   5 2.77   6 2.81
  26  0.000  0.500  0.667-   7 1.95   7 1.95   4 2.76   4 2.76
  27  0.000  0.000  0.501-   9 1.95   9 1.95   4 2.75   3 2.77   3 2.77   2 2.81
  28  0.000  0.500  0.335-  11 1.95  11 1.95   3 2.59   2 2.76   2 2.76   1 2.78
  29  0.000  0.000  0.167-  10 1.95  10 1.95   2 2.73   6 2.73   1 2.76   1 2.76
  30  0.000  0.500  0.999-  12 1.95  12 1.95   5 2.59   6 2.76   6 2.76   1 2.78

  LATTYP: Found a simple orthorhombic cell.
 ALAT       =     3.8974815179
 B/A-ratio  =     1.4165990958
 C/A-ratio  =     4.2494508076

  Lattice vectors:

 A1 = (   3.8974815179,   0.0000000000,   0.0000000000)
 A2 = (   0.0000000000,   3.9040558944,   3.9040558944)
 A3 = (   0.0000000000, -11.7112128071,  11.7112128071)

Analysis of symmetry for initial positions (statically):
 Subroutine PRICEL returns:
 Original cell was already a primitive cell.

 Routine SETGRP: Setting up the symmetry group for a
 simple orthorhombic supercell.

 Subroutine GETGRP returns: Found  8 space group operations
 (whereof  4 operations were pure point group operations)
 out of a pool of  8 trial point group operations.

The static configuration has the point symmetry C_2v.
 The point group associated with its full space group is D_2h.

Analysis of symmetry for dynamics (positions and initial velocities):
 Subroutine PRICEL returns:
 Original cell was already a primitive cell.

[...]

The dynamic configuration has the point symmetry C_2v.
 The point group associated with its full space group is D_2h.

Analysis of structural, dynamic, and magnetic symmetry:
 Subroutine PRICEL returns:
 Original cell was already a primitive cell.

 Routine SETGRP: Setting up the symmetry group for a
 simple orthorhombic supercell.

 Subroutine GETGRP returns: Found  8 space group operations
 (whereof  4 operations were pure point group operations)
 out of a pool of  8 trial point group operations.

The magnetic configuration has the point symmetry C_2v.
 The point group associated with its full space group is D_2h.

 Subroutine INISYM returns: Found  8 space group operations
 (whereof  4 operations are pure point group operations),
 and found     1 'primitive' translations

 KPOINTS: Automatic mesh

Automatic generation of k-mesh.
 generate k-points for:    5    4    1
Space group operators:
 irot       det(A)        alpha          n_x          n_y          n_z        tau_x        tau_y        tau_z
    1     1.000000     0.000001     1.000000     0.000000     0.000000     0.000000     0.000000     0.000000
    2     1.000000   180.000000     0.000000    -0.707107     0.707107     0.000000     0.000000     0.000000
    3    -1.000000   180.000000     0.000000     0.707107     0.707107     0.000000     0.000000     0.000000
    4    -1.000000   180.000000     1.000000     0.000000     0.000000     0.000000     0.000000     0.000000
    5    -1.000000     0.000001     1.000000     0.000000     0.000000     0.000000     0.000000     0.333333
    6    -1.000000   180.000000     0.000000    -0.707107     0.707107     0.000000     0.000000     0.333333
    7     1.000000   180.000000     0.000000     0.707107     0.707107     0.000000     0.000000     0.333333
    8     1.000000   180.000000     1.000000     0.000000     0.000000     0.000000     0.000000     0.333333

 Subroutine IBZKPT returns following result:

 Found      9 irreducible k-points:

 Following reciprocal coordinates:
            Coordinates               Weight
  0.000000  0.000000  0.000000      1.000000
  0.200000  0.000000  0.000000      2.000000
  0.400000  0.000000  0.000000      2.000000
  0.000000  0.250000  0.000000      2.000000
  0.200000  0.250000  0.000000      4.000000
  0.400000  0.250000  0.000000      4.000000
  0.000000  0.500000  0.000000      1.000000
  0.200000  0.500000  0.000000      2.000000
  0.400000  0.500000  0.000000      2.000000

 Following cartesian coordinates:
            Coordinates               Weight
  0.000000  0.000000  0.000000      1.000000
  0.051315  0.000000  0.000000      2.000000
  0.102630  0.000000  0.000000      2.000000
  0.000000  0.032018  0.032018      2.000000
  0.051315  0.032018  0.032018      4.000000
  0.102630  0.032018  0.032018      4.000000
  0.000000  0.064036  0.064036      1.000000
  0.051315  0.064036  0.064036      2.000000
  0.102630  0.064036  0.064036      2.000000

 TETIRR: Found     54 inequivalent tetrahedra from      120

 SYSTEM =  final
 POSCAR =  SCEL6_1_6_1_1_0_0/2

 Startparameter for this run:
   NWRITE =      2    write-flag & timer
   PREC   = accura    normal or accurate (medium, high low for compatibility)
[...]
     30      -7.6210      1.00000
     31      -7.6065      1.00000
     32      -7.5733      1.00000
     33      -7.5728      1.00000
     34      -7.5204      1.00000
     35      -7.4347      1.00000
     36      -7.4052      1.00000
     37      -7.3826      1.00000
     38      -7.3318      1.00000
     39      -7.2775      1.00000
     40      -7.2531      1.00000
     41      -7.2379      1.00000
     42      -7.1430      1.00000
     43       0.4922      1.00000
     44       0.5644      1.00000
     45       0.6835      1.00000
     46       0.8668      1.00000
     47       0.9004      1.00000
     48       1.1939      1.00000
     49       1.3513      1.00000
     50       1.4361      1.00000
     51       1.4635      1.00000
     52       1.8646      1.00000
     53       1.8660      1.00000
     54       2.0550      1.00000
     55       2.0623      1.00000
     56       2.0837      1.00000
     57       2.0931      1.00000
     58       2.1193      1.00000
     59       2.2134      1.00000
     60       2.2671      1.00000
[...]
    130      10.4378      0.00000
    131      10.4864      0.00000
    132      10.5559      0.00000
    133      10.5844      0.00000
    134      10.6296      0.00000
    135      10.6513      0.00000
    136      10.6808      0.00000
    137      10.7086      0.00000
    138      10.7463      0.00000
    139      10.7547      0.00000
    140      10.7931      0.00000
    141      10.8153      0.00000
    142      10.8274      0.00000
    143      10.8526      0.00000
    144      10.8615      0.00000

[...]

 spin component 2

[...]

 k-point     9 :       0.4000    0.5000    0.0000
  band No.  band energies     occupation
      1     -24.2163      1.00000
      2     -24.1218      1.00000
      3     -24.1213      1.00000
      4     -24.1212      1.00000
      5     -24.1200      1.00000
      6     -24.1122      1.00000
      7     -10.9560      1.00000
      8     -10.8979      1.00000
      9     -10.8762      1.00000
     10     -10.7723      1.00000
     11     -10.6345      1.00000
     12     -10.5996      1.00000
     13     -10.5498      1.00000
     14     -10.4338      1.00000
     15     -10.4002      1.00000
     16     -10.3600      1.00000
     17     -10.2023      1.00000
     18     -10.0699      1.00000
     19     -10.0230      1.00000
     20      -9.9323      1.00000
     21      -9.8177      1.00000
     22      -9.7912      1.00000
     23      -9.7284      1.00000
     24      -9.6989      1.00000
     25      -7.9371      1.00000
     26      -7.8401      1.00000
     27      -7.6902      1.00000
     28      -7.6256      1.00000
     29      -7.6182      1.00000
     30      -7.5786      1.00000
     31      -7.5153      1.00000
     32      -7.5023      1.00000
     33      -7.4159      1.00000
     34      -7.4085      1.00000
     35      -7.3782      1.00000
     36      -7.3395      1.00000
     37      -7.2910      1.00000
     38      -7.2830      1.00000
     39      -7.2694      1.00000
     40      -7.2571      1.00000
     41      -7.0976      1.00000
     42      -7.0535      1.00000
     43       1.6582      1.00000
     44       1.6936      1.00000
     45       1.7018      1.00000
     46       1.7193      1.00000
     47       1.7909      1.00000
     48       1.7935      1.00000
     49       2.0582      1.00000
     50       2.0979      1.00000
     51       2.1881      1.00000
     52       2.2292      1.00000
     53       2.6811      1.00000
     54       2.8647      1.00000
     55       2.8700      1.00000
     56       2.9438      1.00000
     57       2.9730      1.00000
     58       3.0436      1.00000
     59       3.0495      1.00000
     60       3.1290      1.00000
[...]
    130      10.7835      0.00000
    131      10.7856      0.00000
    132      10.7868      0.00000
    133      10.7953      0.00000
    134      10.8024      0.00000
    135      10.8030      0.00000
    136      10.8130      0.00000
    137      10.8284      0.00000
    138      10.8389      0.00000
    139      10.8578      0.00000
    140      10.8672      0.00000
    141      10.9132      0.00000
    142      10.9320      0.00000
    143      11.0089      0.00000
    144      11.1398      0.00000

 soft charge-density along one line, spin component           1
         0         1         2         3         4         5         6         7         8         9
 total charge-density along one line

 soft charge-density along one line, spin component           2
         0         1         2         3         4         5         6         7         8         9
 total charge-density along one line

------------------------ aborting loop because EDIFF is reached ----------------------------------------

 total charge

# of ion       s       p       d       f       tot
    1        1.998   5.696   0.475   0.185   8.354
    2        1.999   5.696   0.478   0.186   8.359
    3        2.001   5.696   0.494   0.191   8.381
    4        1.999   5.699   0.485   0.189   8.372
    5        2.001   5.696   0.494   0.191   8.381
    6        1.999   5.696   0.478   0.186   8.359
    7        0.300   0.445   4.890   0.000   5.635
    8        0.340   0.531   4.872   0.000   5.743
    9        0.340   0.531   4.871   0.000   5.743
   10        0.351   0.555   4.871   0.000   5.777
   11        0.389   0.554   8.319   0.000   9.262
   12        0.389   0.554   8.319   0.000   9.262
   13        1.563   3.460   0.000   0.000   5.023
   14        1.563   3.460   0.000   0.000   5.023
   15        1.562   3.457   0.000   0.000   5.019
   16        1.561   3.459   0.000   0.000   5.019
   17        1.561   3.459   0.000   0.000   5.019
   18        1.562   3.457   0.000   0.000   5.019
   19        1.562   3.457   0.000   0.000   5.019
   20        1.563   3.460   0.000   0.000   5.023
   21        1.563   3.460   0.000   0.000   5.023
   22        1.562   3.457   0.000   0.000   5.019
   23        1.561   3.459   0.000   0.000   5.019
   24        1.561   3.459   0.000   0.000   5.019
   25        1.565   3.458   0.000   0.000   5.023
   26        1.563   3.453   0.000   0.000   5.016
   27        1.565   3.458   0.000   0.000   5.023
   28        1.554   3.457   0.000   0.000   5.011
   29        1.566   3.460   0.000   0.000   5.026
   30        1.554   3.457   0.000   0.000   5.011
tot         42.217  99.595  39.045   1.126 181.983

 magnetization (x)

[...]

  FORCE on cell =-STRESS in cart. coord.  units (eV):
  Direction    XX          YY          ZZ          XY          YZ          ZX
  Alpha Z   973.39515   973.39515   973.39515
  Ewald   -4909.52940 -5043.98097 -5043.98097    -0.00000    56.78894    -0.00000
  Hartree  1183.46791  1060.27960  1060.27960     0.00000    61.25950    -0.00000
  E(xc)   -1025.55682 -1025.85717 -1025.85717     0.00000    -0.02682    -0.00000
  Local    -803.14217  -545.68440  -545.68440     0.00000  -117.80734     0.00000
  n-local   403.19883   402.27195   402.27089    -0.47784     0.50073    -0.47433
  augment   344.59599   343.61450   343.61450    -0.00000    -0.02480     0.00000
  Kinetic  3834.53866  3836.16474  3836.16170     0.87527    -0.72119     0.87695
  Fock        0.00000     0.00000     0.00000     0.00000     0.00000     0.00000
  Total       0.96815     0.20135     0.20135     0.00000    -0.03115     0.00000
  in kB       4.35232     0.90515     0.90515     0.00000    -0.14003     0.00000

 VOLUME and BASIS-vectors are now :
  energy-cutoff  :      520.00
  volume of cell :      356.40
      direct lattice vectors                 reciprocal lattice vectors
     3.897481518  0.000000000  0.000000000     0.256575944  0.000000000  0.000000000
     0.000000000  3.904055894  3.904055894     0.000000000  0.128071937  0.128071937
     0.000000000-11.711212807 11.711212807     0.000000000 -0.042694126  0.042694126

  length of vectors
     3.897481518  5.521168794 16.562155984     0.256575944  0.181121070  0.060378613

 FORCES acting on ions
    electron-ion (+dipol)            ewald-force                    non-local-force                 convergence-correction
   -.816E-15 0.619E-03 -.619E-03   -.704E-14 0.312E-03 -.312E-03   0.000E+00 0.217E-18 0.434E-18   0.204E-13 -.450E-05 0.450E-05
   -.982E-15 0.517E+02 -.517E+02   0.272E-13 -.514E+02 0.514E+02   0.000E+00 -.231E+00 0.231E+00   0.195E-13 0.981E-02 -.981E-02
   -.288E-14 0.133E+03 -.133E+03   -.163E-13 -.132E+03 0.132E+03   0.000E+00 -.106E+01 0.106E+01   0.172E-13 -.358E-01 0.358E-01
   -.520E-14 0.600E-03 -.600E-03   -.600E-14 0.332E-03 -.332E-03   0.000E+00 0.678E-19 -.678E-19   0.151E-13 -.487E-05 0.487E-05
   -.986E-14 -.133E+03 0.133E+03   -.904E-14 0.132E+03 -.132E+03   0.000E+00 0.106E+01 -.106E+01   0.197E-13 0.358E-01 -.358E-01
   -.344E-14 -.517E+02 0.517E+02   -.421E-14 0.514E+02 -.514E+02   0.000E+00 0.231E+00 -.231E+00   0.255E-13 -.980E-02 0.980E-02
   0.453E-13 -.781E-04 0.781E-04   0.284E-14 0.264E-03 -.264E-03   0.000E+00 0.847E-21 0.254E-20   0.181E-13 -.348E-05 0.348E-05
   0.663E-13 -.509E+02 0.509E+02   0.499E-14 0.506E+02 -.506E+02   0.000E+00 0.280E+00 -.280E+00   0.106E-13 0.116E-01 -.116E-01
   0.664E-13 0.509E+02 -.509E+02   -.677E-14 -.506E+02 0.506E+02   0.000E+00 -.280E+00 0.280E+00   0.186E-14 -.116E-01 0.116E-01
   0.618E-13 -.845E-04 0.845E-04   0.819E-14 0.271E-03 -.271E-03   0.000E+00 0.339E-20 0.508E-20   0.812E-14 -.321E-05 0.321E-05
   0.261E-12 0.313E+02 -.313E+02   0.292E-13 -.310E+02 0.310E+02   0.000E+00 -.287E+00 0.287E+00   0.638E-13 0.258E-02 -.258E-02
   0.283E-12 -.313E+02 0.313E+02   -.248E-14 0.310E+02 -.310E+02   0.000E+00 0.287E+00 -.287E+00   0.535E-13 -.257E-02 0.257E-02
   0.115E-12 -.171E+02 0.495E+02   -.149E-13 0.164E+02 -.519E+02   0.000E+00 0.704E+00 0.235E+01   0.266E-13 0.822E-02 0.243E-01
   0.113E-12 0.171E+02 -.495E+02   0.854E-14 -.164E+02 0.519E+02   0.000E+00 -.704E+00 -.235E+01   0.153E-13 -.822E-02 -.243E-01
   0.115E-12 0.316E+02 -.791E+02   -.486E-14 -.308E+02 0.738E+02   0.434E-18 -.787E+00 0.521E+01   0.291E-13 -.524E-02 0.893E-01
   0.116E-12 0.107E+02 0.191E+02   0.116E-13 -.106E+02 -.134E+02   0.217E-18 -.678E-01 -.546E+01   0.204E-14 0.583E-03 -.109E+00
   0.123E-12 -.107E+02 -.191E+02   -.193E-13 0.106E+02 0.134E+02   0.217E-18 0.678E-01 0.546E+01   0.213E-13 -.587E-03 0.109E+00
   0.121E-12 -.316E+02 0.791E+02   0.159E-13 0.308E+02 -.738E+02   0.434E-18 0.787E+00 -.521E+01   0.119E-13 0.525E-02 -.893E-01
   0.112E-12 -.791E+02 0.316E+02   -.941E-14 0.738E+02 -.308E+02   -.434E-18 0.521E+01 -.787E+00   0.135E-13 0.893E-01 -.525E-02
   0.112E-12 -.495E+02 0.171E+02   0.185E-13 0.519E+02 -.164E+02   0.000E+00 -.235E+01 -.704E+00   0.148E-13 -.243E-01 -.822E-02
   0.111E-12 0.495E+02 -.171E+02   -.475E-14 -.519E+02 0.164E+02   0.000E+00 0.235E+01 0.704E+00   0.795E-14 0.243E-01 0.822E-02
   0.110E-12 0.791E+02 -.316E+02   -.160E-13 -.738E+02 0.308E+02   -.434E-18 -.521E+01 0.787E+00   0.108E-14 -.893E-01 0.524E-02
   0.108E-12 -.191E+02 -.107E+02   -.241E-13 0.134E+02 0.106E+02   -.217E-18 0.546E+01 0.678E-01   0.116E-13 0.109E+00 -.583E-03
   0.117E-12 0.191E+02 0.107E+02   0.814E-15 -.134E+02 -.106E+02   -.217E-18 -.546E+01 -.678E-01   0.192E-13 -.109E+00 0.587E-03
   -.189E-14 -.436E+02 0.436E+02   0.123E-13 0.436E+02 -.436E+02   0.000E+00 -.449E-01 0.449E-01   0.145E-13 0.984E-02 -.984E-02
   -.232E-14 0.701E-03 -.701E-03   -.941E-15 0.176E-03 -.176E-03   0.000E+00 -.678E-20 -.678E-20   0.878E-14 -.297E-05 0.297E-05
   -.203E-14 0.436E+02 -.436E+02   0.905E-14 -.436E+02 0.436E+02   0.000E+00 0.449E-01 -.449E-01   0.200E-13 -.984E-02 0.984E-02
   -.259E-14 0.171E+02 -.171E+02   -.112E-14 -.164E+02 0.164E+02   0.000E+00 -.704E+00 0.704E+00   0.796E-14 0.134E-03 -.134E-03
   -.493E-14 0.704E-03 -.704E-03   -.536E-14 0.178E-03 -.178E-03   0.000E+00 -.136E-19 -.136E-19   0.116E-13 -.274E-05 0.274E-05
   -.491E-14 -.171E+02 0.171E+02   -.943E-14 0.164E+02 -.164E+02   0.000E+00 0.704E+00 -.704E+00   0.300E-14 -.131E-03 0.131E-03
   0.212E-11 0.528E-02 -.528E-02   -.129E-13 0.355E-13 -.711E-13   0.000E+00 0.888E-15 -.167E-14   0.514E-12 0.354E-05 -.354E-05

 POSITION                                       TOTAL-FORCE (eV/Angst)
      0.00000      0.00016      3.90390         0.000000      0.000000      0.000000
      0.00000     -3.88150      3.88150         0.000000      0.063492     -0.063492
      0.00000     -3.79659      7.70064         0.000000      0.148934     -0.148934
      0.00000     -7.80748      7.80748         0.000000      0.000000      0.000000
      0.00000     -7.91431     11.81836         0.000000     -0.148934      0.148934
      0.00000     -0.02224      0.02224         0.000000     -0.063492      0.063492
      1.94874     -5.85545      9.75950         0.000000      0.000000      0.000000
      1.94874     -9.75954      9.75954         0.000000     -0.027206      0.027206
      1.94874     -5.85541      5.85541         0.000000      0.027206     -0.027206
      1.94874     -1.95187      1.95187         0.000000      0.000000      0.000000
      1.94874     -1.93997      5.84402         0.000000      0.044789     -0.044789
      1.94874      1.94029      1.96377         0.000000     -0.044789      0.044789
      1.94874     -5.83935     11.74393         0.000000      0.032714     -0.062838
      1.94874     -5.87155      7.77508         0.000000     -0.032714      0.062838
      1.94874     -1.96278      7.84851         0.000000     -0.008104      0.030596
      1.94874     -1.95402      3.85111         0.000000     -0.011591      0.057814
      1.94874      1.95434      3.95669         0.000000      0.011591     -0.057814
      1.94874     -9.74811     11.67050         0.000000      0.008104     -0.030596
      1.94874     -7.76644     13.65217         0.000000      0.030596     -0.008104
      1.94874     -7.83987      9.74340         0.000000      0.062838     -0.032714
      1.94874     -3.87102      9.77560         0.000000     -0.062838      0.032714
      1.94874     -3.94445      5.86684         0.000000     -0.030596      0.008104
      1.94874      0.05295      5.85808         0.000000     -0.057814      0.011591
      1.94874     -0.05263      1.94971         0.000000      0.057814     -0.011591
      0.00000     -9.74852      9.74852         0.000000     -0.039083      0.039083
      0.00000     -5.85545      9.75950         0.000000      0.000000      0.000000
      0.00000     -5.86643      5.86643         0.000000      0.039083     -0.039083
      0.00000     -1.96684      5.87090         0.000000     -0.044815      0.044815
      0.00000     -1.95187      1.95187         0.000000      0.000000      0.000000
      0.00000     -9.74405     13.64811         0.000000      0.044815     -0.044815
    total drift:                                0.000000      0.005282     -0.005282

  FREE ENERGIE OF THE ION-ELECTRON SYSTEM (eV)
  free  energy   TOTEN  =      -226.65183251 eV

  energy  without entropy=     -226.65183251  energy(sigma->0) =     -226.65183251

 total charge

[...]

 magnetization (x)

# of ion       s       p       d       f       tot
    1        0.001   0.000   0.009   0.004   0.014
    2        0.001   0.000   0.008   0.004   0.013
    3        0.001   0.001   0.010   0.005   0.016
    4        0.001   0.001   0.013   0.007   0.023
    5        0.001   0.001   0.010   0.005   0.016
    6        0.001   0.000   0.008   0.004   0.013
    7        0.020   0.019   3.851   0.000   3.891
    8        0.025   0.029   3.485   0.000   3.539
    9        0.025   0.029   3.485   0.000   3.539
   10        0.027   0.034   3.373   0.000   3.434
   11        0.012   0.003   1.705   0.000   1.720
   12        0.012   0.003   1.705   0.000   1.720
   13        0.005  -0.033   0.000   0.000  -0.028
   14        0.005  -0.033   0.000   0.000  -0.028
   15        0.006  -0.013   0.000   0.000  -0.008
   16        0.005  -0.006   0.000   0.000  -0.001
   17        0.005  -0.006   0.000   0.000  -0.001
   18        0.006  -0.013   0.000   0.000  -0.008
   19        0.006  -0.013   0.000   0.000  -0.008
   20        0.005  -0.033   0.000   0.000  -0.028
   21        0.005  -0.033   0.000   0.000  -0.028
   22        0.006  -0.013   0.000   0.000  -0.008
   23        0.005  -0.006   0.000   0.000  -0.001
   24        0.005  -0.006   0.000   0.000  -0.001
   25        0.005  -0.052   0.000   0.000  -0.047
   26        0.004  -0.054   0.000   0.000  -0.050
   27        0.005  -0.052   0.000   0.000  -0.047
   28        0.006   0.022   0.000   0.000   0.028
   29        0.005  -0.061   0.000   0.000  -0.055
   30        0.006   0.022   0.000   0.000   0.027
tot          0.217  -0.263  17.663   0.028  17.646

 BZINTS: Fermi energy:  7.800554;222.000000 electrons
         Band energy:-375.848135;  BLOECHL correction: -0.146727