 vasp.5.4.4.18Apr17-6-g9f103f2a35 (build Oct 03 2018 13:58:34) complex

 executed on             LinuxIFC date 2019.06.04  01:34:05

 INCAR:
 POTCAR:    PAW_PBE La 06Sep2000
 POTCAR:    PAW_PBE Mn 06Sep2000
 POTCAR:    PAW_PBE Ni 02Aug2007
 POTCAR:    PAW_PBE O 08Apr2002

 POTCAR:    PAW_PBE La 06Sep2000
   VRHFIN =La : [core=Kr4d]

   TITEL  = PAW_PBE La 06Sep2000
   POMASS =  138.900; ZVAL   =   11.000    mass and valenz
   ENMAX  =  219.292; ENMIN  =  164.469 eV

 POTCAR:    PAW_PBE Mn 06Sep2000
   VRHFIN =Mn: d6 s1

   TITEL  = PAW_PBE Mn 06Sep2000
   POMASS =   54.938; ZVAL   =    7.000    mass and valenz
   ENMAX  =  269.864; ENMIN  =  202.398 eV

 POTCAR:    PAW_PBE Ni 02Aug2007
   VRHFIN =Ni:

   TITEL  = PAW_PBE Ni 02Aug2007
   POMASS =   58.690; ZVAL   =   10.000    mass and valenz
   ENMAX  =  269.532; ENMIN  =  202.149 eV

 POTCAR:    PAW_PBE O 08Apr2002
   VRHFIN =O: s2p4

   TITEL  = PAW_PBE O 08Apr2002
   POMASS =   16.000; ZVAL   =    6.000    mass and valenz
   ENMAX  =  400.000; ENMIN  =  300.000 eV

 Optimization of the real space projectors (new method)

 maximal supplied QI-value         = 13.42
 optimisation between [QCUT,QGAM] = [ 11.67, 23.35] = [ 38.16,152.62] Ry
 Optimized for a Real-space Cutoff    1.63 Angstroem

   l    n(q)    QCUT    max X(q) W(low)/X(q) W(high)/X(q)  e(spline)
   0     11    11.673    13.882    0.27E-04    0.79E-05    0.11E-06
   0     11    11.673    12.184    0.39E-04    0.13E-04    0.19E-06
   1     11    11.673     4.523    0.73E-05    0.76E-05    0.12E-06
   1     11    11.673     4.424    0.87E-05    0.13E-04    0.19E-06
   2     10    11.673    52.481    0.65E-04    0.36E-04    0.18E-06
   2     10    11.673    38.501    0.61E-04    0.33E-04    0.17E-06
   3     10    11.673    65.631    0.17E-03    0.14E-03    0.37E-06
   3     10    11.673    56.854    0.17E-03    0.14E-03    0.37E-06
 Optimization of the real space projectors (new method)

[...]

   l    n(q)    QCUT    max X(q) W(low)/X(q) W(high)/X(q)  e(spline)
   2      9    11.539    60.317    0.19E-03    0.47E-04    0.16E-06
   2      9    11.539    55.921    0.19E-03    0.48E-04    0.16E-06
   0     10    11.539    51.690    0.80E-04    0.50E-04    0.24E-06
   0     10    11.539    30.015    0.73E-04    0.45E-04    0.22E-06
   1     10    11.539    18.849    0.87E-04    0.16E-03    0.71E-07
   1     10    11.539    14.624    0.73E-04    0.13E-03    0.64E-07
 Optimization of the real space projectors (new method)

 maximal supplied QI-value         = 24.76
 optimisation between [QCUT,QGAM] = [ 11.64, 23.27] = [ 37.91,151.63] Ry
 Optimized for a Real-space Cutoff    1.14 Angstroem

   l    n(q)    QCUT    max X(q) W(low)/X(q) W(high)/X(q)  e(spline)
   0      8    11.635    20.381    0.10E-03    0.33E-03    0.24E-06
   0      8    11.635    15.268    0.11E-03    0.35E-03    0.26E-06
   1      7    11.635     5.964    0.24E-03    0.31E-03    0.30E-06
   1      7    11.635     5.382    0.22E-03    0.25E-03    0.26E-06
  PAW_PBE La 06Sep2000                  :
  PAW_PBE Mn 06Sep2000                  :
  PAW_PBE Ni 02Aug2007                  :
  PAW_PBE O 08Apr2002                   :

 POSCAR: SCEL6_1_2_3_0_0_0/4
  positions in direct lattice
  velocities in cartesian coordinates
 exchange correlation table for  LEXCH =        8
   RHO(1)=    0.500       N(1)  =     2000
   RHO(2)=  100.500       N(2)  =     4000

 ion  position               nearest neighbor table
   1  0.000  0.509  0.328-  27 2.67  17 2.70  17 2.70  21 2.72  21 2.72  30 2.77  29 2.77  14 2.80
                            14 2.80  23 2.82  23 2.82  10 3.29  10 3.29  12 3.36  12 3.36  11 3.36
   2  0.000  0.994  0.660-  29 2.64  20 2.67  20 2.67  26 2.70  13 2.71  13 2.71  25 2.76  16 2.78
                            16 2.78  22 2.79  22 2.79  28 2.82  11 3.29  11 3.29   7 3.36   7 3.36
   3  0.000  0.499  0.012-  30 2.63  21 2.63  21 2.63  27 2.64  18 2.75  18 2.75  15 2.75  15 2.75
                            10 3.28  10 3.28  12 3.29  12 3.29
   4  0.000  0.991  0.328-  27 2.67  17 2.70  17 2.70  24 2.72  24 2.72  30 2.77  29 2.77  14 2.80
                            14 2.80  20 2.82  20 2.82  10 3.29  10 3.29  12 3.36  12 3.36  11 3.36
   5  0.000  0.506  0.660-  29 2.64  23 2.67  23 2.67  26 2.70  13 2.71  13 2.71  25 2.76  16 2.78
                            16 2.78  19 2.79  19 2.79  28 2.82  11 3.29  11 3.29   7 3.36   7 3.36
   6  0.000  0.001  0.012-  30 2.63  24 2.63  24 2.63  27 2.64  18 2.75  18 2.75  15 2.75  15 2.75
                            10 3.28  10 3.28  12 3.29  12 3.29
   7  0.500  0.250  0.499-  14 1.87  23 1.89  20 1.89  26 1.94  26 1.94  16 1.96   2 3.36   2 3.36
                             5 3.36   5 3.36
   8  0.500  0.750  0.834-  15 1.88  13 1.92  25 1.94  25 1.94  19 1.94  22 1.94   5 3.39   5 3.39
                             2 3.39   2 3.39
   9  0.500  0.250  0.834-  18 1.88  28 1.94  28 1.94  16 1.94  19 1.94  22 1.94
  10  0.500  0.750  0.166-  27 1.94  27 1.94  24 1.95  21 1.95  17 1.96  15 1.98   6 3.28   6 3.28
                             3 3.28   3 3.28   4 3.29   4 3.29   1 3.29   1 3.29
  11  0.500  0.750  0.500-  29 1.94  29 1.94  17 1.94  13 1.98  20 1.99  23 1.99   5 3.29   5 3.29
                             2 3.29   2 3.29   4 3.36   4 3.36   1 3.36   1 3.36
  12  0.500  0.250  0.168-  24 1.94  21 1.94  30 1.94  30 1.94  14 1.99  18 2.02   6 3.29   6 3.29
                             3 3.29   3 3.29   4 3.36   4 3.36   1 3.36   1 3.36
  13  0.500  0.750  0.670-   8 1.92  11 1.98   5 2.71   5 2.71   2 2.71   2 2.71
  14  0.500  0.250  0.338-   7 1.87  12 1.99   1 2.80   1 2.80   4 2.80   4 2.80
  15  0.500  0.750  0.996-   8 1.88  10 1.98   3 2.75   3 2.75   6 2.75   6 2.75
  16  0.500  0.250  0.667-   9 1.94   7 1.96   2 2.78   2 2.78   5 2.78   5 2.78
  17  0.500  0.750  0.334-  11 1.94  10 1.96   4 2.70   4 2.70   1 2.70   1 2.70
  18  0.500  0.250  0.995-   9 1.88  12 2.02   3 2.75   3 2.75   6 2.75   6 2.75
  19  0.500  0.500  0.832-   9 1.94   8 1.94   5 2.79   5 2.79
  20  0.500  0.006  0.503-   7 1.89  11 1.99   2 2.67   2 2.67   4 2.82   4 2.82
  21  0.500  0.499  0.165-  12 1.94  10 1.95   3 2.63   3 2.63   1 2.72   1 2.72
  22  0.500  0.000  0.832-   9 1.94   8 1.94   2 2.79   2 2.79
  23  0.500  0.494  0.503-   7 1.89  11 1.99   5 2.67   5 2.67   1 2.82   1 2.82
  24  0.500  0.001  0.165-  12 1.94  10 1.95   6 2.63   6 2.63   4 2.72   4 2.72
  25  0.000  0.750  0.832-   8 1.94   8 1.94   2 2.76   5 2.76
  26  0.000  0.250  0.503-   7 1.94   7 1.94   5 2.70   2 2.70
  27  0.000  0.750  0.165-  10 1.94  10 1.94   6 2.64   3 2.64   4 2.67   1 2.67
  28  0.000  0.250  0.832-   9 1.94   9 1.94   2 2.82   5 2.82
  29  0.000  0.750  0.503-  11 1.94  11 1.94   5 2.64   2 2.64   4 2.77   1 2.77
  30  0.000  0.250  0.165-  12 1.94  12 1.94   6 2.63   3 2.63   1 2.77   4 2.77

  LATTYP: Found a simple orthorhombic cell.
 ALAT       =     3.8778679177
 B/A-ratio  =     2.0040179086
 C/A-ratio  =     3.0081471437

  Lattice vectors:

 A1 = (   3.8778679177,   0.0000000000,   0.0000000000)
 A2 = (   0.0000000000,   7.7713167543,   0.0000035788)
 A3 = (   0.0000000000,   0.0000053712,  11.6651973002)

Analysis of symmetry for initial positions (statically):
 Subroutine PRICEL returns:
 Original cell was already a primitive cell.

 Routine SETGRP: Setting up the symmetry group for a
 simple orthorhombic supercell.

 Subroutine GETGRP returns: Found  2 space group operations
 (whereof  2 operations were pure point group operations)
 out of a pool of  8 trial point group operations.

The static configuration has the point symmetry C_1h.

Analysis of symmetry for dynamics (positions and initial velocities):
 Subroutine PRICEL returns:
 Original cell was already a primitive cell.

[...]

The dynamic configuration has the point symmetry C_1h.

Analysis of structural, dynamic, and magnetic symmetry:
 Subroutine PRICEL returns:
 Original cell was already a primitive cell.

 Routine SETGRP: Setting up the symmetry group for a
 simple orthorhombic supercell.

 Subroutine GETGRP returns: Found  2 space group operations
 (whereof  2 operations were pure point group operations)
 out of a pool of  8 trial point group operations.

The magnetic configuration has the point symmetry C_1h.

 Subroutine INISYM returns: Found  2 space group operations
 (whereof  2 operations are pure point group operations),
 and found     1 'primitive' translations

 KPOINTS: Automatic mesh

Automatic generation of k-mesh.
 generate k-points for:    5    3    2
Space group operators:
 irot       det(A)        alpha          n_x          n_y          n_z        tau_x        tau_y        tau_z
    1     1.000000     0.000000     1.000000     0.000000     0.000000     0.000000     0.000000     0.000000
    2    -1.000000   180.000000     1.000000     0.000000     0.000000     0.000000     0.000000     0.000000

 Subroutine IBZKPT returns following result:

 Found     12 irreducible k-points:

 Following reciprocal coordinates:
            Coordinates               Weight
  0.000000  0.000000  0.000000      1.000000
  0.200000  0.000000  0.000000      2.000000
  0.400000  0.000000  0.000000      2.000000
  0.000000  0.333333  0.000000      2.000000
  0.200000  0.333333  0.000000      4.000000
  0.400000  0.333333  0.000000      4.000000
  0.000000  0.000000  0.500000      1.000000
  0.200000  0.000000  0.500000      2.000000
  0.400000  0.000000  0.500000      2.000000
  0.000000  0.333333  0.500000      2.000000
  0.200000  0.333333  0.500000      4.000000
  0.400000  0.333333  0.500000      4.000000

 Following cartesian coordinates:
            Coordinates               Weight
  0.000000  0.000000  0.000000      1.000000
  0.051575  0.000000  0.000000      2.000000
  0.103149  0.000000  0.000000      2.000000
  0.000000  0.042893 -0.000000      2.000000
  0.051575  0.042893 -0.000000      4.000000
  0.103149  0.042893 -0.000000      4.000000
  0.000000 -0.000000  0.042863      1.000000
  0.051575 -0.000000  0.042863      2.000000
  0.103149 -0.000000  0.042863      2.000000
  0.000000  0.042893  0.042863      2.000000
  0.051575  0.042893  0.042863      4.000000
  0.103149  0.042893  0.042863      4.000000

 TETIRR: Found     87 inequivalent tetrahedra from      180

 SYSTEM =  final
 POSCAR =  SCEL6_1_2_3_0_0_0/4

 Startparameter for this run:
   NWRITE =      2    write-flag & timer
   PREC   = accura    normal or accurate (medium, high low for compatibility)
   ISTART =      0    job   : 0-new  1-cont  2-samecut
   ICHARG =      1    charge: 1-file 2-atom 10-const
   ISPIN  =      2    spin polarized calculation?
   LNONCOLLINEAR =      F non collinear calculations
   LSORBIT =      F    spin-orbit coupling
   INIWAV =      1    electr: 0-lowe 1-rand  2-diag
   LASPH  =      F    aspherical Exc in radial PAW
   METAGGA=      F    non-selfconsistent MetaGGA calc.

 Electronic Relaxation 1
   ENCUT  =  520.0 eV  38.22 Ry    6.18 a.u.   7.21 14.45 21.69*2*pi/ulx,y,z
   ENINI  =  520.0     initial cutoff
   ENAUG  =  605.4 eV  augmentation charge cutoff
   NELM   =    100;   NELMIN=  2; NELMDL= -5     # of ELM steps
   EDIFF  = 0.1E-02   stopping-criterion for ELM
[...]
     30      -7.3726      1.00000
     31      -7.3659      1.00000
     32      -7.3653      1.00000
     33      -7.3376      1.00000
     34      -7.2929      1.00000
     35      -7.2493      1.00000
     36      -7.0767      1.00000
     37      -7.0413      1.00000
     38      -6.9742      1.00000
     39      -6.8672      1.00000
     40      -6.7740      1.00000
     41      -6.7376      1.00000
     42      -6.5843      1.00000
     43       0.1830      1.00000
     44       0.4492      1.00000
     45       0.7620      1.00000
     46       0.8205      1.00000
     47       1.0374      1.00000
     48       1.1122      1.00000
     49       1.2256      1.00000
     50       1.2861      1.00000
     51       1.6132      1.00000
     52       1.9357      1.00000
     53       1.9850      1.00000
     54       1.9979      1.00000
     55       2.0757      1.00000
     56       2.1864      1.00000
     57       2.2381      1.00000
     58       2.2796      1.00000
     59       2.2892      1.00000
     60       2.3650      1.00000
[...]
    132      10.8469      0.00000
    133      10.8910      0.00000
    134      10.9337      0.00000
    135      10.9379      0.00000
    136      11.0065      0.00000
    137      11.0283      0.00000
    138      11.0469      0.00000
    139      11.0618      0.00000
    140      11.0828      0.00000
    141      11.0904      0.00000
    142      11.1008      0.00000
    143      11.1220      0.00000
    144      11.1420      0.00000
    145      11.1540      0.00000
    146      11.1880      0.00000

[...]

 spin component 2

[...]

 k-point    12 :       0.4000    0.3333    0.5000
  band No.  band energies     occupation
      1     -23.8964      1.00000
      2     -23.8654      1.00000
      3     -23.8546      1.00000
      4     -23.8290      1.00000
      5     -23.8241      1.00000
      6     -23.8013      1.00000
      7     -11.0362      1.00000
      8     -10.9233      1.00000
      9     -10.7229      1.00000
     10     -10.6304      1.00000
     11     -10.4517      1.00000
     12     -10.2280      1.00000
     13     -10.1614      1.00000
     14     -10.1591      1.00000
     15     -10.1082      1.00000
     16      -9.9567      1.00000
     17      -9.9361      1.00000
     18      -9.9169      1.00000
     19      -9.8127      1.00000
     20      -9.7235      1.00000
     21      -9.6878      1.00000
     22      -9.5907      1.00000
     23      -9.5616      1.00000
     24      -9.3690      1.00000
     25      -7.8404      1.00000
     26      -7.7254      1.00000
     27      -7.5674      1.00000
     28      -7.5482      1.00000
     29      -7.5269      1.00000
     30      -7.4742      1.00000
     31      -7.4500      1.00000
     32      -7.3930      1.00000
     33      -7.2517      1.00000
     34      -7.1979      1.00000
     35      -7.1429      1.00000
     36      -7.1124      1.00000
     37      -7.0756      1.00000
     38      -7.0287      1.00000
     39      -7.0076      1.00000
     40      -6.8919      1.00000
     41      -6.8523      1.00000
     42      -6.7300      1.00000
     43       1.2190      1.00000
     44       1.6498      1.00000
     45       1.7501      1.00000
     46       1.7857      1.00000
     47       2.0557      1.00000
     48       2.0911      1.00000
     49       2.1553      1.00000
     50       2.2083      1.00000
     51       2.4622      1.00000
     52       2.5625      1.00000
     53       2.6146      1.00000
     54       2.7136      1.00000
     55       2.7391      1.00000
     56       2.8510      1.00000
     57       2.9170      1.00000
     58       3.0422      1.00000
     59       3.0513      1.00000
     60       3.1278      1.00000
[...]
    132      11.0641      0.00000
    133      11.0711      0.00000
    134      11.0802      0.00000
    135      11.0883      0.00000
    136      11.1010      0.00000
    137      11.1136      0.00000
    138      11.1313      0.00000
    139      11.1478      0.00000
    140      11.1535      0.00000
    141      11.1655      0.00000
    142      11.1994      0.00000
    143      11.2129      0.00000
    144      11.2342      0.00000
    145      11.2453      0.00000
    146      11.4707      0.00000

 soft charge-density along one line, spin component           1
         0         1         2         3         4         5         6         7         8         9
 total charge-density along one line

 soft charge-density along one line, spin component           2
         0         1         2         3         4         5         6         7         8         9
 total charge-density along one line

------------------------ aborting loop because EDIFF is reached ----------------------------------------

 total charge

# of ion       s       p       d       f       tot
    1        2.000   5.697   0.484   0.187   8.367
    2        2.001   5.700   0.499   0.195   8.395
    3        2.001   5.698   0.499   0.193   8.391
    4        1.999   5.697   0.484   0.187   8.367
    5        2.001   5.700   0.499   0.195   8.395
    6        2.001   5.698   0.499   0.193   8.391
    7        0.349   0.547   4.867   0.000   5.763
    8        0.337   0.521   4.866   0.000   5.724
    9        0.335   0.512   4.859   0.000   5.706
   10        0.414   0.614   8.335   0.000   9.364
   11        0.402   0.586   8.327   0.000   9.315
   12        0.409   0.597   8.322   0.000   9.327
   13        1.561   3.460   0.000   0.000   5.021
   14        1.563   3.445   0.000   0.000   5.008
   15        1.562   3.457   0.000   0.000   5.019
   16        1.561   3.465   0.000   0.000   5.025
   17        1.558   3.447   0.000   0.000   5.005
   18        1.564   3.449   0.000   0.000   5.013
   19        1.564   3.448   0.000   0.000   5.012
   20        1.562   3.459   0.000   0.000   5.021
   21        1.559   3.454   0.000   0.000   5.013
   22        1.564   3.448   0.000   0.000   5.012
   23        1.562   3.459   0.000   0.000   5.021
   24        1.559   3.455   0.000   0.000   5.013
   25        1.565   3.452   0.000   0.000   5.017
   26        1.566   3.455   0.000   0.000   5.021
   27        1.559   3.462   0.000   0.000   5.021
   28        1.565   3.445   0.000   0.000   5.010
   29        1.557   3.454   0.000   0.000   5.011
   30        1.558   3.452   0.000   0.000   5.010
tot         42.359  99.731  42.541   1.148 185.780

 magnetization (x)

[...]

  FORCE on cell =-STRESS in cart. coord.  units (eV):
  Direction    XX          YY          ZZ          XY          YZ          ZX
  Alpha Z   982.32680   982.32680   982.32680
  Ewald   -5026.85815 -5093.88296 -5307.09839     0.00000    -0.00908     0.00000
  Hartree  1287.26386  1230.29740  1034.57578    -0.00000    -0.00904    -0.00000
  E(xc)   -1046.19981 -1046.33730 -1046.47423     0.00000     0.00001    -0.00000
  Local    -949.84516  -826.70130  -415.16068    -0.00000     0.02728     0.00000
  n-local   416.63490   416.14807   416.56940     0.57038     0.00325     0.00201
  augment   489.24111   489.18525   488.50315    -0.00000    -0.00911    -0.00000
  Kinetic  3847.53378  3848.56679  3846.67242    -1.27078    -0.00266    -0.00083
  Fock        0.00000     0.00000     0.00000     0.00000     0.00000     0.00000
  Total       0.09732    -0.39725    -0.08576     0.00000     0.00066     0.00000
  in kB       0.44354    -1.81048    -0.39084     0.00000     0.00301     0.00000

 VOLUME and BASIS-vectors are now :
  energy-cutoff  :      520.00
  volume of cell :      351.54
      direct lattice vectors                 reciprocal lattice vectors
     3.877867918  0.000000000  0.000000000     0.257873662  0.000000000  0.000000000
     0.000000000  7.771316754  0.000003579     0.000000000  0.128678322 -0.000000059
     0.000000000  0.000005371 11.665197300     0.000000000 -0.000000039  0.085725082

  length of vectors
     3.877867918  7.771316754 11.665197300     0.257873662  0.128678322  0.085725082

 FORCES acting on ions
    electron-ion (+dipol)            ewald-force                    non-local-force                 convergence-correction
   -.138E-14 0.703E+02 -.886E+02   -.502E-15 -.695E+02 0.880E+02   0.000E+00 -.687E+00 0.633E+00   0.851E-14 -.293E-01 0.177E-01
   0.145E-13 -.615E+02 -.102E+03   -.258E-13 0.609E+02 0.101E+03   0.000E+00 0.454E+00 0.793E+00   0.921E-14 0.247E-01 0.432E-01
   -.122E-13 0.788E+01 0.191E+03   0.564E-15 -.801E+01 -.190E+03   0.000E+00 0.784E-01 -.147E+01   0.179E-13 -.135E-02 -.608E-01
   0.997E-14 -.703E+02 -.886E+02   -.134E-13 0.696E+02 0.880E+02   0.000E+00 0.686E+00 0.635E+00   0.112E-13 0.292E-01 0.168E-01
   0.681E-14 0.615E+02 -.102E+03   -.989E-14 -.610E+02 0.101E+03   0.000E+00 -.455E+00 0.793E+00   0.642E-14 -.248E-01 0.415E-01
   -.142E-14 -.787E+01 0.191E+03   -.409E-13 0.800E+01 -.190E+03   0.000E+00 -.789E-01 -.147E+01   0.980E-14 0.127E-02 -.618E-01
   0.570E-13 0.604E-02 -.475E+02   0.326E-13 -.565E-02 0.467E+02   0.000E+00 -.223E-03 0.846E+00   -.585E-14 -.659E-03 0.184E-01
   0.568E-13 -.227E-01 0.116E+02   0.416E-13 0.202E-01 -.114E+02   0.000E+00 0.644E-03 -.266E+00   0.304E-14 0.274E-02 0.564E-02
   0.607E-13 0.171E-01 0.374E+02   -.135E-13 -.144E-01 -.370E+02   0.000E+00 -.630E-03 -.475E+00   0.940E-14 -.290E-02 -.387E-02
   0.268E-12 0.373E-01 0.525E+02   0.201E-13 -.413E-01 -.514E+02   0.000E+00 0.863E-03 -.111E+01   0.670E-13 0.216E-02 -.509E-01
   0.287E-12 0.756E-02 -.646E+02   0.232E-13 -.768E-02 0.631E+02   0.000E+00 -.849E-03 0.152E+01   0.208E-13 0.777E-03 0.395E-01
   0.343E-12 -.340E-01 0.108E+02   0.186E-13 0.373E-01 -.102E+02   0.000E+00 -.574E-03 -.498E+00   0.319E-13 -.218E-02 -.165E-01
   0.113E-12 -.526E-02 -.795E+02   -.866E-14 0.368E-02 0.753E+02   0.000E+00 0.118E-02 0.428E+01   0.109E-13 0.712E-03 0.411E-02
   0.109E-12 0.264E-03 -.650E+02   -.264E-13 0.172E-02 0.586E+02   0.000E+00 -.222E-02 0.643E+01   0.889E-14 -.393E-03 -.535E-04
   0.122E-12 -.300E-02 0.107E+03   0.148E-13 0.262E-02 -.102E+03   0.000E+00 -.272E-02 -.499E+01   0.196E-13 0.204E-02 0.962E-03
   0.120E-12 -.172E-02 -.331E+02   0.105E-13 0.205E-02 0.329E+02   0.000E+00 0.708E-03 0.194E+00   0.127E-13 -.691E-03 -.111E-01
   0.122E-12 0.752E-02 -.296E+02   0.359E-13 -.931E-02 0.295E+02   0.000E+00 0.140E-02 0.399E-01   0.973E-14 0.222E-03 -.218E-02
   0.115E-12 0.265E-02 0.981E+02   0.314E-13 -.237E-02 -.917E+02   0.000E+00 0.221E-02 -.637E+01   0.177E-13 -.170E-02 0.125E-01
   0.111E-12 0.107E+02 0.142E+02   -.183E-13 -.107E+02 -.141E+02   0.000E+00 0.206E-01 -.192E+00   0.105E-13 0.112E-01 -.150E-02
   0.113E-12 -.558E+02 -.313E+02   0.498E-14 0.504E+02 0.303E+02   0.000E+00 0.552E+01 0.944E+00   0.194E-13 0.527E-02 0.161E-01
   0.119E-12 0.107E+02 0.168E+02   -.214E-13 -.104E+02 -.162E+02   0.000E+00 -.278E+00 -.602E+00   0.136E-13 -.677E-04 -.152E-01
   0.117E-12 -.107E+02 0.142E+02   -.118E-13 0.107E+02 -.141E+02   0.000E+00 -.205E-01 -.193E+00   0.786E-14 -.108E-01 -.719E-03
   0.122E-12 0.558E+02 -.313E+02   -.482E-14 -.503E+02 0.303E+02   0.000E+00 -.552E+01 0.945E+00   0.114E-13 -.528E-02 0.158E-01
   0.120E-12 -.107E+02 0.168E+02   0.401E-14 0.104E+02 -.161E+02   0.000E+00 0.278E+00 -.612E+00   0.758E-14 -.354E-03 -.153E-01
   -.106E-13 -.213E-01 0.363E+01   0.819E-14 0.216E-01 -.316E+01   0.000E+00 -.282E-02 -.531E+00   0.218E-13 0.188E-02 0.266E-02
   0.754E-14 0.408E-02 -.296E+02   -.218E-13 -.349E-02 0.290E+02   0.000E+00 -.377E-03 0.690E+00   0.975E-14 -.240E-03 0.140E-01
   -.581E-14 0.318E-01 0.297E+02   0.981E-15 -.357E-01 -.295E+02   0.000E+00 0.267E-02 -.174E+00   0.507E-14 0.130E-02 -.210E-01
   -.615E-14 0.178E-01 0.246E+02   -.552E-14 -.169E-01 -.247E+02   0.000E+00 0.174E-02 0.152E+00   0.125E-13 -.191E-02 -.568E-02
   0.416E-14 0.218E-03 -.331E+02   0.837E-14 0.212E-03 0.320E+02   0.000E+00 -.769E-03 0.103E+01   0.860E-14 0.214E-03 0.164E-01
   -.183E-13 -.277E-01 0.487E+01   0.935E-14 0.311E-01 -.388E+01   0.000E+00 -.204E-02 -.100E+01   0.801E-14 -.112E-02 -.941E-02
   0.246E-11 0.229E-02 -.124E-02   0.425E-13 0.391E-13 0.124E-12   0.000E+00 -.398E-02 -.291E-01   0.405E-12 -.116E-03 -.106E-01

 POSITION                                       TOTAL-FORCE (eV/Angst)
      0.00000      3.95267      3.82525         0.000000      0.042345      0.072483
      0.00000      7.72423      7.70132         0.000000     -0.050062      0.039446
      0.00000      3.88116      0.14148         0.000000     -0.053311     -0.083663
      0.00000      7.70427      3.82523         0.000000     -0.043540      0.074642
      0.00000      3.93280      7.70128         0.000000      0.050331      0.040396
      0.00000      0.00450      0.14180         0.000000      0.052628     -0.076700
      1.93893      1.94283      5.82038         0.000000     -0.000432      0.061017
      1.93893      5.82848      9.73289         0.000000      0.000904     -0.068178
      1.93893      1.94284      9.72518         0.000000     -0.000851     -0.054907
      1.93893      5.82851      1.93649         0.000000     -0.000900     -0.016021
      1.93893      5.82851      5.83236         0.000000     -0.000138      0.013567
      1.93893      1.94282      1.95518         0.000000      0.000671      0.029207
      1.93893      5.82844      7.81706         0.000000      0.000370      0.062582
      1.93893      1.94282      3.94810         0.000000     -0.000572     -0.008141
      1.93893      5.82849     11.61740         0.000000     -0.001002      0.068725
      1.93893      1.94283      7.78313         0.000000      0.000404     -0.062817
      1.93893      5.82856      3.89292         0.000000     -0.000097     -0.078441
      1.93893      1.94284     11.60154         0.000000      0.000855      0.057073
      1.93893      3.88540      9.70227         0.000000     -0.023542     -0.035381
      1.93893      0.04933      5.86766         0.000000      0.037782     -0.006809
      1.93893      3.87817      1.92366         0.000000      0.022558      0.011866
      1.93893      0.00026      9.70226         0.000000      0.023851     -0.035548
      1.93893      3.83630      5.86755         0.000000     -0.036498     -0.007359
      1.93893      0.00750      1.92365         0.000000     -0.022262      0.010089
      0.00000      5.82850      9.70178         0.000000     -0.000571     -0.051546
      0.00000      1.94284      5.87227         0.000000      0.000030      0.048426
      0.00000      5.82848      1.92925         0.000000      0.000091      0.047002
      0.00000      1.94283      9.70225         0.000000      0.000770     -0.023518
      0.00000      5.82849      5.86720         0.000000     -0.000065     -0.002375
      0.00000      1.94283      1.91924         0.000000      0.000256     -0.025117
    total drift:                                0.000000     -0.001804     -0.040880

  FREE ENERGIE OF THE ION-ELECTRON SYSTEM (eV)
  free  energy   TOTEN  =      -220.35065081 eV

  energy  without entropy=     -220.35065081  energy(sigma->0) =     -220.35065081

 total charge

[...]

 magnetization (x)

# of ion       s       p       d       f       tot
    1        0.000   0.000   0.004   0.002   0.006
    2        0.001   0.001   0.010   0.005   0.017
    3        0.000   0.001   0.007   0.004   0.012
    4        0.000   0.000   0.004   0.002   0.006
    5        0.001   0.001   0.010   0.005   0.017
    6        0.000   0.001   0.007   0.004   0.012
    7        0.024   0.027   3.337   0.000   3.388
    8        0.023   0.022   3.452   0.000   3.497
    9        0.022   0.018   3.451   0.000   3.491
   10        0.016   0.014   1.568   0.000   1.598
   11        0.013   0.007   1.623   0.000   1.643
   12        0.017   0.009   1.581   0.000   1.606
   13        0.004  -0.025   0.000   0.000  -0.020
   14        0.005  -0.031   0.000   0.000  -0.026
   15        0.005  -0.020   0.000   0.000  -0.015
   16        0.001  -0.019   0.000   0.000  -0.018
   17        0.007  -0.021   0.000   0.000  -0.014
   18        0.005  -0.041   0.000   0.000  -0.036
   19        0.004  -0.057   0.000   0.000  -0.053
   20        0.005  -0.007   0.000   0.000  -0.002
   21        0.006  -0.027   0.000   0.000  -0.021
   22        0.004  -0.057   0.000   0.000  -0.053
   23        0.005  -0.007   0.000   0.000  -0.002
   24        0.006  -0.027   0.000   0.000  -0.021
   25        0.004  -0.058   0.000   0.000  -0.055
   26        0.004  -0.060   0.000   0.000  -0.056
   27        0.007  -0.016   0.000   0.000  -0.009
   28        0.004  -0.058   0.000   0.000  -0.054
   29        0.006  -0.014   0.000   0.000  -0.008
   30        0.006  -0.025   0.000   0.000  -0.018
tot          0.208  -0.473  15.055   0.022  14.813

 BZINTS: Fermi energy:  7.663153;225.000000 electrons
         Band energy:-331.946065;  BLOECHL correction: -0.169406