 vasp.5.4.4.18Apr17-6-g9f103f2a35 (build Oct 03 2018 13:58:34) complex

 executed on             LinuxIFC date 2019.06.04  01:57:07

 INCAR:
 POTCAR:    PAW_PBE La 06Sep2000
 POTCAR:    PAW_PBE Mn 06Sep2000
 POTCAR:    PAW_PBE Ni 02Aug2007
 POTCAR:    PAW_PBE O 08Apr2002

 POTCAR:    PAW_PBE La 06Sep2000
   VRHFIN =La : [core=Kr4d]

   TITEL  = PAW_PBE La 06Sep2000
   POMASS =  138.900; ZVAL   =   11.000    mass and valenz
   ENMAX  =  219.292; ENMIN  =  164.469 eV

 POTCAR:    PAW_PBE Mn 06Sep2000
   VRHFIN =Mn: d6 s1

   TITEL  = PAW_PBE Mn 06Sep2000
   POMASS =   54.938; ZVAL   =    7.000    mass and valenz
   ENMAX  =  269.864; ENMIN  =  202.398 eV

 POTCAR:    PAW_PBE Ni 02Aug2007
   VRHFIN =Ni:

   TITEL  = PAW_PBE Ni 02Aug2007
   POMASS =   58.690; ZVAL   =   10.000    mass and valenz
   ENMAX  =  269.532; ENMIN  =  202.149 eV

 POTCAR:    PAW_PBE O 08Apr2002
   VRHFIN =O: s2p4

   TITEL  = PAW_PBE O 08Apr2002
   POMASS =   16.000; ZVAL   =    6.000    mass and valenz
   ENMAX  =  400.000; ENMIN  =  300.000 eV

 Optimization of the real space projectors (new method)

 maximal supplied QI-value         = 13.42
 optimisation between [QCUT,QGAM] = [ 11.67, 23.35] = [ 38.16,152.62] Ry
 Optimized for a Real-space Cutoff    1.63 Angstroem

   l    n(q)    QCUT    max X(q) W(low)/X(q) W(high)/X(q)  e(spline)
   0     11    11.673    13.882    0.27E-04    0.79E-05    0.11E-06
   0     11    11.673    12.184    0.39E-04    0.13E-04    0.19E-06
   1     11    11.673     4.523    0.73E-05    0.76E-05    0.12E-06
   1     11    11.673     4.424    0.87E-05    0.13E-04    0.19E-06
   2     10    11.673    52.481    0.65E-04    0.36E-04    0.18E-06
   2     10    11.673    38.501    0.61E-04    0.33E-04    0.17E-06
   3     10    11.673    65.631    0.17E-03    0.14E-03    0.37E-06
   3     10    11.673    56.854    0.17E-03    0.14E-03    0.37E-06
 Optimization of the real space projectors (new method)

[...]

   l    n(q)    QCUT    max X(q) W(low)/X(q) W(high)/X(q)  e(spline)
   2      9    11.539    60.317    0.19E-03    0.47E-04    0.16E-06
   2      9    11.539    55.921    0.19E-03    0.48E-04    0.16E-06
   0     10    11.539    51.690    0.80E-04    0.50E-04    0.24E-06
   0     10    11.539    30.015    0.73E-04    0.45E-04    0.22E-06
   1     10    11.539    18.849    0.87E-04    0.16E-03    0.71E-07
   1     10    11.539    14.624    0.73E-04    0.13E-03    0.64E-07
 Optimization of the real space projectors (new method)

 maximal supplied QI-value         = 24.76
 optimisation between [QCUT,QGAM] = [ 11.64, 23.27] = [ 37.91,151.63] Ry
 Optimized for a Real-space Cutoff    1.14 Angstroem

   l    n(q)    QCUT    max X(q) W(low)/X(q) W(high)/X(q)  e(spline)
   0      8    11.635    20.381    0.10E-03    0.33E-03    0.24E-06
   0      8    11.635    15.268    0.11E-03    0.35E-03    0.26E-06
   1      7    11.635     5.964    0.24E-03    0.31E-03    0.30E-06
   1      7    11.635     5.382    0.22E-03    0.25E-03    0.26E-06
  PAW_PBE La 06Sep2000                  :
  PAW_PBE Mn 06Sep2000                  :
  PAW_PBE Ni 02Aug2007                  :
  PAW_PBE O 08Apr2002                   :

 POSCAR: SCEL5_1_5_1_2_0_0/1
  positions in direct lattice
  velocities in cartesian coordinates
 exchange correlation table for  LEXCH =        8
   RHO(1)=    0.500       N(1)  =     2000
   RHO(2)=  100.500       N(2)  =     4000

 ion  position               nearest neighbor table
   1  0.000  0.406  0.187-  19 2.66  19 2.66  24 2.67  25 2.67  15 2.77  15 2.77  14 2.77  14 2.77
                            10 3.30  10 3.30   9 3.31   9 3.31   4 3.62
   2  0.000  0.795  0.391-  24 2.65  14 2.70  14 2.70  18 2.71  18 2.71  22 2.74  23 2.75  16 2.78
                            16 2.78  13 2.81  13 2.81   9 3.29   9 3.29   6 3.36   6 3.36   8 3.39
   3  0.000  0.205  0.609-  25 2.65  12 2.70  12 2.70  20 2.71  20 2.71  22 2.74  21 2.75  17 2.78
                            17 2.78  13 2.81  13 2.81  10 3.29  10 3.29   6 3.36   6 3.36   7 3.39
   4  0.000  0.594  0.813-  19 2.66  19 2.66  25 2.67  24 2.67  11 2.77  11 2.77  12 2.77  12 2.77
                             9 3.30   9 3.30  10 3.31  10 3.31   1 3.62
   5  0.000  0.000  0.000-  24 2.74  25 2.74  11 2.75  15 2.75  11 2.75  15 2.75  21 2.75  23 2.75
                            18 2.76  20 2.76  18 2.76  20 2.76   9 3.36  10 3.36   9 3.36  10 3.36
   6  0.500  0.500  0.500-  12 1.89  14 1.89  22 1.95  22 1.95  16 1.97  17 1.97   2 3.36   2 3.36
                             3 3.36   3 3.36
   7  0.500  0.899  0.699-  11 1.89  20 1.92  16 1.92  13 1.94  21 1.95  21 1.95   5 3.38   5 3.38
                             3 3.39   3 3.39
   8  0.500  0.101  0.301-  15 1.89  18 1.92  17 1.92  13 1.94  23 1.95  23 1.95   5 3.38   5 3.38
                             2 3.39   2 3.39
   9  0.500  0.702  0.100-  24 1.95  24 1.95  19 1.96  18 1.98  11 1.99  14 2.00   2 3.29   2 3.29
                             4 3.30   4 3.30   1 3.31   1 3.31   5 3.36   5 3.36
  10  0.500  0.298  0.900-  25 1.95  25 1.95  19 1.96  20 1.98  15 1.99  12 2.00   3 3.29   3 3.29
                             1 3.30   1 3.30   4 3.31   4 3.31   5 3.36   5 3.36
  11  0.500  0.804  0.895-   7 1.89   9 1.99   5 2.75   5 2.75   4 2.77   4 2.77
  12  0.500  0.401  0.694-   6 1.89  10 2.00   3 2.70   3 2.70   4 2.77   4 2.77
  13  0.500  0.000  0.500-   7 1.94   8 1.94   2 2.81   3 2.81   2 2.81   3 2.81
  14  0.500  0.599  0.306-   6 1.89   9 2.00   2 2.70   2 2.70   1 2.77   1 2.77
  15  0.500  0.196  0.105-   8 1.89  10 1.99   5 2.75   5 2.75   1 2.77   1 2.77
  16  0.500  0.702  0.600-   7 1.92   6 1.97   2 2.78   2 2.78
  17  0.500  0.298  0.400-   8 1.92   6 1.97   3 2.78   3 2.78
  18  0.500  0.904  0.203-   8 1.92   9 1.98   2 2.71   2 2.71   5 2.76   5 2.76
  19  0.500  0.500  0.000-   9 1.96  10 1.96   1 2.66   4 2.66   1 2.66   4 2.66
  20  0.500  0.096  0.797-   7 1.92  10 1.98   3 2.71   3 2.71   5 2.76   5 2.76
  21  0.000  0.902  0.699-   7 1.95   7 1.95   3 2.75   5 2.75
  22  0.000  0.500  0.500-   6 1.95   6 1.95   2 2.74   3 2.74
  23  0.000  0.098  0.301-   8 1.95   8 1.95   2 2.75   5 2.75
  24  0.000  0.701  0.101-   9 1.95   9 1.95   2 2.65   1 2.67   4 2.67   5 2.74
  25  0.000  0.299  0.899-  10 1.95  10 1.95   3 2.65   4 2.67   1 2.67   5 2.74

  LATTYP: Found a simple monoclinic cell.
 ALAT       =    12.3288054873
 B/A-ratio  =     0.3159027603
 C/A-ratio  =     1.5819082858
 COS(beta)  =    -0.9491023176

  Lattice vectors:

 A1 = (   0.0000000000, -11.7015614409,   3.8823838797)
 A2 = (   3.8947036849,   0.0000000000,   0.0000000000)
 A3 = (   0.0000000000,  19.5030395101,   0.0013239511)

Analysis of symmetry for initial positions (statically):
 Subroutine PRICEL returns:
 Original cell was already a primitive cell.

 Routine SETGRP: Setting up the symmetry group for a
 simple monoclinic supercell.

 Subroutine GETGRP returns: Found  4 space group operations
 (whereof  4 operations were pure point group operations)
 out of a pool of  4 trial point group operations.

The static configuration has the point symmetry C_2h.

Analysis of symmetry for dynamics (positions and initial velocities):
 Subroutine PRICEL returns:
 Original cell was already a primitive cell.

[...]

The dynamic configuration has the point symmetry C_2h.

Analysis of structural, dynamic, and magnetic symmetry:
 Subroutine PRICEL returns:
 Original cell was already a primitive cell.

 Routine SETGRP: Setting up the symmetry group for a
 simple monoclinic supercell.

 Subroutine GETGRP returns: Found  4 space group operations
 (whereof  4 operations were pure point group operations)
 out of a pool of  4 trial point group operations.

The magnetic configuration has the point symmetry C_2h.

 Subroutine INISYM returns: Found  4 space group operations
 (whereof  4 operations are pure point group operations),
 and found     1 'primitive' translations

 KPOINTS: Automatic mesh

Automatic generation of k-mesh.
 generate k-points for:    5    2    2
Space group operators:
 irot       det(A)        alpha          n_x          n_y          n_z        tau_x        tau_y        tau_z
    1     1.000000     0.000000     1.000000     0.000000     0.000000     0.000000     0.000000     0.000000
    2    -1.000000     0.000000     1.000000     0.000000     0.000000     0.000000     0.000000     0.000000
    3     1.000000   180.000000     1.000000     0.000000     0.000000     0.000000     0.000000     0.000000
    4    -1.000000   180.000000     1.000000     0.000000     0.000000     0.000000     0.000000     0.000000

 Subroutine IBZKPT returns following result:

 Found     12 irreducible k-points:

 Following reciprocal coordinates:
            Coordinates               Weight
  0.000000  0.000000  0.000000      1.000000
  0.200000  0.000000  0.000000      2.000000
  0.400000  0.000000  0.000000      2.000000
  0.000000  0.500000  0.000000      1.000000
  0.200000  0.500000  0.000000      2.000000
  0.400000  0.500000  0.000000      2.000000
  0.000000  0.000000  0.500000      1.000000
  0.200000  0.000000  0.500000      2.000000
  0.400000  0.000000  0.500000      2.000000
  0.000000  0.500000  0.500000      1.000000
  0.200000  0.500000  0.500000      2.000000
  0.400000  0.500000  0.500000      2.000000

 Following cartesian coordinates:
            Coordinates               Weight
  0.000000  0.000000  0.000000      1.000000
 -0.051352  0.000000  0.000000      2.000000
 -0.102704  0.000000  0.000000      2.000000
  0.000000  0.051272  0.025749      1.000000
 -0.051352  0.051272  0.025749      2.000000
 -0.102704  0.051272  0.025749      2.000000
  0.000000  0.025641 -0.051506      1.000000
 -0.051352  0.025641 -0.051506      2.000000
 -0.102704  0.025641 -0.051506      2.000000
  0.000000  0.076913 -0.025757      1.000000
 -0.051352  0.076913 -0.025757      2.000000
 -0.102704  0.076913 -0.025757      2.000000

 TETIRR: Found     60 inequivalent tetrahedra from      120

 SYSTEM =  final
 POSCAR =  SCEL5_1_5_1_2_0_0/1

 Startparameter for this run:
   NWRITE =      2    write-flag & timer
   PREC   = accura    normal or accurate (medium, high low for compatibility)
   ISTART =      0    job   : 0-new  1-cont  2-samecut
   ICHARG =      1    charge: 1-file 2-atom 10-const
   ISPIN  =      2    spin polarized calculation?
   LNONCOLLINEAR =      F non collinear calculations
   LSORBIT =      F    spin-orbit coupling
   INIWAV =      1    electr: 0-lowe 1-rand  2-diag
   LASPH  =      F    aspherical Exc in radial PAW
   METAGGA=      F    non-selfconsistent MetaGGA calc.

 Electronic Relaxation 1
   ENCUT  =  520.0 eV  38.22 Ry    6.18 a.u.   7.24 16.20 16.16*2*pi/ulx,y,z
   ENINI  =  520.0     initial cutoff
   ENAUG  =  605.4 eV  augmentation charge cutoff
   NELM   =    100;   NELMIN=  2; NELMDL= -5     # of ELM steps
   EDIFF  = 0.1E-02   stopping-criterion for ELM
   LREAL  =      T    real-space projection
   NLSPLINE    = F    spline interpolate recip. space projectors
   LCOMPAT=      F    compatible to vasp.4.4
   GGA_COMPAT  = T    GGA compatible to vasp.4.4-vasp.4.6
   LMAXPAW     = -100 max onsite density
   LMAXMIX     =    6 max onsite mixed and CHGCAR
[...]
       1 -95.6113       2 -95.6076       3 -95.6076       4 -95.6113       5 -95.6251
       6 -42.8874       7 -43.0141       8 -43.0141       9 -83.5912      10 -83.5912
      11 -67.0244      12 -66.9742      13 -67.1016      14 -66.9742      15 -67.0244
      16 -67.1116      17 -67.1116      18 -67.0234      19 -66.5974      20 -67.0234
      21 -67.2010      22 -67.1687      23 -67.2010      24 -66.5998      25 -66.5998

 E-fermi :   7.7656     XC(G=0): -11.6789     alpha+bet :-16.3711

[...]

 k-point     1 :       0.0000    0.0000    0.0000
  band No.  band energies     occupation
      1     -24.1209      1.00000
      2     -24.0532      1.00000
      3     -24.0513      1.00000
      4     -24.0421      1.00000
      5     -24.0202      1.00000
      6     -11.2219      1.00000
      7     -11.2217      1.00000
      8     -11.1349      1.00000
      9     -11.0364      1.00000
     10     -10.8803      1.00000
     11     -10.0849      1.00000
     12     -10.0433      1.00000
     13     -10.0326      1.00000
     14     -10.0318      1.00000
     15      -9.8241      1.00000
     16      -9.7954      1.00000
     17      -9.7896      1.00000
     18      -9.7269      1.00000
     19      -9.5816      1.00000
     20      -9.4975      1.00000
     21      -7.6329      1.00000
     22      -7.6245      1.00000
     23      -7.6015      1.00000
     24      -7.5192      1.00000
     25      -7.5062      1.00000
     26      -7.4942      1.00000
     27      -7.4506      1.00000
     28      -7.4037      1.00000
     29      -7.3907      1.00000
     30      -7.3357      1.00000
     31      -7.3316      1.00000
     32      -7.0400      1.00000
     33      -7.0347      1.00000
     34      -6.8994      1.00000
     35      -6.8474      1.00000
     36       0.3796      1.00000
     37       0.5847      1.00000
     38       0.8748      1.00000
     39       1.0884      1.00000
     40       1.5639      1.00000
     41       1.6120      1.00000
     42       1.7127      1.00000
     43       1.7744      1.00000
     44       1.8190      1.00000
     45       1.9710      1.00000
     46       2.1119      1.00000
     47       2.1316      1.00000
     48       2.1790      1.00000
     49       2.1836      1.00000
     50       2.2126      1.00000
     51       2.2879      1.00000
     52       2.3235      1.00000
     53       2.3431      1.00000
     54       2.3769      1.00000
     55       2.4007      1.00000
     56       2.8191      1.00000
     57       2.8367      1.00000
     58       2.8777      1.00000
     59       3.1796      1.00000
     60       3.2174      1.00000
[...]
    106      10.0251      0.00000
    107      10.1277      0.00000
    108      10.6014      0.00000
    109      10.6474      0.00000
    110      10.7314      0.00000
    111      10.7810      0.00000
    112      10.7982      0.00000
    113      10.8608      0.00000
    114      10.8620      0.00000
    115      10.8852      0.00000
    116      10.9048      0.00000
    117      10.9193      0.00000
    118      10.9399      0.00000
    119      10.9745      0.00000
    120      10.9901      0.00000

[...]

 spin component 2

[...]

 k-point    12 :       0.4000    0.5000    0.5000
  band No.  band energies     occupation
      1     -24.0297      1.00000
      2     -24.0257      1.00000
      3     -24.0076      1.00000
      4     -24.0049      1.00000
      5     -23.9502      1.00000
      6     -10.9311      1.00000
      7     -10.8975      1.00000
      8     -10.8848      1.00000
      9     -10.7681      1.00000
     10     -10.2978      1.00000
     11     -10.2768      1.00000
     12     -10.1718      1.00000
     13     -10.0339      1.00000
     14      -9.9065      1.00000
     15      -9.9045      1.00000
     16      -9.8358      1.00000
     17      -9.7594      1.00000
     18      -9.7338      1.00000
     19      -9.6542      1.00000
     20      -9.5245      1.00000
     21      -8.0295      1.00000
     22      -8.0240      1.00000
     23      -7.9826      1.00000
     24      -7.5747      1.00000
     25      -7.5706      1.00000
     26      -7.5298      1.00000
     27      -7.5177      1.00000
     28      -7.3121      1.00000
     29      -7.2971      1.00000
     30      -7.1705      1.00000
     31      -7.1333      1.00000
     32      -7.1292      1.00000
     33      -7.1065      1.00000
     34      -7.0214      1.00000
     35      -6.9002      1.00000
     36       0.9934      1.00000
     37       1.8650      1.00000
     38       1.8687      1.00000
     39       1.9635      1.00000
     40       2.0115      1.00000
     41       2.2853      1.00000
     42       2.3774      1.00000
     43       2.4611      1.00000
     44       2.6376      1.00000
     45       2.7920      1.00000
     46       2.8840      1.00000
     47       2.9857      1.00000
     48       3.0071      1.00000
     49       3.0916      1.00000
     50       3.1936      1.00000
     51       3.2172      1.00000
     52       3.2750      1.00000
     53       3.2803      1.00000
     54       3.3511      1.00000
     55       3.3920      1.00000
     56       3.6538      1.00000
     57       3.6692      1.00000
     58       3.6787      1.00000
     59       3.7530      1.00000
     60       3.9700      1.00000
[...]
    106      10.8791      0.00000
    107      10.8876      0.00000
    108      10.8917      0.00000
    109      10.8986      0.00000
    110      10.9131      0.00000
    111      10.9224      0.00000
    112      10.9376      0.00000
    113      10.9495      0.00000
    114      10.9650      0.00000
    115      10.9693      0.00000
    116      11.0251      0.00000
    117      11.0320      0.00000
    118      11.0520      0.00000
    119      11.0754      0.00000
    120      11.1086      0.00000

 soft charge-density along one line, spin component           1
         0         1         2         3         4         5         6         7         8         9
 total charge-density along one line

 soft charge-density along one line, spin component           2
         0         1         2         3         4         5         6         7         8         9
 total charge-density along one line

------------------------ aborting loop because EDIFF is reached ----------------------------------------

 total charge

# of ion       s       p       d       f       tot
    1        2.000   5.696   0.489   0.188   8.373
    2        2.000   5.699   0.492   0.191   8.381
    3        2.000   5.699   0.492   0.191   8.381
    4        2.000   5.696   0.489   0.188   8.373
    5        1.999   5.698   0.483   0.188   8.368
    6        0.331   0.515   4.870   0.000   5.716
    7        0.339   0.523   4.868   0.000   5.730
    8        0.339   0.523   4.868   0.000   5.730
    9        0.399   0.577   8.331   0.000   9.307
   10        0.399   0.577   8.331   0.000   9.307
   11        1.563   3.451   0.000   0.000   5.014
   12        1.561   3.461   0.000   0.000   5.023
   13        1.561   3.465   0.000   0.000   5.026
   14        1.561   3.461   0.000   0.000   5.023
   15        1.563   3.451   0.000   0.000   5.014
   16        1.563   3.453   0.000   0.000   5.017
   17        1.563   3.453   0.000   0.000   5.017
   18        1.562   3.453   0.000   0.000   5.016
   19        1.556   3.462   0.000   0.000   5.018
   20        1.562   3.453   0.000   0.000   5.016
   21        1.566   3.450   0.000   0.000   5.016
   22        1.564   3.455   0.000   0.000   5.019
   23        1.566   3.450   0.000   0.000   5.016
   24        1.556   3.461   0.000   0.000   5.017
   25        1.556   3.461   0.000   0.000   5.017
tot         35.228  83.045  33.712   0.948 152.933

 magnetization (x)

[...]

  FORCE on cell =-STRESS in cart. coord.  units (eV):
  Direction    XX          YY          ZZ          XY          YZ          ZX
  Alpha Z   815.31734   815.31734   815.31734
  Ewald   -4159.90943 -4219.52312 -4287.00061     0.00000    14.78641    -0.00000
  Hartree   999.09515   947.00971   868.12266     0.00000    15.77584    -0.00000
  E(xc)    -861.62507  -861.70303  -861.83086    -0.00000    -0.01455    -0.00000
  Local    -670.72188  -558.29282  -406.46042     0.00000   -30.19941     0.00000
  n-local   340.37161   340.03394   341.10275    -0.00110     0.23441     0.00195
  augment   336.20829   335.38790   333.61909     0.00000    -0.02578     0.00000
  Kinetic  3201.78192  3201.00708  3197.35416     0.00084    -0.58217    -0.00280
  Fock        0.00000     0.00000     0.00000     0.00000     0.00000     0.00000
  Total       0.51792    -0.76301     0.22410     0.00000    -0.02524     0.00000
  in kB       2.81328    -4.14455     1.21728     0.00000    -0.13711     0.00000

 VOLUME and BASIS-vectors are now :
  energy-cutoff  :      520.00
  volume of cell :      294.96
      direct lattice vectors                 reciprocal lattice vectors
    -3.894703685  0.000000000  0.000000000    -0.256758943  0.000000000  0.000000000
     0.000000000  7.801478069  3.883707831     0.000000000  0.102544622  0.051497277
     0.000000000  3.900083372 -7.766091711     0.000000000  0.051281052 -0.103011869

  length of vectors
     3.894703685  8.714714372  8.690387262     0.256758943  0.114749157  0.115070376

 FORCES acting on ions
    electron-ion (+dipol)            ewald-force                    non-local-force                 convergence-correction
   0.691E-15 -.237E+01 0.139E+03   0.872E-14 0.231E+01 -.138E+03   0.407E-19 -.297E-01 -.126E+01   -.143E-13 0.188E-01 -.111E+00
   0.276E-14 -.738E+02 0.730E+02   0.294E-13 0.731E+02 -.723E+02   -.217E-18 0.677E+00 -.568E+00   -.118E-13 0.324E-01 -.647E-01
   -.158E-14 0.738E+02 -.730E+02   -.524E-13 -.731E+02 0.723E+02   0.108E-18 -.677E+00 0.568E+00   -.109E-13 -.324E-01 0.647E-01
   0.657E-14 0.237E+01 -.139E+03   -.140E-13 -.231E+01 0.138E+03   0.000E+00 0.297E-01 0.126E+01   -.129E-13 -.188E-01 0.111E+00
   -.228E-14 0.184E-12 -.206E-12   -.653E-14 -.270E-12 0.512E-12   0.000E+00 0.163E-18 0.000E+00   -.124E-13 0.214E-12 -.199E-12
   -.588E-13 0.822E-12 0.111E-11   -.218E-13 0.181E-12 -.426E-12   0.000E+00 -.339E-20 0.339E-20   0.543E-15 -.130E-12 0.268E-12
   -.661E-13 0.303E+02 -.355E+02   0.200E-13 -.301E+02 0.349E+02   0.000E+00 -.161E+00 0.503E+00   -.115E-13 -.342E-01 0.293E-01
   -.682E-13 -.303E+02 0.355E+02   -.258E-13 0.301E+02 -.349E+02   0.000E+00 0.161E+00 -.503E+00   0.117E-13 0.342E-01 -.293E-01
   -.275E-12 -.355E+02 0.523E+00   -.101E-13 0.344E+02 -.511E+00   0.000E+00 0.105E+01 0.381E-01   -.173E-13 0.553E-01 -.162E-01
   -.277E-12 0.355E+02 -.523E+00   0.590E-14 -.344E+02 0.511E+00   0.424E-21 -.105E+01 -.381E-01   -.511E-13 -.553E-01 0.162E-01
   -.104E-12 0.494E+01 -.613E+02   0.231E-13 -.504E+01 0.554E+02   0.000E+00 0.112E+00 0.580E+01   -.352E-13 -.444E-02 0.230E-01
   -.102E-12 0.526E+01 -.716E+02   0.175E-13 -.458E+01 0.662E+02   0.000E+00 -.677E+00 0.536E+01   -.385E-13 -.111E-01 0.483E-01
   -.110E-12 -.778E-13 -.197E-11   0.382E-14 0.188E-12 -.281E-12   0.000E+00 0.254E-20 0.000E+00   -.275E-13 -.104E-12 0.920E-13
   -.112E-12 -.526E+01 0.716E+02   -.248E-13 0.458E+01 -.662E+02   0.339E-20 0.677E+00 -.536E+01   -.173E-13 0.111E-01 -.483E-01
   -.109E-12 -.494E+01 0.613E+02   -.229E-13 0.504E+01 -.554E+02   -.847E-21 -.112E+00 -.580E+01   -.200E-13 0.444E-02 -.230E-01
   -.115E-12 0.118E+01 -.727E+01   -.996E-14 -.222E+01 0.687E+01   0.000E+00 0.899E+00 0.407E+00   -.279E-13 -.193E-01 0.119E-01
   -.121E-12 -.118E+01 0.727E+01   0.408E-13 0.222E+01 -.687E+01   0.000E+00 -.899E+00 -.407E+00   -.101E-13 0.193E-01 -.119E-01
   -.119E-12 -.638E+02 0.130E+02   -.802E-14 0.596E+02 -.126E+02   0.000E+00 0.420E+01 -.419E+00   -.438E-14 0.157E-01 -.164E-01
   -.115E-12 0.250E-11 0.336E-11   0.129E-13 -.185E-12 0.362E-12   0.000E+00 0.000E+00 0.000E+00   -.191E-13 0.647E-13 -.320E-12
   -.115E-12 0.638E+02 -.130E+02   0.735E-14 -.596E+02 0.126E+02   0.000E+00 -.420E+01 0.419E+00   -.285E-13 -.157E-01 0.164E-01
   -.565E-14 0.276E+02 -.248E+02   -.127E-13 -.281E+02 0.249E+02   -.678E-20 0.641E+00 -.714E-01   0.810E-14 -.228E-01 0.218E-01
   0.408E-15 0.536E-12 0.121E-12   0.161E-13 0.176E-12 -.352E-12   0.000E+00 0.000E+00 0.000E+00   -.622E-14 -.980E-13 0.274E-12
   0.378E-14 -.276E+02 0.248E+02   0.176E-13 0.281E+02 -.249E+02   0.339E-20 -.641E+00 0.714E-01   -.187E-13 0.228E-01 -.218E-01
   0.401E-14 -.217E+02 -.649E+00   -.149E-13 0.220E+02 0.111E+01   0.339E-20 -.294E+00 -.456E+00   -.666E-14 0.187E-01 -.806E-02
   0.116E-15 0.217E+02 0.649E+00   0.896E-14 -.220E+02 -.111E+01   0.000E+00 0.294E+00 0.456E+00   0.113E-13 -.187E-01 0.806E-02
   -.186E-11 0.334E-10 -.681E-10   -.119E-13 -.284E-13 0.178E-13   -.648E-19 0.000E+00 0.555E-16   -.370E-12 0.366E-12 -.212E-12

 POSITION                                       TOTAL-FORCE (eV/Angst)
      0.00000      3.89892      0.12939         0.000000     -0.071910      0.041581
      0.00000      7.72843      0.05560         0.000000      0.000404      0.040069
      0.00000      3.97313     -3.93798        -0.000000     -0.000404     -0.040069
      0.00000      7.80264     -4.01177        -0.000000      0.071910     -0.041581
      0.00000      0.00000      0.00000        -0.000000     -0.000000      0.000000
     -1.94735      5.85078     -1.94119        -0.000000     -0.000000      0.000000
     -1.94735      9.74323     -1.93864        -0.000000      0.028194      0.009888
     -1.94735      1.95833     -1.94374        -0.000000     -0.028194     -0.009888
     -1.94735      5.86445      1.94764        -0.000000      0.023353      0.033716
     -1.94735      5.83711     -5.83002        -0.000000     -0.023353     -0.033716
     -1.94735      9.76083     -3.82461        -0.000000      0.008527     -0.032048
     -1.94735      5.83368     -3.83435        -0.000000     -0.009603     -0.003496
     -1.94735      1.95004     -3.88305        -0.000000     -0.000000      0.000000
     -1.94735      5.86788     -0.04804        -0.000000      0.009603      0.003496
     -1.94735      1.94073     -0.05777        -0.000000     -0.008527      0.032048
     -1.94735      7.81862     -1.92930        -0.000000     -0.156568      0.015800
     -1.94735      3.88294     -1.95308        -0.000000      0.156568     -0.015800
     -1.94735      7.84107      1.93306        -0.000000      0.049244     -0.022138
     -1.94735      3.90074      1.94185        -0.000000     -0.000000      0.000000
     -1.94735      3.86049     -5.81545        -0.000000     -0.049244      0.022138
      0.00000      9.76605     -1.92788        -0.000000      0.050410      0.018335
      0.00000      5.85078     -1.94119        -0.000000     -0.000000      0.000000
      0.00000      1.93551     -1.95450        -0.000000     -0.050410     -0.018335
      0.00000      5.86534      1.93784        -0.000000      0.009822     -0.007409
      0.00000      5.83622     -5.82023         0.000000     -0.009822      0.007409
    total drift:                               -0.000000      0.000000     -0.000000

  FREE ENERGIE OF THE ION-ELECTRON SYSTEM (eV)
  free  energy   TOTEN  =      -186.84080097 eV

  energy  without entropy=     -186.84080097  energy(sigma->0) =     -186.84080097

 total charge

[...]

 magnetization (x)

# of ion       s       p       d       f       tot
    1        0.000   0.000   0.005   0.003   0.009
    2        0.001   0.001   0.010   0.005   0.016
    3        0.001   0.001   0.010   0.005   0.016
    4        0.000   0.000   0.005   0.003   0.009
    5        0.001   0.001   0.009   0.004   0.014
    6        0.023   0.028   3.527   0.000   3.577
    7        0.024   0.023   3.464   0.000   3.512
    8        0.024   0.023   3.464   0.000   3.512
    9        0.013   0.007   1.666   0.000   1.686
   10        0.013   0.007   1.666   0.000   1.686
   11        0.005  -0.034   0.000   0.000  -0.029
   12        0.005  -0.008   0.000   0.000  -0.003
   13        0.002  -0.017   0.000   0.000  -0.015
   14        0.005  -0.008   0.000   0.000  -0.003
   15        0.005  -0.034   0.000   0.000  -0.029
   16        0.004  -0.035   0.000   0.000  -0.031
   17        0.004  -0.035   0.000   0.000  -0.031
   18        0.006  -0.034   0.000   0.000  -0.029
   19        0.007   0.027   0.000   0.000   0.034
   20        0.006  -0.034   0.000   0.000  -0.029
   21        0.005  -0.056   0.000   0.000  -0.051
   22        0.004  -0.044   0.000   0.000  -0.039
   23        0.005  -0.056   0.000   0.000  -0.051
   24        0.006   0.012   0.000   0.000   0.018
   25        0.006   0.012   0.000   0.000   0.018
tot          0.176  -0.253  13.827   0.020  13.769

 BZINTS: Fermi energy:  7.765587;186.000000 electrons
         Band energy:-295.428111;  BLOECHL correction: -0.117279