 vasp.5.4.4.18Apr17-6-g9f103f2a35 (build Oct 03 2018 13:58:34) complex

 executed on             LinuxIFC date 2019.06.04  02:05:08

 INCAR:
 POTCAR:    PAW_PBE La 06Sep2000
 POTCAR:    PAW_PBE Mn 06Sep2000
 POTCAR:    PAW_PBE Ni 02Aug2007
 POTCAR:    PAW_PBE O 08Apr2002

 POTCAR:    PAW_PBE La 06Sep2000
   VRHFIN =La : [core=Kr4d]

   TITEL  = PAW_PBE La 06Sep2000
   POMASS =  138.900; ZVAL   =   11.000    mass and valenz
   ENMAX  =  219.292; ENMIN  =  164.469 eV

 POTCAR:    PAW_PBE Mn 06Sep2000
   VRHFIN =Mn: d6 s1

   TITEL  = PAW_PBE Mn 06Sep2000
   POMASS =   54.938; ZVAL   =    7.000    mass and valenz
   ENMAX  =  269.864; ENMIN  =  202.398 eV

 POTCAR:    PAW_PBE Ni 02Aug2007
   VRHFIN =Ni:

   TITEL  = PAW_PBE Ni 02Aug2007
   POMASS =   58.690; ZVAL   =   10.000    mass and valenz
   ENMAX  =  269.532; ENMIN  =  202.149 eV

 POTCAR:    PAW_PBE O 08Apr2002
   VRHFIN =O: s2p4

   TITEL  = PAW_PBE O 08Apr2002
   POMASS =   16.000; ZVAL   =    6.000    mass and valenz
   ENMAX  =  400.000; ENMIN  =  300.000 eV

 Optimization of the real space projectors (new method)

 maximal supplied QI-value         = 13.42
 optimisation between [QCUT,QGAM] = [ 11.67, 23.35] = [ 38.16,152.62] Ry
 Optimized for a Real-space Cutoff    1.63 Angstroem

   l    n(q)    QCUT    max X(q) W(low)/X(q) W(high)/X(q)  e(spline)
   0     11    11.673    13.882    0.27E-04    0.79E-05    0.11E-06
   0     11    11.673    12.184    0.39E-04    0.13E-04    0.19E-06
   1     11    11.673     4.523    0.73E-05    0.76E-05    0.12E-06
   1     11    11.673     4.424    0.87E-05    0.13E-04    0.19E-06
   2     10    11.673    52.481    0.65E-04    0.36E-04    0.18E-06
   2     10    11.673    38.501    0.61E-04    0.33E-04    0.17E-06
   3     10    11.673    65.631    0.17E-03    0.14E-03    0.37E-06
   3     10    11.673    56.854    0.17E-03    0.14E-03    0.37E-06
 Optimization of the real space projectors (new method)

[...]

   l    n(q)    QCUT    max X(q) W(low)/X(q) W(high)/X(q)  e(spline)
   2      9    11.539    60.317    0.19E-03    0.47E-04    0.16E-06
   2      9    11.539    55.921    0.19E-03    0.48E-04    0.16E-06
   0     10    11.539    51.690    0.80E-04    0.50E-04    0.24E-06
   0     10    11.539    30.015    0.73E-04    0.45E-04    0.22E-06
   1     10    11.539    18.849    0.87E-04    0.16E-03    0.71E-07
   1     10    11.539    14.624    0.73E-04    0.13E-03    0.64E-07
 Optimization of the real space projectors (new method)

 maximal supplied QI-value         = 24.76
 optimisation between [QCUT,QGAM] = [ 11.64, 23.27] = [ 37.91,151.63] Ry
 Optimized for a Real-space Cutoff    1.14 Angstroem

   l    n(q)    QCUT    max X(q) W(low)/X(q) W(high)/X(q)  e(spline)
   0      8    11.635    20.381    0.10E-03    0.33E-03    0.24E-06
   0      8    11.635    15.268    0.11E-03    0.35E-03    0.26E-06
   1      7    11.635     5.964    0.24E-03    0.31E-03    0.30E-06
   1      7    11.635     5.382    0.22E-03    0.25E-03    0.26E-06
  PAW_PBE La 06Sep2000                  :
  PAW_PBE Mn 06Sep2000                  :
  PAW_PBE Ni 02Aug2007                  :
  PAW_PBE O 08Apr2002                   :

 POSCAR: SCEL6_6_1_1_0_5_5/2
  positions in direct lattice
  velocities in cartesian coordinates
 exchange correlation table for  LEXCH =        8
   RHO(1)=    0.500       N(1)  =     2000
   RHO(2)=  100.500       N(2)  =     4000

 ion  position               nearest neighbor table
   1  0.667  0.333  0.837-  17 2.72  23 2.72  29 2.72  16 2.76  22 2.76  28 2.76  28 2.76  22 2.76
                            16 2.76  27 2.81  15 2.81  21 2.81  10 3.33  11 3.36  11 3.36  11 3.36
   2  0.333  0.667  0.671-  28 2.71  22 2.71  16 2.71  21 2.76  27 2.76  15 2.76  21 2.76  15 2.76
                            27 2.76  14 2.80  20 2.80  26 2.80  11 3.33   9 3.36   9 3.36   9 3.36
   3  0.000  0.000  0.496-  13 2.71  19 2.71  25 2.71  26 2.76  20 2.76  14 2.76  14 2.76  20 2.76
                            26 2.76  21 2.80  15 2.80  27 2.80  12 3.33   8 3.36   8 3.36   8 3.36
   4  0.667  0.333  0.329-  30 2.72  24 2.72  18 2.72  13 2.76  19 2.76  25 2.76  25 2.76  13 2.76
                            19 2.76  14 2.81  20 2.81  26 2.81  10 3.33  12 3.36  12 3.36  12 3.36
   5  0.333  0.667  0.166-  17 2.76  23 2.76  29 2.76  18 2.76  30 2.76  24 2.76  18 2.76  24 2.76
                            30 2.76  25 2.77  13 2.77  19 2.77  11 3.37   8 3.37  10 3.38  10 3.38
   6  0.000  0.000  0.000-  18 2.76  24 2.76  30 2.76  23 2.76  23 2.76  29 2.76  17 2.76  17 2.76
                            29 2.76  22 2.77  16 2.77  28 2.77  12 3.37   9 3.37  10 3.38  10 3.38
   7  0.667  0.333  0.583-  14 1.99  20 1.99  27 1.99  26 1.99  15 1.99  21 1.99   3 3.40   3 3.40
                             3 3.40   2 3.40   2 3.40   2 3.40
   8  0.333  0.667  0.416-  14 1.92  20 1.92  26 1.92  25 1.93  19 1.93  13 1.93   3 3.36   3 3.36
                             3 3.36   5 3.37   4 3.39   4 3.39   4 3.39
   9  0.000  0.000  0.751-  15 1.92  21 1.92  27 1.92  22 1.93  16 1.93  28 1.93   2 3.36   2 3.36
                             2 3.36   6 3.37   1 3.39   1 3.39   1 3.39
  10  0.667  0.333  0.083-  17 1.91  23 1.91  30 1.91  29 1.91  18 1.91  24 1.91   1 3.33   4 3.33
                             6 3.38   5 3.38   5 3.38   6 3.38   6 3.38   5 3.38
  11  0.333  0.667  0.917-  28 1.97  16 1.97  22 1.97  23 1.99  17 1.99  29 1.99   2 3.33   1 3.36
                             1 3.36   1 3.36   5 3.37   6 3.38   6 3.38   6 3.38
  12  0.000  0.000  0.250-  13 1.97  19 1.97  25 1.97  24 1.99  18 1.99  30 1.99   3 3.33   4 3.36
                             4 3.36   4 3.36   6 3.37   5 3.38   5 3.38   5 3.38
  13  0.664  0.832  0.334-   8 1.93  12 1.97   3 2.71   4 2.76   4 2.76   5 2.77
  14  0.007  0.503  0.499-   8 1.92   7 1.99   3 2.76   3 2.76   2 2.80   4 2.81
  15  0.327  0.163  0.668-   9 1.92   7 1.99   2 2.76   2 2.76   3 2.80   1 2.81
  16  0.669  0.835  0.832-   9 1.93  11 1.97   2 2.71   1 2.76   1 2.76   6 2.77
  17  0.993  0.496  0.002-  10 1.91  11 1.99   1 2.72   5 2.76   6 2.76   6 2.76
  18  0.341  0.170  0.165-  10 1.91  12 1.99   4 2.72   6 2.76   5 2.76   5 2.76
  19  0.168  0.336  0.334-   8 1.93  12 1.97   3 2.71   4 2.76   4 2.76   5 2.77
  20  0.497  0.993  0.499-   8 1.92   7 1.99   3 2.76   3 2.76   2 2.80   4 2.81
  21  0.837  0.673  0.668-   9 1.92   7 1.99   2 2.76   2 2.76   3 2.80   1 2.81
  22  0.165  0.331  0.832-   9 1.93  11 1.97   2 2.71   1 2.76   1 2.76   6 2.77
  23  0.504  0.007  0.002-  10 1.91  11 1.99   1 2.72   5 2.76   6 2.76   6 2.76
  24  0.830  0.659  0.165-  10 1.91  12 1.99   4 2.72   6 2.76   5 2.76   5 2.76
  25  0.168  0.832  0.334-   8 1.93  12 1.97   3 2.71   4 2.76   4 2.76   5 2.77
  26  0.497  0.503  0.499-   8 1.92   7 1.99   3 2.76   3 2.76   2 2.80   4 2.81
  27  0.837  0.163  0.668-   9 1.92   7 1.99   2 2.76   2 2.76   3 2.80   1 2.81
  28  0.165  0.835  0.832-   9 1.93  11 1.97   2 2.71   1 2.76   1 2.76   6 2.77
  29  0.504  0.496  0.002-  10 1.91  11 1.99   1 2.72   5 2.76   6 2.76   6 2.76
  30  0.830  0.170  0.165-  10 1.91  12 1.99   4 2.72   6 2.76   5 2.76   5 2.76

  LATTYP: Found a hexagonal cell.
 ALAT       =     5.5187399044
 C/A-ratio  =     2.4496876624

  Lattice vectors:

 A1 = (   3.9023384100,   0.0000000000,  -3.9023384100)
 A2 = (  -3.9023384100,   3.9023384100,   0.0000000000)
 A3 = (   7.8053074406,   7.8053074406,   7.8053074406)

Analysis of symmetry for initial positions (statically):
 Subroutine PRICEL returns:
 Original cell was already a primitive cell.

 Routine SETGRP: Setting up the symmetry group for a
 hexagonal supercell.

 Subroutine GETGRP returns: Found 12 space group operations
 (whereof  6 operations were pure point group operations)
 out of a pool of 24 trial point group operations.

The static configuration has the point symmetry C_3v.
 The point group associated with its full space group is D_3d.

Analysis of symmetry for dynamics (positions and initial velocities):
 Subroutine PRICEL returns:
 Original cell was already a primitive cell.

[...]

The dynamic configuration has the point symmetry C_3v.
 The point group associated with its full space group is D_3d.

Analysis of structural, dynamic, and magnetic symmetry:
 Subroutine PRICEL returns:
 Original cell was already a primitive cell.

 Routine SETGRP: Setting up the symmetry group for a
 hexagonal supercell.

 Subroutine GETGRP returns: Found 12 space group operations
 (whereof  6 operations were pure point group operations)
 out of a pool of 24 trial point group operations.

The magnetic configuration has the point symmetry C_3v.
 The point group associated with its full space group is D_3d.

 Subroutine INISYM returns: Found 12 space group operations
 (whereof  6 operations are pure point group operations),
 and found     1 'primitive' translations

 KPOINTS: Automatic mesh

Automatic generation of k-mesh.
 generate k-points for:    4    4    1
Space group operators:
 irot       det(A)        alpha          n_x          n_y          n_z        tau_x        tau_y        tau_z
    1     1.000000     0.000000     1.000000     0.000000     0.000000     0.000000     0.000000     0.000000
    2     1.000000   120.000000    -0.577350    -0.577350    -0.577350     0.000000     0.000000     0.000000
    3     1.000000   120.000000     0.577350     0.577350     0.577350     0.000000     0.000000     0.000000
    4    -1.000000   180.000000     0.707107     0.000000    -0.707107     0.000000     0.000000     0.000000
    5    -1.000000   180.000000     0.707107    -0.707107     0.000000     0.000000     0.000000     0.000000
    6    -1.000000   180.000000     0.000000    -0.707107     0.707107     0.000000     0.000000     0.000000
    7    -1.000000     0.000000     1.000000     0.000000     0.000000     0.333333     0.666667     0.166667
    8    -1.000000   120.000000    -0.577350    -0.577350    -0.577350     0.333333     0.666667     0.166667
    9    -1.000000   120.000000     0.577350     0.577350     0.577350     0.333333     0.666667     0.166667
   10     1.000000   180.000000     0.707107     0.000000    -0.707107     0.333333     0.666667     0.166667
   11     1.000000   180.000000     0.707107    -0.707107     0.000000     0.333333     0.666667     0.166667
   12     1.000000   180.000000     0.000000    -0.707107     0.707107     0.333333     0.666667     0.166667

 Subroutine IBZKPT returns following result:

 Found      4 irreducible k-points:

 Following reciprocal coordinates:
            Coordinates               Weight
  0.000000  0.000000  0.000000      1.000000
  0.250000  0.000000  0.000000      6.000000
  0.500000  0.000000  0.000000      3.000000
  0.250000  0.250000  0.000000      6.000000

 Following cartesian coordinates:
            Coordinates               Weight
  0.000000  0.000000  0.000000      1.000000
  0.021355  0.021355 -0.042709      6.000000
  0.042709  0.042709 -0.085419      3.000000
  0.000000  0.064064 -0.064064      6.000000

 TETIRR: Found     10 inequivalent tetrahedra from       96

 SYSTEM =  final
 POSCAR =  SCEL6_6_1_1_0_5_5/2

 Startparameter for this run:
   NWRITE =      2    write-flag & timer
[...]
     30      -7.9016      1.00000
     31      -7.9016      1.00000
     32      -7.7806      1.00000
     33      -7.7686      1.00000
     34      -7.7686      1.00000
     35      -7.6692      1.00000
     36      -7.6692      1.00000
     37      -7.6491      1.00000
     38      -7.6491      1.00000
     39      -7.4605      1.00000
     40      -7.4046      1.00000
     41      -7.3189      1.00000
     42      -7.3018      1.00000
     43       0.3504      1.00000
     44       0.3504      1.00000
     45       0.5277      1.00000
     46       0.5277      1.00000
     47       0.7189      1.00000
     48       1.1766      1.00000
     49       1.2504      1.00000
     50       1.5900      1.00000
     51       1.5900      1.00000
     52       1.6000      1.00000
     53       1.6000      1.00000
     54       1.6127      1.00000
     55       1.7023      1.00000
     56       1.8052      1.00000
     57       1.8164      1.00000
     58       1.8164      1.00000
     59       1.8366      1.00000
     60       1.8366      1.00000
[...]
    130      10.5440      0.00000
    131      10.5630      0.00000
    132      10.5988      0.00000
    133      10.6147      0.00000
    134      10.6372      0.00000
    135      10.6588      0.00000
    136      10.6706      0.00000
    137      10.6982      0.00000
    138      10.7267      0.00000
    139      10.7590      0.00000
    140      10.7599      0.00000
    141      10.7973      0.00000
    142      10.8168      0.00000
    143      10.8431      0.00000
    144      10.8819      0.00000

[...]

 spin component 2

[...]

 k-point     4 :       0.2500    0.2500    0.0000
  band No.  band energies     occupation
      1     -24.2142      1.00000
      2     -24.2035      1.00000
      3     -24.1944      1.00000
      4     -24.1798      1.00000
      5     -24.1532      1.00000
      6     -24.1497      1.00000
      7     -11.2364      1.00000
      8     -11.1697      1.00000
      9     -11.0849      1.00000
     10     -10.8410      1.00000
     11     -10.8287      1.00000
     12     -10.7700      1.00000
     13     -10.3221      1.00000
     14     -10.2979      1.00000
     15     -10.1830      1.00000
     16     -10.0901      1.00000
     17     -10.0498      1.00000
     18     -10.0336      1.00000
     19      -9.8416      1.00000
     20      -9.8072      1.00000
     21      -9.7048      1.00000
     22      -9.6307      1.00000
     23      -9.5775      1.00000
     24      -9.5564      1.00000
     25      -7.9593      1.00000
     26      -7.7223      1.00000
     27      -7.7177      1.00000
     28      -7.6753      1.00000
     29      -7.6619      1.00000
     30      -7.6462      1.00000
     31      -7.4910      1.00000
     32      -7.4820      1.00000
     33      -7.4537      1.00000
     34      -7.4239      1.00000
     35      -7.4130      1.00000
     36      -7.3704      1.00000
     37      -7.3690      1.00000
     38      -7.2798      1.00000
     39      -7.2522      1.00000
     40      -7.2144      1.00000
     41      -7.0933      1.00000
     42      -7.0571      1.00000
     43       1.6940      1.00000
     44       1.7439      1.00000
     45       1.8911      1.00000
     46       2.1821      1.00000
     47       2.2330      1.00000
     48       2.2680      1.00000
     49       2.2897      1.00000
     50       2.3380      1.00000
     51       2.4941      1.00000
     52       2.7074      1.00000
     53       2.7655      1.00000
     54       2.7779      1.00000
     55       3.0295      1.00000
     56       3.0370      1.00000
     57       3.0718      1.00000
     58       3.1445      1.00000
     59       3.1522      1.00000
     60       3.1703      1.00000
[...]
    130      10.7381      0.00000
    131      10.7439      0.00000
    132      10.7463      0.00000
    133      10.7515      0.00000
    134      10.7595      0.00000
    135      10.7710      0.00000
    136      10.7772      0.00000
    137      10.7955      0.00000
    138      10.8103      0.00000
    139      10.8143      0.00000
    140      10.8348      0.00000
    141      10.8547      0.00000
    142      10.8725      0.00000
    143      10.8936      0.00000
    144      10.9109      0.00000

 soft charge-density along one line, spin component           1
         0         1         2         3         4         5         6         7         8         9
 total charge-density along one line

 soft charge-density along one line, spin component           2
         0         1         2         3         4         5         6         7         8         9
 total charge-density along one line

------------------------ aborting loop because EDIFF is reached ----------------------------------------

 total charge

# of ion       s       p       d       f       tot
    1        1.999   5.697   0.482   0.187   8.363
    2        1.999   5.697   0.482   0.187   8.365
    3        1.999   5.697   0.482   0.187   8.365
    4        1.999   5.697   0.482   0.187   8.363
    5        1.998   5.697   0.477   0.185   8.357
    6        1.998   5.697   0.477   0.185   8.357
    7        0.288   0.418   4.942   0.000   5.648
    8        0.343   0.544   4.864   0.000   5.750
    9        0.343   0.544   4.864   0.000   5.750
   10        0.358   0.578   4.846   0.000   5.781
   11        0.381   0.543   8.316   0.000   9.241
   12        0.381   0.543   8.316   0.000   9.241
   13        1.560   3.505   0.000   0.000   5.064
   14        1.565   3.490   0.000   0.000   5.055
   15        1.565   3.490   0.000   0.000   5.055
   16        1.560   3.505   0.000   0.000   5.064
   17        1.560   3.499   0.000   0.000   5.059
   18        1.560   3.499   0.000   0.000   5.059
   19        1.560   3.447   0.000   0.000   5.007
   20        1.564   3.451   0.000   0.000   5.015
   21        1.564   3.451   0.000   0.000   5.015
   22        1.560   3.447   0.000   0.000   5.007
   23        1.560   3.446   0.000   0.000   5.007
   24        1.560   3.446   0.000   0.000   5.007
   25        1.559   3.419   0.000   0.000   4.979
   26        1.563   3.433   0.000   0.000   4.996
   27        1.563   3.433   0.000   0.000   4.996
   28        1.559   3.419   0.000   0.000   4.979
   29        1.560   3.421   0.000   0.000   4.982
   30        1.560   3.421   0.000   0.000   4.982
tot         42.188  99.575  39.029   1.117 181.909

 magnetization (x)

[...]

  FORCE on cell =-STRESS in cart. coord.  units (eV):
  Direction    XX          YY          ZZ          XY          YZ          ZX
  Alpha Z   972.88165   972.88165   972.88165
  Ewald   -5010.36374 -5010.36372 -5010.36372   -25.74138   -25.74136   -25.74138
  Hartree  1089.22371  1089.22371  1089.22371   -26.17202   -26.17202   -26.17202
  E(xc)   -1025.62403 -1025.62404 -1025.62404     0.00550     0.00552     0.00550
  Local    -607.80442  -607.80506  -607.80506    51.97347    51.97407    51.97347
  n-local   400.32342   401.85709   404.63450    -1.54148     1.15648     0.21970
  augment   344.57304   344.57353   344.57353    -0.00747    -0.00797    -0.00747
  Kinetic  3848.58931  3838.91675  3814.23610   -11.67177     8.80679     2.96626
  Fock        0.00000     0.00000     0.00000     0.00000     0.00000     0.00000
  Total      -0.92816    -0.92816    -0.92816     0.03678     0.03678     0.03678
  in kB      -4.17036    -4.17036    -4.17036     0.16525     0.16525     0.16525

 VOLUME and BASIS-vectors are now :
  energy-cutoff  :      520.00
  volume of cell :      356.58
      direct lattice vectors                 reciprocal lattice vectors
     3.902338410  0.000000000 -3.902338410     0.085418869  0.085418869 -0.170837738
    -3.902338410  3.902338410  0.000000000    -0.085418869  0.170837738 -0.085418869
     7.805307441  7.805307441  7.805307441     0.042705984  0.042705984  0.042705984

  length of vectors
     5.518739904  5.518739904 13.519189056     0.209232643  0.209232643  0.073968934

 FORCES acting on ions
    electron-ion (+dipol)            ewald-force                    non-local-force                 convergence-correction
   0.590E+02 0.590E+02 0.590E+02   -.587E+02 -.587E+02 -.587E+02   -.250E+00 -.250E+00 -.250E+00   -.174E-01 -.174E-01 -.174E-01
   0.476E+02 0.476E+02 0.476E+02   -.472E+02 -.472E+02 -.472E+02   -.301E+00 -.301E+00 -.301E+00   -.150E-01 -.150E-01 -.150E-01
   -.476E+02 -.476E+02 -.476E+02   0.472E+02 0.472E+02 0.472E+02   0.301E+00 0.301E+00 0.301E+00   0.151E-01 0.151E-01 0.151E-01
   -.590E+02 -.590E+02 -.590E+02   0.587E+02 0.587E+02 0.587E+02   0.250E+00 0.250E+00 0.250E+00   0.173E-01 0.173E-01 0.173E-01
   -.164E+02 -.164E+02 -.164E+02   0.164E+02 0.164E+02 0.164E+02   0.525E-02 0.525E-02 0.525E-02   0.470E-02 0.470E-02 0.470E-02
   0.164E+02 0.164E+02 0.164E+02   -.164E+02 -.164E+02 -.164E+02   -.525E-02 -.525E-02 -.525E-02   -.470E-02 -.470E-02 -.470E-02
   -.465E-04 -.683E-04 -.683E-04   -.770E-04 0.655E-04 0.655E-04   -.152E-19 -.508E-20 -.169E-20   0.307E-05 0.300E-05 0.300E-05
   -.287E+02 -.287E+02 -.287E+02   0.285E+02 0.285E+02 0.285E+02   0.167E+00 0.167E+00 0.167E+00   0.160E-01 0.160E-01 0.160E-01
   0.287E+02 0.287E+02 0.287E+02   -.285E+02 -.285E+02 -.285E+02   -.167E+00 -.167E+00 -.167E+00   -.160E-01 -.160E-01 -.160E-01
   -.342E-04 -.611E-04 -.611E-04   -.942E-04 0.569E-04 0.569E-04   0.508E-20 -.508E-20 -.508E-20   0.260E-05 0.252E-05 0.252E-05
   0.194E+02 0.194E+02 0.194E+02   -.199E+02 -.199E+02 -.199E+02   0.551E+00 0.551E+00 0.551E+00   -.128E-01 -.128E-01 -.128E-01
   -.194E+02 -.194E+02 -.194E+02   0.199E+02 0.199E+02 0.199E+02   -.551E+00 -.551E+00 -.551E+00   0.128E-01 0.128E-01 0.128E-01
   -.207E+02 -.207E+02 -.629E+02   0.207E+02 0.207E+02 0.591E+02   -.431E-02 -.431E-02 0.385E+01   0.960E-02 0.960E-02 -.537E-02
   -.164E+02 -.164E+02 -.380E+02   0.165E+02 0.165E+02 0.405E+02   -.148E+00 -.148E+00 -.252E+01   0.693E-02 0.693E-02 0.400E-01
   0.164E+02 0.164E+02 0.380E+02   -.165E+02 -.165E+02 -.405E+02   0.148E+00 0.148E+00 0.252E+01   -.693E-02 -.693E-02 -.400E-01
   0.207E+02 0.207E+02 0.629E+02   -.207E+02 -.207E+02 -.591E+02   0.431E-02 0.431E-02 -.385E+01   -.960E-02 -.960E-02 0.537E-02
   0.568E+01 0.568E+01 -.177E+02   -.554E+01 -.554E+01 0.125E+02   -.133E+00 -.133E+00 0.517E+01   -.327E-02 -.327E-02 0.129E-02
   -.568E+01 -.568E+01 0.177E+02   0.554E+01 0.554E+01 -.125E+02   0.133E+00 0.133E+00 -.517E+01   0.327E-02 0.327E-02 -.129E-02
   -.207E+02 -.629E+02 -.207E+02   0.207E+02 0.591E+02 0.207E+02   -.431E-02 0.385E+01 -.431E-02   0.960E-02 -.537E-02 0.960E-02
   -.164E+02 -.380E+02 -.164E+02   0.165E+02 0.405E+02 0.165E+02   -.148E+00 -.252E+01 -.148E+00   0.693E-02 0.400E-01 0.693E-02
   0.164E+02 0.380E+02 0.164E+02   -.165E+02 -.405E+02 -.165E+02   0.148E+00 0.252E+01 0.148E+00   -.693E-02 -.400E-01 -.693E-02
   0.207E+02 0.629E+02 0.207E+02   -.207E+02 -.591E+02 -.207E+02   0.431E-02 -.385E+01 0.431E-02   -.960E-02 0.537E-02 -.960E-02
   0.568E+01 -.177E+02 0.568E+01   -.554E+01 0.125E+02 -.554E+01   -.133E+00 0.517E+01 -.133E+00   -.327E-02 0.129E-02 -.327E-02
   -.568E+01 0.177E+02 -.568E+01   0.554E+01 -.125E+02 0.554E+01   0.133E+00 -.517E+01 0.133E+00   0.327E-02 -.129E-02 0.327E-02
   -.629E+02 -.207E+02 -.207E+02   0.591E+02 0.207E+02 0.207E+02   0.385E+01 -.431E-02 -.431E-02   -.537E-02 0.960E-02 0.960E-02
   -.380E+02 -.164E+02 -.164E+02   0.405E+02 0.165E+02 0.165E+02   -.252E+01 -.148E+00 -.148E+00   0.400E-01 0.693E-02 0.693E-02
   0.380E+02 0.164E+02 0.164E+02   -.405E+02 -.165E+02 -.165E+02   0.252E+01 0.148E+00 0.148E+00   -.400E-01 -.693E-02 -.693E-02
   0.629E+02 0.207E+02 0.207E+02   -.591E+02 -.207E+02 -.207E+02   -.385E+01 0.431E-02 0.431E-02   0.537E-02 -.960E-02 -.960E-02
   -.177E+02 0.568E+01 0.568E+01   0.125E+02 -.554E+01 -.554E+01   0.517E+01 -.133E+00 -.133E+00   0.129E-02 -.327E-02 -.327E-02
   0.177E+02 -.568E+01 -.568E+01   -.125E+02 0.554E+01 0.554E+01   -.517E+01 0.133E+00 0.133E+00   -.129E-02 0.327E-02 0.327E-02
   0.312E-02 0.380E-02 0.380E-02   0.142E-12 0.462E-13 0.746E-13   -.178E-14 -.261E-14 -.169E-14   -.858E-06 -.699E-06 -.699E-06

 POSITION                                       TOTAL-FORCE (eV/Angst)
      7.83669      7.83669      3.93436         0.058368      0.058368      0.058368
      3.93603      7.83837      3.93603         0.093625      0.093625      0.093625
      3.86939      3.86939      3.86939        -0.093625     -0.093625     -0.093625
      3.87106      3.87106     -0.03128        -0.058368     -0.058368     -0.058368
     -0.00195      3.90039     -0.00194         0.012488      0.012488      0.012488
      0.00205      0.00205      0.00205        -0.012488     -0.012488     -0.012488
      5.85388      5.85388      1.95154        -0.000000     -0.000000     -0.000000
      1.94486      5.84720      1.94486        -0.031153     -0.031153     -0.031153
      5.86055      5.86055      5.86055         0.031153      0.031153      0.031153
      1.95122      1.95122     -1.95112        -0.000000     -0.000000     -0.000000
      5.85749      9.75983      5.85749         0.022275      0.022275      0.022275
      1.94792      1.94792      1.94792        -0.022275     -0.022275     -0.022275
      1.95539      5.85773      0.01874        -0.031606     -0.031606      0.004318
      1.95344      5.85578      3.86627        -0.032990     -0.032990      0.012876
      5.85197      5.85197      3.93914         0.032990      0.032990     -0.012876
      5.85002      9.75236      3.88434         0.031606      0.031606     -0.004318
      1.95143      1.95143     -3.85945         0.004562      0.004562      0.008346
      1.95101      1.95101     -0.04278        -0.004562     -0.004562     -0.008346
      1.95539      3.92107      1.95539        -0.031606      0.004318     -0.031606
      1.95344      7.76861      1.95344        -0.032990      0.012876     -0.032990
      5.85197      7.84148      1.94963         0.032990     -0.012876      0.032990
      5.85002      7.78668      5.85002         0.031606     -0.004318      0.031606
      1.95143      0.04289     -1.95091         0.004562      0.008346      0.004562
      1.95101      3.85956     -1.95133        -0.004562     -0.008346     -0.004562
      0.01874      5.85773      1.95539         0.004318     -0.031606     -0.031606
      3.86627      5.85578      1.95344         0.012876     -0.032990     -0.032990
      7.84148      5.85197      1.94963        -0.012876      0.032990      0.032990
      3.88434      9.75236      5.85002        -0.004318      0.031606      0.031606
      0.04289      1.95143     -1.95091         0.008346      0.004562      0.004562
      3.85956      1.95101     -1.95133        -0.008346     -0.004562     -0.004562
    total drift:                                0.003117      0.003796      0.003796

  FREE ENERGIE OF THE ION-ELECTRON SYSTEM (eV)
  free  energy   TOTEN  =      -226.87963285 eV

  energy  without entropy=     -226.87963285  energy(sigma->0) =     -226.87963285

 total charge

[...]

 magnetization (x)

# of ion       s       p       d       f       tot
    1        0.001   0.001   0.009   0.004   0.015
    2        0.001   0.001   0.011   0.006   0.019
    3        0.001   0.001   0.011   0.006   0.019
    4        0.001   0.001   0.009   0.004   0.015
    5        0.001   0.001   0.009   0.003   0.014
    6        0.001   0.001   0.009   0.003   0.014
    7        0.021   0.020   4.042   0.000   4.083
    8        0.025   0.036   3.443   0.000   3.504
    9        0.025   0.036   3.443   0.000   3.504
   10        0.025   0.040   3.189   0.000   3.254
   11        0.005  -0.005   1.704   0.000   1.704
   12        0.005  -0.005   1.704   0.000   1.704
   13        0.006   0.006   0.000   0.000   0.012
   14        0.007  -0.038   0.000   0.000  -0.031
   15        0.007  -0.038   0.000   0.000  -0.031
   16        0.006   0.006   0.000   0.000   0.012
   17        0.005  -0.005   0.000   0.000   0.000
   18        0.005  -0.005   0.000   0.000   0.000
   19        0.005  -0.002   0.000   0.000   0.003
   20        0.005  -0.037   0.000   0.000  -0.032
   21        0.005  -0.037   0.000   0.000  -0.032
   22        0.005  -0.002   0.000   0.000   0.003
   23        0.004  -0.010   0.000   0.000  -0.006
   24        0.004  -0.010   0.000   0.000  -0.006
   25        0.004  -0.010   0.000   0.000  -0.005
   26        0.004  -0.038   0.000   0.000  -0.034
   27        0.004  -0.038   0.000   0.000  -0.034
   28        0.004  -0.010   0.000   0.000  -0.005
   29        0.004  -0.016   0.000   0.000  -0.012
   30        0.004  -0.016   0.000   0.000  -0.012
tot          0.199  -0.173  17.583   0.027  17.636

 BZINTS: Fermi energy:  7.818754;222.000000 electrons
         Band energy:-377.336927;  BLOECHL correction:  0.000000