 vasp.5.4.4.18Apr17-6-g9f103f2a35 (build Oct 03 2018 13:58:34) complex

 executed on             LinuxIFC date 2019.06.04  02:05:29

 INCAR:
 POTCAR:    PAW_PBE La 06Sep2000
 POTCAR:    PAW_PBE Mn 06Sep2000
 POTCAR:    PAW_PBE Ni 02Aug2007
 POTCAR:    PAW_PBE O 08Apr2002

 POTCAR:    PAW_PBE La 06Sep2000
   VRHFIN =La : [core=Kr4d]

   TITEL  = PAW_PBE La 06Sep2000
   POMASS =  138.900; ZVAL   =   11.000    mass and valenz
   ENMAX  =  219.292; ENMIN  =  164.469 eV

 POTCAR:    PAW_PBE Mn 06Sep2000
   VRHFIN =Mn: d6 s1

   TITEL  = PAW_PBE Mn 06Sep2000
   POMASS =   54.938; ZVAL   =    7.000    mass and valenz
   ENMAX  =  269.864; ENMIN  =  202.398 eV

 POTCAR:    PAW_PBE Ni 02Aug2007
   VRHFIN =Ni:

   TITEL  = PAW_PBE Ni 02Aug2007
   POMASS =   58.690; ZVAL   =   10.000    mass and valenz
   ENMAX  =  269.532; ENMIN  =  202.149 eV

 POTCAR:    PAW_PBE O 08Apr2002
   VRHFIN =O: s2p4

   TITEL  = PAW_PBE O 08Apr2002
   POMASS =   16.000; ZVAL   =    6.000    mass and valenz
   ENMAX  =  400.000; ENMIN  =  300.000 eV

 Optimization of the real space projectors (new method)

 maximal supplied QI-value         = 13.42
 optimisation between [QCUT,QGAM] = [ 11.67, 23.35] = [ 38.16,152.62] Ry
 Optimized for a Real-space Cutoff    1.63 Angstroem

   l    n(q)    QCUT    max X(q) W(low)/X(q) W(high)/X(q)  e(spline)
   0     11    11.673    13.882    0.27E-04    0.79E-05    0.11E-06
   0     11    11.673    12.184    0.39E-04    0.13E-04    0.19E-06
   1     11    11.673     4.523    0.73E-05    0.76E-05    0.12E-06
   1     11    11.673     4.424    0.87E-05    0.13E-04    0.19E-06
   2     10    11.673    52.481    0.65E-04    0.36E-04    0.18E-06
   2     10    11.673    38.501    0.61E-04    0.33E-04    0.17E-06
   3     10    11.673    65.631    0.17E-03    0.14E-03    0.37E-06
   3     10    11.673    56.854    0.17E-03    0.14E-03    0.37E-06
 Optimization of the real space projectors (new method)

[...]

   l    n(q)    QCUT    max X(q) W(low)/X(q) W(high)/X(q)  e(spline)
   2      9    11.539    60.317    0.19E-03    0.47E-04    0.16E-06
   2      9    11.539    55.921    0.19E-03    0.48E-04    0.16E-06
   0     10    11.539    51.690    0.80E-04    0.50E-04    0.24E-06
   0     10    11.539    30.015    0.73E-04    0.45E-04    0.22E-06
   1     10    11.539    18.849    0.87E-04    0.16E-03    0.71E-07
   1     10    11.539    14.624    0.73E-04    0.13E-03    0.64E-07
 Optimization of the real space projectors (new method)

 maximal supplied QI-value         = 24.76
 optimisation between [QCUT,QGAM] = [ 11.64, 23.27] = [ 37.91,151.63] Ry
 Optimized for a Real-space Cutoff    1.14 Angstroem

   l    n(q)    QCUT    max X(q) W(low)/X(q) W(high)/X(q)  e(spline)
   0      8    11.635    20.381    0.10E-03    0.33E-03    0.24E-06
   0      8    11.635    15.268    0.11E-03    0.35E-03    0.26E-06
   1      7    11.635     5.964    0.24E-03    0.31E-03    0.30E-06
   1      7    11.635     5.382    0.22E-03    0.25E-03    0.26E-06
  PAW_PBE La 06Sep2000                  :
  PAW_PBE Mn 06Sep2000                  :
  PAW_PBE Ni 02Aug2007                  :
  PAW_PBE O 08Apr2002                   :

 POSCAR: SCEL6_2_1_3_0_0_1/4
  positions in direct lattice
  velocities in cartesian coordinates
 exchange correlation table for  LEXCH =        8
   RHO(1)=    0.500       N(1)  =     2000
   RHO(2)=  100.500       N(2)  =     4000

 ion  position               nearest neighbor table
   1  0.500  0.500  0.328-  20 2.68  23 2.68  26 2.68  29 2.68  14 2.74  14 2.74  17 2.74  17 2.74
                            28 2.78  19 2.78  25 2.78  22 2.78   7 3.33   7 3.33  11 3.33  11 3.33
   2  0.000  0.000  0.678-  21 2.65  24 2.65  27 2.65  30 2.65  13 2.75  13 2.75  16 2.75  16 2.75
                            12 3.29  12 3.29  10 3.29  10 3.29
   3  0.500  0.500  0.995-  21 2.72  24 2.72  27 2.72  30 2.72  15 2.74  15 2.74  18 2.75  18 2.75
                            29 2.81  20 2.81  26 2.81  23 2.81  10 3.32  10 3.32  12 3.33  12 3.33
   4  0.000  0.000  0.328-  20 2.68  23 2.68  26 2.68  29 2.68  14 2.74  14 2.74  17 2.74  17 2.74
                            28 2.78  19 2.78  25 2.78  22 2.78   7 3.33   7 3.33  11 3.33  11 3.33
   5  0.500  0.500  0.678-  21 2.65  24 2.65  27 2.65  30 2.65  13 2.75  13 2.75  16 2.75  16 2.75
                            12 3.29  12 3.29  10 3.29  10 3.29
   6  0.000  0.000  0.995-  21 2.72  24 2.72  27 2.72  30 2.72  15 2.74  15 2.74  18 2.75  18 2.75
                            29 2.81  20 2.81  26 2.81  23 2.81  10 3.32  10 3.32  12 3.33  12 3.33
   7  0.500  0.000  0.166-  18 1.88  20 1.90  23 1.90  26 1.90  29 1.90  14 1.96   1 3.33   4 3.33
                             1 3.33   4 3.33   3 3.39   3 3.39   6 3.39   6 3.39
   8  0.000  0.500  0.500-  13 1.90  17 1.91  19 1.94  22 1.94  25 1.94  28 1.94   1 3.40   4 3.40
                             4 3.40   1 3.40
   9  0.500  0.000  0.501-  16 1.87  19 1.94  22 1.94  25 1.94  28 1.94  14 1.95   1 3.41   4 3.41
                             1 3.41   4 3.41
  10  0.000  0.500  0.834-  15 1.94  21 1.96  24 1.96  27 1.96  30 1.96  13 1.99   2 3.29   5 3.29
                             2 3.29   5 3.29   3 3.32   6 3.32   3 3.32   6 3.32
  11  0.000  0.500  0.166-  15 1.94  20 1.98  23 1.98  26 1.98  29 1.98  17 1.99   1 3.33   4 3.33
                             4 3.33   1 3.33
  12  0.500  0.000  0.833-  21 1.92  24 1.92  27 1.92  30 1.92  16 2.01  18 2.01   2 3.29   5 3.29
                             5 3.29   2 3.29   3 3.33   3 3.33   6 3.33   6 3.33
  13  0.000  0.500  0.663-   8 1.90  10 1.99   2 2.75   5 2.75   2 2.75   5 2.75
  14  0.500  0.000  0.334-   9 1.95   7 1.96   1 2.74   4 2.74   1 2.74   4 2.74
  15  0.000  0.500  1.000-  11 1.94  10 1.94   3 2.74   6 2.74   6 2.74   3 2.74
  16  0.500  0.000  0.661-   9 1.87  12 2.01   2 2.75   5 2.75   5 2.75   2 2.75
  17  0.000  0.500  0.336-   8 1.91  11 1.99   1 2.74   4 2.74   4 2.74   1 2.74
  18  0.500  0.000  0.005-   7 1.88  12 2.01   3 2.75   6 2.75   3 2.75   6 2.75
  19  0.750  0.750  0.499-   8 1.94   9 1.94   1 2.78   4 2.78
  20  0.256  0.244  0.170-   7 1.90  11 1.98   1 2.68   4 2.68   3 2.81   6 2.81
  21  0.747  0.753  0.832-  12 1.92  10 1.96   2 2.65   5 2.65   3 2.72   6 2.72
  22  0.250  0.250  0.499-   8 1.94   9 1.94   1 2.78   4 2.78
  23  0.744  0.756  0.170-   7 1.90  11 1.98   1 2.68   4 2.68   3 2.81   6 2.81
  24  0.253  0.247  0.832-  12 1.92  10 1.96   2 2.65   5 2.65   3 2.72   6 2.72
  25  0.750  0.250  0.499-   8 1.94   9 1.94   1 2.78   4 2.78
  26  0.256  0.756  0.170-   7 1.90  11 1.98   1 2.68   4 2.68   3 2.81   6 2.81
  27  0.747  0.247  0.832-  12 1.92  10 1.96   2 2.65   5 2.65   3 2.72   6 2.72
  28  0.250  0.750  0.499-   8 1.94   9 1.94   1 2.78   4 2.78
  29  0.744  0.244  0.170-   7 1.90  11 1.98   1 2.68   4 2.68   3 2.81   6 2.81
  30  0.253  0.753  0.832-  12 1.92  10 1.96   2 2.65   5 2.65   3 2.72   6 2.72

  LATTYP: Found a simple tetragonal cell.
 ALAT       =     5.4857000411
 C/A-ratio  =     2.1271789337

  Lattice vectors:

 A1 = (   3.8789756986,   3.8789756986,   0.0000000000)
 A2 = (   3.8789756986,  -3.8789756986,   0.0000000000)
 A3 = (   0.0000000000,   0.0000000000, -11.6690655640)

Analysis of symmetry for initial positions (statically):
 Subroutine PRICEL returns:
 Original cell was already a primitive cell.

 Routine SETGRP: Setting up the symmetry group for a
 simple tetragonal supercell.

 Subroutine GETGRP returns: Found  8 space group operations
 (whereof  4 operations were pure point group operations)
 out of a pool of 16 trial point group operations.

The static configuration has the point symmetry C_2v.
 The point group associated with its full space group is C_4v.

Analysis of symmetry for dynamics (positions and initial velocities):
 Subroutine PRICEL returns:
 Original cell was already a primitive cell.

[...]

The dynamic configuration has the point symmetry C_2v.
 The point group associated with its full space group is C_4v.

Analysis of structural, dynamic, and magnetic symmetry:
 Subroutine PRICEL returns:
 Original cell was already a primitive cell.

 Routine SETGRP: Setting up the symmetry group for a
 simple tetragonal supercell.

 Subroutine GETGRP returns: Found  8 space group operations
 (whereof  4 operations were pure point group operations)
 out of a pool of 16 trial point group operations.

The magnetic configuration has the point symmetry C_2v.
 The point group associated with its full space group is C_4v.

 Subroutine INISYM returns: Found  8 space group operations
 (whereof  4 operations are pure point group operations),
 and found     1 'primitive' translations

 KPOINTS: Automatic mesh

Automatic generation of k-mesh.
 generate k-points for:    4    4    2
Space group operators:
 irot       det(A)        alpha          n_x          n_y          n_z        tau_x        tau_y        tau_z
    1     1.000000     0.000000     1.000000     0.000000     0.000000     0.000000     0.000000     0.000000
    2     1.000000   180.000000     0.000000     0.000000     1.000000     0.000000     0.000000     0.000000
    3    -1.000000   180.000000     0.707107    -0.707107     0.000000     0.000000     0.000000     0.000000
    4    -1.000000   180.000000     0.707107     0.707107     0.000000     0.000000     0.000000     0.000000
    5     1.000000    90.000000     0.000000     0.000000     1.000000     0.500000     0.500000     0.000000
    6     1.000000    90.000000     0.000000     0.000000    -1.000000     0.500000     0.500000     0.000000
    7    -1.000000   180.000000     1.000000     0.000000     0.000000     0.500000     0.500000     0.000000
    8    -1.000000   180.000000     0.000000     1.000000     0.000000     0.500000     0.500000     0.000000

 Subroutine IBZKPT returns following result:

 Found     12 irreducible k-points:

 Following reciprocal coordinates:
            Coordinates               Weight
  0.000000  0.000000  0.000000      1.000000
  0.250000  0.000000  0.000000      4.000000
  0.500000  0.000000  0.000000      2.000000
  0.250000  0.250000  0.000000      4.000000
  0.500000  0.250000  0.000000      4.000000
  0.500000  0.500000  0.000000      1.000000
  0.000000  0.000000  0.500000      1.000000
  0.250000  0.000000  0.500000      4.000000
  0.500000  0.000000  0.500000      2.000000
  0.250000  0.250000  0.500000      4.000000
  0.500000  0.250000  0.500000      4.000000
  0.500000  0.500000  0.500000      1.000000

 Following cartesian coordinates:
            Coordinates               Weight
  0.000000  0.000000  0.000000      1.000000
  0.032225  0.032225  0.000000      4.000000
  0.064450  0.064450  0.000000      2.000000
  0.064450  0.000000  0.000000      4.000000
  0.096675  0.032225  0.000000      4.000000
  0.128900  0.000000  0.000000      1.000000
  0.000000  0.000000 -0.042848      1.000000
  0.032225  0.032225 -0.042848      4.000000
  0.064450  0.064450 -0.042848      2.000000
  0.064450  0.000000 -0.042848      4.000000
  0.096675  0.032225 -0.042848      4.000000
  0.128900  0.000000 -0.042848      1.000000

 TETIRR: Found     48 inequivalent tetrahedra from      192

 SYSTEM =  final
 POSCAR =  SCEL6_2_1_3_0_0_1/4

[...]
     30      -7.5567      1.00000
     31      -7.4666      1.00000
     32      -7.4666      1.00000
     33      -7.4484      1.00000
     34      -7.4096      1.00000
     35      -7.4096      1.00000
     36      -7.3436      1.00000
     37      -7.3436      1.00000
     38      -7.2233      1.00000
     39      -6.9413      1.00000
     40      -6.9413      1.00000
     41      -6.7976      1.00000
     42      -6.7386      1.00000
     43       0.1776      1.00000
     44       0.1802      1.00000
     45       0.4385      1.00000
     46       0.4546      1.00000
     47       0.8378      1.00000
     48       0.9439      1.00000
     49       0.9971      1.00000
     50       1.1608      1.00000
     51       1.1906      1.00000
     52       1.4005      1.00000
     53       1.5597      1.00000
     54       1.6203      1.00000
     55       1.6737      1.00000
     56       1.6737      1.00000
     57       1.6814      1.00000
     58       1.7724      1.00000
     59       1.7724      1.00000
     60       1.9749      1.00000
[...]
    132      10.8756      0.00000
    133      10.9193      0.00000
    134      10.9262      0.00000
    135      10.9790      0.00000
    136      10.9818      0.00000
    137      11.0186      0.00000
    138      11.0549      0.00000
    139      11.0707      0.00000
    140      11.1000      0.00000
    141      11.1097      0.00000
    142      11.1311      0.00000
    143      11.1588      0.00000
    144      11.1707      0.00000
    145      11.2023      0.00000
    146      11.2417      0.00000

[...]

 spin component 2

[...]

 k-point    12 :       0.5000    0.5000    0.5000
  band No.  band energies     occupation
      1     -23.8783      1.00000
      2     -23.8783      1.00000
      3     -23.8667      1.00000
      4     -23.8667      1.00000
      5     -23.8254      1.00000
      6     -23.8254      1.00000
      7     -11.2868      1.00000
      8     -11.1708      1.00000
      9     -11.1243      1.00000
     10     -10.9266      1.00000
     11     -10.4503      1.00000
     12     -10.3287      1.00000
     13     -10.3287      1.00000
     14     -10.1230      1.00000
     15     -10.0878      1.00000
     16     -10.0238      1.00000
     17      -9.8955      1.00000
     18      -9.8955      1.00000
     19      -9.8633      1.00000
     20      -9.8633      1.00000
     21      -9.6092      1.00000
     22      -9.4523      1.00000
     23      -9.4358      1.00000
     24      -9.1162      1.00000
     25      -7.3453      1.00000
     26      -7.3296      1.00000
     27      -7.3061      1.00000
     28      -7.2957      1.00000
     29      -7.2577      1.00000
     30      -7.2577      1.00000
     31      -7.2339      1.00000
     32      -7.1993      1.00000
     33      -7.1993      1.00000
     34      -7.1905      1.00000
     35      -7.0396      1.00000
     36      -6.9763      1.00000
     37      -6.9763      1.00000
     38      -6.9010      1.00000
     39      -6.7870      1.00000
     40      -6.7299      1.00000
     41      -6.6454      1.00000
     42      -6.5412      1.00000
     43       1.7256      1.00000
     44       1.7766      1.00000
     45       1.8050      1.00000
     46       1.8051      1.00000
     47       2.2125      1.00000
     48       2.3146      1.00000
     49       2.4289      1.00000
     50       2.5722      1.00000
     51       2.5775      1.00000
     52       2.6362      1.00000
     53       2.6362      1.00000
     54       2.8200      1.00000
     55       2.8473      1.00000
     56       2.8473      1.00000
     57       2.9817      1.00000
     58       3.0980      1.00000
     59       3.0980      1.00000
     60       3.0989      1.00000
[...]
    132      11.0633      0.00000
    133      11.0684      0.00000
    134      11.0787      0.00000
    135      11.0924      0.00000
    136      11.1028      0.00000
    137      11.1142      0.00000
    138      11.1209      0.00000
    139      11.1256      0.00000
    140      11.1332      0.00000
    141      11.1401      0.00000
    142      11.1515      0.00000
    143      11.1625      0.00000
    144      11.1723      0.00000
    145      11.1789      0.00000
    146      11.2013      0.00000

 soft charge-density along one line, spin component           1
         0         1         2         3         4         5         6         7         8         9
 total charge-density along one line

 soft charge-density along one line, spin component           2
         0         1         2         3         4         5         6         7         8         9
 total charge-density along one line

------------------------ aborting loop because EDIFF is reached ----------------------------------------

 total charge

# of ion       s       p       d       f       tot
    1        2.000   5.700   0.499   0.194   8.393
    2        2.001   5.699   0.497   0.193   8.390
    3        1.999   5.696   0.486   0.184   8.365
    4        2.000   5.701   0.496   0.195   8.392
    5        2.001   5.698   0.499   0.192   8.390
    6        1.999   5.698   0.478   0.189   8.363
    7        0.360   0.580   4.863   0.000   5.803
    8        0.335   0.522   4.860   0.000   5.717
    9        0.333   0.515   4.871   0.000   5.718
   10        0.406   0.596   8.322   0.000   9.324
   11        0.385   0.554   8.319   0.000   9.258
   12        0.420   0.624   8.331   0.000   9.375
   13        1.562   3.452   0.000   0.000   5.014
   14        1.561   3.472   0.000   0.000   5.033
   15        1.556   3.448   0.000   0.000   5.004
   16        1.564   3.453   0.000   0.000   5.017
   17        1.560   3.456   0.000   0.000   5.016
   18        1.563   3.450   0.000   0.000   5.014
   19        1.565   3.465   0.000   0.000   5.030
   20        1.562   3.463   0.000   0.000   5.025
   21        1.559   3.449   0.000   0.000   5.009
   22        1.565   3.465   0.000   0.000   5.030
   23        1.562   3.463   0.000   0.000   5.025
   24        1.559   3.449   0.000   0.000   5.009
   25        1.563   3.443   0.000   0.000   5.006
   26        1.561   3.457   0.000   0.000   5.018
   27        1.559   3.457   0.000   0.000   5.015
   28        1.563   3.443   0.000   0.000   5.006
   29        1.561   3.457   0.000   0.000   5.018
   30        1.559   3.457   0.000   0.000   5.015
tot         42.344  99.779  42.520   1.146 185.789

 magnetization (x)

[...]

  FORCE on cell =-STRESS in cart. coord.  units (eV):
  Direction    XX          YY          ZZ          XY          YZ          ZX
  Alpha Z   983.41202   983.41202   983.41202
  Ewald   -5069.14080 -5069.14080 -5315.99639     0.00000     0.00000    -0.00000
  Hartree  1249.78949  1249.78949  1029.60138    -0.00000     0.00000     0.00000
  E(xc)   -1046.29978 -1046.29978 -1046.37365    -0.00000    -0.00000     0.00000
  Local    -871.29961  -871.29961  -403.35533     0.00000    -0.00000     0.00000
  n-local   415.99417   415.92862   416.46103    -2.09193     0.00034    -0.00064
  augment   489.23255   489.23255   489.34955     0.00000     0.00000     0.00000
  Kinetic  3846.45005  3850.01678  3846.59455   -12.51041    -0.00018     0.00013
  Fock        0.00000     0.00000     0.00000     0.00000     0.00000     0.00000
  Total      -0.11132    -0.11132    -0.30683    -0.00000     0.00000     0.00000
  in kB      -0.50790    -0.50790    -1.39993    -0.00000     0.00000     0.00000

 VOLUME and BASIS-vectors are now :
  energy-cutoff  :      520.00
  volume of cell :      351.16
      direct lattice vectors                 reciprocal lattice vectors
     3.878975699  3.878975699  0.000000000     0.128900008  0.128900008  0.000000000
     3.878975699 -3.878975699  0.000000000     0.128900008 -0.128900008  0.000000000
     0.000000000  0.000000000-11.669065564     0.000000000  0.000000000 -0.085696665

  length of vectors
     5.485700041  5.485700041 11.669065564     0.182292140  0.182292140  0.085696665

 FORCES acting on ions
    electron-ion (+dipol)            ewald-force                    non-local-force                 convergence-correction
   0.545E-12 -.573E-12 0.940E+02   0.288E-13 0.335E-13 -.933E+02   0.000E+00 0.000E+00 -.693E+00   0.182E-13 -.444E-14 -.158E-01
   0.482E-13 -.695E-13 -.183E+03   -.221E-13 0.426E-13 0.182E+03   0.322E-19 0.220E-19 0.135E+01   0.128E-14 -.176E-13 0.762E-02
   0.700E-12 -.727E-12 0.884E+02   0.121E-13 -.213E-13 -.878E+02   0.108E-18 0.108E-18 -.607E+00   0.307E-13 0.308E-13 0.915E-02
   -.275E-12 0.246E-12 0.940E+02   0.216E-13 0.822E-14 -.933E+02   0.000E+00 0.000E+00 -.693E+00   0.925E-14 0.318E-13 -.158E-01
   0.703E-12 -.725E-12 -.183E+03   -.341E-13 -.426E-13 0.182E+03   0.271E-19 0.136E-19 0.135E+01   0.488E-13 0.208E-13 0.762E-02
   -.262E-13 0.136E-13 0.884E+02   0.291E-13 0.497E-13 -.878E+02   -.217E-18 0.163E-18 -.607E+00   0.224E-13 -.155E-13 0.915E-02
   0.369E-12 -.100E-12 0.487E+02   -.799E-13 -.205E-13 -.480E+02   0.000E+00 0.000E+00 -.694E+00   -.321E-13 -.186E-13 0.348E-02
   0.104E-12 -.976E-13 -.157E+02   0.879E-13 0.336E-13 0.157E+02   0.847E-21 -.847E-21 -.934E-01   -.238E-13 -.147E-13 -.461E-02
   0.812E-13 0.177E-12 -.327E+02   -.346E-13 -.540E-14 0.322E+02   0.000E+00 -.847E-21 0.555E+00   -.108E-13 0.995E-14 -.165E-01
   0.889E-12 -.877E-12 -.405E+02   0.142E-12 -.807E-13 0.386E+02   0.741E-21 -.741E-21 0.190E+01   -.721E-13 -.120E-13 0.178E-01
   0.816E-12 -.804E-12 0.627E+02   -.711E-14 -.340E-13 -.608E+02   0.000E+00 0.000E+00 -.191E+01   -.254E-13 -.951E-14 -.970E-02
   0.612E-12 0.867E-12 -.222E+02   -.142E-12 -.140E-12 0.220E+02   0.000E+00 0.000E+00 0.112E+00   -.341E-13 -.196E-13 0.172E-01
   -.889E-13 0.111E-12 -.106E+03   0.320E-13 0.144E-13 0.101E+03   -.339E-20 0.339E-20 0.453E+01   -.482E-13 -.298E-13 -.193E-01
   0.227E-12 0.102E-12 0.386E+02   0.344E-14 0.832E-14 -.385E+02   0.000E+00 0.000E+00 -.744E-01   -.149E-13 -.155E-13 0.198E-01
   0.575E-13 -.396E-13 0.374E+02   0.462E-13 0.150E-13 -.376E+02   0.102E-19 0.678E-20 0.232E+00   -.481E-13 -.166E-13 0.559E-02
   -.468E-13 0.382E-12 -.992E+02   0.711E-14 0.168E-13 0.928E+02   -.254E-20 -.847E-21 0.645E+01   -.460E-14 0.713E-14 -.555E-01
   0.150E-12 -.131E-12 0.692E+02   -.397E-13 0.184E-14 -.648E+02   0.000E+00 0.000E+00 -.441E+01   -.139E-14 -.193E-13 0.138E-01
   0.543E-12 -.212E-12 0.593E+02   0.142E-13 -.304E-14 -.528E+02   0.000E+00 0.000E+00 -.653E+01   0.327E-15 -.122E-13 0.311E-01
   0.444E-09 0.169E+01 -.146E+02   -.338E-13 -.190E+01 0.145E+02   0.000E+00 0.198E+00 0.127E+00   -.564E-14 0.253E-01 -.491E-02
   -.112E-07 -.290E+02 0.320E+02   -.430E-13 0.236E+02 -.311E+02   0.000E+00 0.543E+01 -.921E+00   0.612E-14 -.154E-01 0.121E-02
   0.466E-07 -.101E+02 -.167E+02   0.200E-13 0.115E+02 0.161E+02   0.000E+00 -.134E+01 0.663E+00   -.262E-13 -.168E-01 0.512E-02
   0.444E-09 -.169E+01 -.146E+02   0.202E-13 0.190E+01 0.145E+02   0.000E+00 -.198E+00 0.127E+00   -.172E-13 -.253E-01 -.491E-02
   -.112E-07 0.290E+02 0.320E+02   -.527E-15 -.236E+02 -.311E+02   0.000E+00 -.543E+01 -.921E+00   -.390E-13 0.154E-01 0.121E-02
   0.466E-07 0.101E+02 -.167E+02   -.266E-14 -.115E+02 0.161E+02   0.000E+00 0.134E+01 0.663E+00   -.155E-13 0.168E-01 0.512E-02
   0.169E+01 -.331E-11 -.146E+02   -.190E+01 0.203E-13 0.145E+02   0.198E+00 0.000E+00 0.127E+00   0.253E-01 -.962E-14 -.491E-02
   -.290E+02 -.801E-12 0.320E+02   0.236E+02 -.134E-13 -.311E+02   0.543E+01 0.000E+00 -.921E+00   -.154E-01 0.134E-13 0.121E-02
   -.101E+02 0.684E-13 -.167E+02   0.115E+02 0.256E-14 0.161E+02   -.134E+01 0.000E+00 0.663E+00   -.168E-01 -.171E-13 0.512E-02
   -.169E+01 0.763E-13 -.146E+02   0.190E+01 -.201E-14 0.145E+02   -.198E+00 0.000E+00 0.127E+00   -.253E-01 -.142E-13 -.491E-02
   0.290E+02 0.796E-12 0.320E+02   -.236E+02 -.359E-13 -.311E+02   -.543E+01 0.000E+00 -.921E+00   0.154E-01 -.395E-13 0.121E-02
   0.101E+02 -.573E-12 -.167E+02   -.115E+02 -.277E-13 0.161E+02   0.134E+01 0.000E+00 0.663E+00   0.168E-01 -.432E-14 0.512E-02
   0.364E-11 -.252E-11 0.332E+00   -.320E-13 -.170E-13 0.711E-13   0.888E-15 0.888E-15 -.363E+00   -.142E-12 -.237E-12 0.108E-01

 POSITION                                       TOTAL-FORCE (eV/Angst)
      3.87898      0.00000     -3.82421        -0.000000     -0.000000     -0.017513
      0.00000      0.00000     -7.90713        -0.000000     -0.000000      0.031690
      3.87898      0.00000    -11.60913        -0.000000     -0.000000     -0.021838
      0.00000      0.00000     -3.82421        -0.000000     -0.000000     -0.017513
      3.87898      0.00000     -7.90713        -0.000000     -0.000000      0.031690
      0.00000      0.00000    -11.60913        -0.000000     -0.000000     -0.021838
      1.93949      1.93949     -1.93902        -0.000000     -0.000000     -0.009571
      1.93949     -1.93949     -5.83724        -0.000000     -0.000000     -0.011767
      1.93949      1.93949     -5.84595        -0.000000     -0.000000     -0.012957
      1.93949     -1.93949     -9.72982        -0.000000     -0.000000      0.004281
      1.93949     -1.93949     -1.93768        -0.000000     -0.000000     -0.013974
      1.93949      1.93949     -9.72069        -0.000000     -0.000000      0.002288
      1.93949     -1.93949     -7.74204        -0.000000     -0.000000      0.046513
      1.93949      1.93949     -3.90089        -0.000000     -0.000000      0.007169
      1.93949     -1.93949    -11.66854        -0.000000     -0.000000     -0.000621
      1.93949      1.93949     -7.71504        -0.000000     -0.000000     -0.006038
      1.93949     -1.93949     -3.92381        -0.000000     -0.000000     -0.004967
      1.93949      1.93949     -0.05856        -0.000000     -0.000000     -0.001505
      5.81846      0.00164     -5.81728        -0.000000      0.012152      0.034432
      1.93949      0.04391     -1.97839        -0.000000      0.009865     -0.043120
      5.81846     -0.02034     -9.70555        -0.000000      0.021130      0.012806
      1.93949     -0.00164     -5.81728        -0.000000     -0.012152      0.034432
      5.81846     -0.04391     -1.97839        -0.000000     -0.009865     -0.043120
      1.93949      0.02034     -9.70555        -0.000000     -0.021130      0.012806
      3.88062      1.93949     -5.81728         0.012152     -0.000000      0.034432
      3.92288     -1.93949     -1.97839         0.009865     -0.000000     -0.043120
      3.85864      1.93949     -9.70555         0.021130     -0.000000      0.012806
      3.87733     -1.93949     -5.81728        -0.012152     -0.000000      0.034432
      3.83507      1.93949     -1.97839        -0.009865     -0.000000     -0.043120
      3.89931     -1.93949     -9.70555        -0.021130     -0.000000      0.012806
    total drift:                                0.000000     -0.000000     -0.020865

  FREE ENERGIE OF THE ION-ELECTRON SYSTEM (eV)
  free  energy   TOTEN  =      -220.46464862 eV

  energy  without entropy=     -220.46464862  energy(sigma->0) =     -220.46464862

 total charge

[...]

 magnetization (x)

# of ion       s       p       d       f       tot
    1        0.001   0.002   0.011   0.004   0.017
    2        0.000   0.001   0.007   0.004   0.012
    3        0.000   0.001   0.004   0.002   0.006
    4        0.000   0.001   0.010   0.005   0.017
    5        0.000   0.001   0.007   0.004   0.012
    6        0.000  -0.000   0.005   0.002   0.006
    7        0.024   0.035   3.191   0.000   3.250
    8        0.021   0.024   3.448   0.000   3.494
    9        0.020   0.019   3.478   0.000   3.517
   10        0.015   0.012   1.590   0.000   1.618
   11        0.006  -0.001   1.687   0.000   1.692
   12        0.017   0.011   1.511   0.000   1.539
   13        0.005  -0.029   0.000   0.000  -0.024
   14        0.001  -0.014   0.000   0.000  -0.013
   15        0.007   0.006   0.000   0.000   0.012
   16        0.005  -0.038   0.000   0.000  -0.033
   17        0.004  -0.020   0.000   0.000  -0.016
   18        0.005  -0.034   0.000   0.000  -0.029
   19        0.006  -0.041   0.000   0.000  -0.036
   20        0.006  -0.008   0.000   0.000  -0.003
   21        0.007  -0.040   0.000   0.000  -0.033
   22        0.006  -0.041   0.000   0.000  -0.036
   23        0.006  -0.008   0.000   0.000  -0.003
   24        0.007  -0.040   0.000   0.000  -0.033
   25        0.002  -0.050   0.000   0.000  -0.048
   26        0.004  -0.005   0.000   0.000  -0.002
   27        0.006  -0.021   0.000   0.000  -0.015
   28        0.002  -0.050   0.000   0.000  -0.048
   29        0.004  -0.005   0.000   0.000  -0.002
   30        0.006  -0.021   0.000   0.000  -0.015
tot          0.193  -0.356  14.948   0.020  14.805

 BZINTS: Fermi energy:  7.567008;225.000000 electrons
         Band energy:-329.674979;  BLOECHL correction: -0.018273