 vasp.5.4.4.18Apr17-6-g9f103f2a35 (build Oct 03 2018 13:58:34) complex

 executed on             LinuxIFC date 2019.06.04  01:58:43

 INCAR:
 POTCAR:    PAW_PBE La 06Sep2000
 POTCAR:    PAW_PBE Mn 06Sep2000
 POTCAR:    PAW_PBE Ni 02Aug2007
 POTCAR:    PAW_PBE O 08Apr2002

 POTCAR:    PAW_PBE La 06Sep2000
   VRHFIN =La : [core=Kr4d]

   TITEL  = PAW_PBE La 06Sep2000
   POMASS =  138.900; ZVAL   =   11.000    mass and valenz
   ENMAX  =  219.292; ENMIN  =  164.469 eV

 POTCAR:    PAW_PBE Mn 06Sep2000
   VRHFIN =Mn: d6 s1

   TITEL  = PAW_PBE Mn 06Sep2000
   POMASS =   54.938; ZVAL   =    7.000    mass and valenz
   ENMAX  =  269.864; ENMIN  =  202.398 eV

 POTCAR:    PAW_PBE Ni 02Aug2007
   VRHFIN =Ni:

   TITEL  = PAW_PBE Ni 02Aug2007
   POMASS =   58.690; ZVAL   =   10.000    mass and valenz
   ENMAX  =  269.532; ENMIN  =  202.149 eV

 POTCAR:    PAW_PBE O 08Apr2002
   VRHFIN =O: s2p4

   TITEL  = PAW_PBE O 08Apr2002
   POMASS =   16.000; ZVAL   =    6.000    mass and valenz
   ENMAX  =  400.000; ENMIN  =  300.000 eV

 Optimization of the real space projectors (new method)

 maximal supplied QI-value         = 13.42
 optimisation between [QCUT,QGAM] = [ 11.67, 23.35] = [ 38.16,152.62] Ry
 Optimized for a Real-space Cutoff    1.63 Angstroem

   l    n(q)    QCUT    max X(q) W(low)/X(q) W(high)/X(q)  e(spline)
   0     11    11.673    13.882    0.27E-04    0.79E-05    0.11E-06
   0     11    11.673    12.184    0.39E-04    0.13E-04    0.19E-06
   1     11    11.673     4.523    0.73E-05    0.76E-05    0.12E-06
   1     11    11.673     4.424    0.87E-05    0.13E-04    0.19E-06
   2     10    11.673    52.481    0.65E-04    0.36E-04    0.18E-06
   2     10    11.673    38.501    0.61E-04    0.33E-04    0.17E-06
   3     10    11.673    65.631    0.17E-03    0.14E-03    0.37E-06
   3     10    11.673    56.854    0.17E-03    0.14E-03    0.37E-06
 Optimization of the real space projectors (new method)

[...]

   l    n(q)    QCUT    max X(q) W(low)/X(q) W(high)/X(q)  e(spline)
   2      9    11.539    60.317    0.19E-03    0.47E-04    0.16E-06
   2      9    11.539    55.921    0.19E-03    0.48E-04    0.16E-06
   0     10    11.539    51.690    0.80E-04    0.50E-04    0.24E-06
   0     10    11.539    30.015    0.73E-04    0.45E-04    0.22E-06
   1     10    11.539    18.849    0.87E-04    0.16E-03    0.71E-07
   1     10    11.539    14.624    0.73E-04    0.13E-03    0.64E-07
 Optimization of the real space projectors (new method)

 maximal supplied QI-value         = 24.76
 optimisation between [QCUT,QGAM] = [ 11.64, 23.27] = [ 37.91,151.63] Ry
 Optimized for a Real-space Cutoff    1.14 Angstroem

   l    n(q)    QCUT    max X(q) W(low)/X(q) W(high)/X(q)  e(spline)
   0      8    11.635    20.381    0.10E-03    0.33E-03    0.24E-06
   0      8    11.635    15.268    0.11E-03    0.35E-03    0.26E-06
   1      7    11.635     5.964    0.24E-03    0.31E-03    0.30E-06
   1      7    11.635     5.382    0.22E-03    0.25E-03    0.26E-06
  PAW_PBE La 06Sep2000                  :
  PAW_PBE Mn 06Sep2000                  :
  PAW_PBE Ni 02Aug2007                  :
  PAW_PBE O 08Apr2002                   :

 POSCAR: SCEL5_5_1_1_0_1_1/2
  positions in direct lattice
  velocities in cartesian coordinates
 exchange correlation table for  LEXCH =        8
   RHO(1)=    0.500       N(1)  =     2000
   RHO(2)=  100.500       N(2)  =     4000

 ion  position               nearest neighbor table
   1  0.803  0.803  0.592-  23 2.66  16 2.66  11 2.66  19 2.75  14 2.75  21 2.75  21 2.75  19 2.75
                            14 2.75  24 2.81  17 2.81  12 2.81   9 3.27   7 3.34   7 3.34   7 3.34
   2  0.600  0.600  0.200-  13 2.75  18 2.75  13 2.75  25 2.75  18 2.75  25 2.75  23 2.78  22 2.78
                            11 2.78  16 2.78  15 2.78  20 2.78   9 3.38  10 3.38  10 3.38  10 3.38
   3  0.397  0.397  0.808-  22 2.66  20 2.66  15 2.66  12 2.75  17 2.75  24 2.75  24 2.75  17 2.75
                            12 2.75  21 2.81  19 2.81  14 2.81  10 3.27   6 3.34   6 3.34   6 3.34
   4  0.206  0.206  0.381-  25 2.58  18 2.58  13 2.58  11 2.76  16 2.76  23 2.76  23 2.76  16 2.76
                            11 2.76  10 3.18   9 3.30   9 3.30   9 3.30
   5  0.994  0.994  0.019-  25 2.58  18 2.58  13 2.58  20 2.76  15 2.76  22 2.76  22 2.76  20 2.76
                            15 2.76   9 3.18  10 3.30  10 3.30  10 3.30
   6  0.700  0.700  0.899-  15 1.91  20 1.91  22 1.91  12 1.93  17 1.93  24 1.93   3 3.34   3 3.34
                             3 3.34   2 3.38
   7  0.500  0.500  0.501-  11 1.91  16 1.91  23 1.91  19 1.93  14 1.93  21 1.93   1 3.34   1 3.34
                             1 3.34   2 3.38
   8  0.100  0.100  0.700-  12 1.95  17 1.95  14 1.95  19 1.95  21 1.95  24 1.95   3 3.40   1 3.40
                             1 3.40   1 3.40   3 3.40   3 3.40
   9  0.899  0.899  0.302-  13 1.96  18 1.96  25 1.96  11 1.97  16 1.97  23 1.97   5 3.18   1 3.27
                             4 3.30   4 3.30   4 3.30   2 3.38   2 3.38   2 3.38
  10  0.301  0.301  0.098-  13 1.96  18 1.96  25 1.96  20 1.97  15 1.97  22 1.97   4 3.18   3 3.27
                             5 3.30   5 3.30   5 3.30   2 3.38   2 3.38   2 3.38
  11  0.203  0.697  0.404-   7 1.91   9 1.97   1 2.66   4 2.76   4 2.76   2 2.78
  12  0.403  0.899  0.799-   6 1.93   8 1.95   3 2.75   3 2.75   1 2.81
  13  0.600  0.100  0.200-   9 1.96  10 1.96   4 2.58   5 2.58   2 2.75   2 2.75
  14  0.797  0.301  0.601-   7 1.93   8 1.95   1 2.75   1 2.75   3 2.81
  15  0.997  0.503  0.996-   6 1.91  10 1.97   3 2.66   5 2.76   5 2.76   2 2.78
  16  0.697  0.203  0.404-   7 1.91   9 1.97   1 2.66   4 2.76   4 2.76   2 2.78
  17  0.899  0.403  0.799-   6 1.93   8 1.95   3 2.75   3 2.75   1 2.81
  18  0.100  0.600  0.200-   9 1.96  10 1.96   4 2.58   5 2.58   2 2.75   2 2.75
  19  0.301  0.797  0.601-   7 1.93   8 1.95   1 2.75   1 2.75   3 2.81
  20  0.503  0.997  0.996-   6 1.91  10 1.97   3 2.66   5 2.76   5 2.76   2 2.78
  21  0.301  0.301  0.601-   7 1.93   8 1.95   1 2.75   1 2.75   3 2.81
  22  0.503  0.503  0.996-   6 1.91  10 1.97   3 2.66   5 2.76   5 2.76   2 2.78
  23  0.697  0.697  0.404-   7 1.91   9 1.97   1 2.66   4 2.76   4 2.76   2 2.78
  24  0.899  0.899  0.799-   6 1.93   8 1.95   3 2.75   3 2.75   1 2.81
  25  0.100  0.100  0.200-  10 1.96   9 1.96   4 2.58   5 2.58   2 2.75   2 2.75

  LATTYP: Found a trigonal (rhomboedric) cell.
 ALAT       =    11.6837894061
 COS(alpha) =     0.8891326590

  Lattice vectors:

 A1 = (   7.7883376889,  -3.8980157935,  -7.7883376791)
 A2 = (   7.7883376889,  -7.7883376791,  -3.8980157935)
 A3 = (   3.8980158033,  -7.7883376791,  -7.7883376791)

Analysis of symmetry for initial positions (statically):
 Subroutine PRICEL returns:
 Original cell was already a primitive cell.

 Routine SETGRP: Setting up the symmetry group for a
 trigonal (rhombohedral) supercell.

 Subroutine GETGRP returns: Found 12 space group operations
 (whereof  6 operations were pure point group operations)
 out of a pool of 12 trial point group operations.

The static configuration has the point symmetry C_3v.
 The point group associated with its full space group is D_3d.

Analysis of symmetry for dynamics (positions and initial velocities):
 Subroutine PRICEL returns:
 Original cell was already a primitive cell.

[...]

The dynamic configuration has the point symmetry C_3v.
 The point group associated with its full space group is D_3d.

Analysis of structural, dynamic, and magnetic symmetry:
 Subroutine PRICEL returns:
 Original cell was already a primitive cell.

 Routine SETGRP: Setting up the symmetry group for a
 trigonal (rhombohedral) supercell.

 Subroutine GETGRP returns: Found 12 space group operations
 (whereof  6 operations were pure point group operations)
 out of a pool of 12 trial point group operations.

The magnetic configuration has the point symmetry C_3v.
 The point group associated with its full space group is D_3d.

 Subroutine INISYM returns: Found 12 space group operations
 (whereof  6 operations are pure point group operations),
 and found     1 'primitive' translations

 KPOINTS: Automatic mesh

Automatic generation of k-mesh.
 generate k-points for:    4    4    2
Space group operators:
 irot       det(A)        alpha          n_x          n_y          n_z        tau_x        tau_y        tau_z
    1     1.000000     0.000000     1.000000     0.000000     0.000000     0.000000     0.000000     0.000000
    2    -1.000000   180.000000     0.707107     0.000000     0.707107     0.000000     0.000000     0.000000
    3     1.000000   120.000000    -0.577350     0.577350     0.577350     0.000000     0.000000     0.000000
    4    -1.000000   180.000000     0.000000     0.707107    -0.707107     0.000000     0.000000     0.000000
    5     1.000000   120.000000     0.577350    -0.577350    -0.577350     0.000000     0.000000     0.000000
    6    -1.000000   180.000000     0.707107     0.707107     0.000000     0.000000     0.000000     0.000000
    7    -1.000000     0.000000     1.000000     0.000000     0.000000     0.200000     0.200000    -0.600000
    8     1.000000   180.000000     0.707107     0.000000     0.707107     0.200000     0.200000    -0.600000
    9    -1.000000   120.000000    -0.577350     0.577350     0.577350     0.200000     0.200000    -0.600000
   10     1.000000   180.000000     0.000000     0.707107    -0.707107     0.200000     0.200000    -0.600000
   11    -1.000000   120.000000     0.577350    -0.577350    -0.577350     0.200000     0.200000    -0.600000
   12     1.000000   180.000000     0.707107     0.707107     0.000000     0.200000     0.200000    -0.600000

 Subroutine IBZKPT returns following result:

 Found     11 irreducible k-points:

 Following reciprocal coordinates:
            Coordinates               Weight
  0.000000  0.000000  0.000000      1.000000
  0.250000 -0.000000 -0.000000      4.000000
  0.500000 -0.000000 -0.000000      3.000000
  0.250000  0.250000  0.000000      2.000000
  0.500000  0.250000  0.000000      8.000000
 -0.250000  0.250000  0.000000      2.000000
  0.500000  0.500000  0.000000      3.000000
  0.000000  0.000000  0.500000      1.000000
  0.250000 -0.000000  0.500000      4.000000
  0.250000  0.250000  0.500000      2.000000
 -0.250000  0.250000  0.500000      2.000000

 Following cartesian coordinates:
            Coordinates               Weight
  0.000000  0.000000  0.000000      1.000000
  0.025700 -0.025700  0.038562      4.000000
  0.051399 -0.051399  0.077125      3.000000
  0.051399  0.012863  0.012863      2.000000
  0.077099 -0.012837  0.051425      8.000000
  0.000000  0.064262 -0.064262      2.000000
  0.102799  0.025725  0.025725      3.000000
 -0.025674  0.025674  0.025674      1.000000
  0.000025 -0.000025  0.064237      4.000000
  0.025725  0.038537  0.038537      2.000000
 -0.025674  0.089936 -0.038588      2.000000

 TETIRR: Found     48 inequivalent tetrahedra from      192

 SYSTEM =  final
 POSCAR =  SCEL5_5_1_1_0_1_1/2

 Startparameter for this run:
   NWRITE =      2    write-flag & timer
   PREC   = accura    normal or accurate (medium, high low for compatibility)
   ISTART =      0    job   : 0-new  1-cont  2-samecut
[...]
       1 -95.6301       2 -95.6387       3 -95.6301       4 -95.4964       5 -95.4964
       6 -43.0618       7 -43.0618       8 -42.6262       9 -83.6398      10 -83.6398
      11 -67.0372      12 -67.1107      13 -66.6004      14 -67.1107      15 -67.0372
      16 -67.0372      17 -67.1107      18 -66.6004      19 -67.1107      20 -67.0372
      21 -67.1107      22 -67.0372      23 -67.0372      24 -67.1107      25 -66.6004

 E-fermi :   7.7739     XC(G=0): -11.6786     alpha+bet :-16.3832

[...]

 k-point     1 :       0.0000    0.0000    0.0000
  band No.  band energies     occupation
      1     -24.1088      1.00000
      2     -24.0735      1.00000
      3     -24.0352      1.00000
      4     -23.9233      1.00000
      5     -23.8956      1.00000
      6     -11.0544      1.00000
      7     -11.0078      1.00000
      8     -10.8535      1.00000
      9     -10.3293      1.00000
     10     -10.0872      1.00000
     11      -9.9529      1.00000
     12      -9.9529      1.00000
     13      -9.9351      1.00000
     14      -9.9351      1.00000
     15      -9.8787      1.00000
     16      -9.8787      1.00000
     17      -9.8348      1.00000
     18      -9.8348      1.00000
     19      -9.7045      1.00000
     20      -9.7045      1.00000
     21      -8.0233      1.00000
     22      -8.0233      1.00000
     23      -7.8718      1.00000
     24      -7.8684      1.00000
     25      -7.8684      1.00000
     26      -7.6169      1.00000
     27      -7.6122      1.00000
     28      -7.6122      1.00000
     29      -7.4900      1.00000
     30      -7.4900      1.00000
     31      -7.4851      1.00000
     32      -7.3596      1.00000
     33      -7.3596      1.00000
     34      -7.0745      1.00000
     35      -6.8292      1.00000
     36       0.3081      1.00000
     37       0.3081      1.00000
     38       1.0053      1.00000
     39       1.0371      1.00000
     40       1.0371      1.00000
     41       1.0404      1.00000
     42       1.5301      1.00000
     43       1.5634      1.00000
     44       1.7122      1.00000
     45       1.7122      1.00000
     46       1.7689      1.00000
     47       1.7689      1.00000
     48       1.7703      1.00000
     49       1.8304      1.00000
     50       1.8304      1.00000
     51       1.9321      1.00000
     52       2.1930      1.00000
     53       2.1930      1.00000
     54       2.2759      1.00000
     55       2.2759      1.00000
     56       2.3129      1.00000
     57       2.3129      1.00000
     58       2.7519      1.00000
     59       2.8673      1.00000
     60       2.8673      1.00000
[...]
    106      10.6209      0.00000
    107      10.6677      0.00000
    108      10.6776      0.00000
    109      10.7168      0.00000
    110      10.7468      0.00000
    111      10.7913      0.00000
    112      10.8163      0.00000
    113      10.8499      0.00000
    114      10.8720      0.00000
    115      10.8989      0.00000
    116      10.9363      0.00000
    117      10.9655      0.00000
    118      11.0116      0.00000
    119      11.0454      0.00000
    120      11.0808      0.00000

[...]

 spin component 2

[...]

 k-point    11 :      -0.2500    0.2500    0.5000
  band No.  band energies     occupation
      1     -24.0527      1.00000
      2     -24.0522      1.00000
      3     -24.0322      1.00000
      4     -23.9271      1.00000
      5     -23.9242      1.00000
      6     -11.1499      1.00000
      7     -11.1076      1.00000
      8     -10.8925      1.00000
      9     -10.8739      1.00000
     10     -10.7415      1.00000
     11     -10.2215      1.00000
     12     -10.2123      1.00000
     13     -10.1297      1.00000
     14     -10.0105      1.00000
     15      -9.9154      1.00000
     16      -9.7880      1.00000
     17      -9.7563      1.00000
     18      -9.6693      1.00000
     19      -9.6204      1.00000
     20      -9.3536      1.00000
     21      -7.8192      1.00000
     22      -7.5824      1.00000
     23      -7.5466      1.00000
     24      -7.4593      1.00000
     25      -7.4576      1.00000
     26      -7.3659      1.00000
     27      -7.3204      1.00000
     28      -7.2754      1.00000
     29      -7.2513      1.00000
     30      -7.2108      1.00000
     31      -7.1243      1.00000
     32      -7.0582      1.00000
     33      -6.9751      1.00000
     34      -6.8598      1.00000
     35      -6.7568      1.00000
     36       1.7447      1.00000
     37       1.9090      1.00000
     38       2.0099      1.00000
     39       2.1372      1.00000
     40       2.2302      1.00000
     41       2.2865      1.00000
     42       2.3523      1.00000
     43       2.6547      1.00000
     44       2.8094      1.00000
     45       2.8492      1.00000
     46       2.8943      1.00000
     47       3.0738      1.00000
     48       3.1351      1.00000
     49       3.1435      1.00000
     50       3.1704      1.00000
     51       3.1756      1.00000
     52       3.3193      1.00000
     53       3.3891      1.00000
     54       3.4747      1.00000
     55       3.4772      1.00000
     56       3.6480      1.00000
     57       3.7359      1.00000
     58       3.7635      1.00000
     59       3.8856      1.00000
     60       3.9121      1.00000
[...]
    106      10.8778      0.00000
    107      10.8986      0.00000
    108      10.9103      0.00000
    109      10.9332      0.00000
    110      10.9565      0.00000
    111      10.9690      0.00000
    112      10.9909      0.00000
    113      11.0020      0.00000
    114      11.0165      0.00000
    115      11.0235      0.00000
    116      11.0398      0.00000
    117      11.0556      0.00000
    118      11.0709      0.00000
    119      11.1058      0.00000
    120      11.1732      0.00000

 soft charge-density along one line, spin component           1
         0         1         2         3         4         5         6         7         8         9
 total charge-density along one line

 soft charge-density along one line, spin component           2
         0         1         2         3         4         5         6         7         8         9
 total charge-density along one line

------------------------ aborting loop because EDIFF is reached ----------------------------------------

 total charge

# of ion       s       p       d       f       tot
    1        2.000   5.700   0.490   0.193   8.383
    2        1.999   5.696   0.485   0.187   8.367
    3        2.000   5.700   0.490   0.193   8.383
    4        2.002   5.696   0.505   0.195   8.398
    5        2.002   5.696   0.505   0.195   8.398
    6        0.344   0.535   4.862   0.000   5.741
    7        0.344   0.535   4.862   0.000   5.741
    8        0.312   0.473   4.879   0.000   5.663
    9        0.402   0.587   8.334   0.000   9.323
   10        0.402   0.587   8.334   0.000   9.323
   11        1.562   3.471   0.000   0.000   5.033
   12        1.563   3.468   0.000   0.000   5.031
   13        1.557   3.493   0.000   0.000   5.050
   14        1.563   3.468   0.000   0.000   5.031
   15        1.562   3.471   0.000   0.000   5.033
   16        1.562   3.426   0.000   0.000   4.988
   17        1.564   3.437   0.000   0.000   5.001
   18        1.557   3.428   0.000   0.000   4.985
   19        1.564   3.437   0.000   0.000   5.001
   20        1.562   3.426   0.000   0.000   4.988
   21        1.564   3.459   0.000   0.000   5.023
   22        1.562   3.464   0.000   0.000   5.026
   23        1.562   3.464   0.000   0.000   5.026
   24        1.564   3.459   0.000   0.000   5.023
   25        1.557   3.473   0.000   0.000   5.029
tot         35.230  83.048  33.745   0.962 152.986

 magnetization (x)

[...]

  FORCE on cell =-STRESS in cart. coord.  units (eV):
  Direction    XX          YY          ZZ          XY          YZ          ZX
  Alpha Z   815.92281   815.92281   815.92281
  Ewald   -4209.29275 -4209.29275 -4209.29275    43.76626   -43.76626    43.76626
  Hartree   951.15795   951.15791   951.15791    47.99798   -47.99799    47.99798
  E(xc)    -861.92305  -861.92306  -861.92306    -0.03803     0.03803    -0.03803
  Local    -571.79358  -571.79373  -571.79373   -91.94677    91.94753   -91.94677
  n-local   340.31146   339.41899   341.03712     1.25073    -0.71990    -0.53451
  augment   334.79434   334.79466   334.79466     0.03563    -0.03635     0.03563
  Kinetic  3201.15982  3209.91658  3192.25306     3.76276    -0.08486    -4.99643
  Fock        0.00000     0.00000     0.00000     0.00000     0.00000     0.00000
  Total       0.23148     0.23148     0.23148    -0.08728     0.08728    -0.08728
  in kB       1.25827     1.25827     1.25827    -0.47444     0.47444    -0.47444

 VOLUME and BASIS-vectors are now :
  energy-cutoff  :      520.00
  volume of cell :      294.74
      direct lattice vectors                 reciprocal lattice vectors
     3.890321886  0.000000000  3.890321886     0.102798945 -0.102798945  0.154249194
     3.890321886  3.890321886  0.000000000     0.102798945  0.154249194 -0.102798945
    -3.898015803  7.788337679  7.788337679    -0.051348696  0.051348696  0.051348696

  length of vectors
     5.501745973  5.501745973 11.683789403     0.211962402  0.211962402  0.088938551

 FORCES acting on ions
    electron-ion (+dipol)            ewald-force                    non-local-force                 convergence-correction
   0.598E+02 -.598E+02 -.598E+02   -.593E+02 0.593E+02 0.593E+02   -.426E+00 0.426E+00 0.426E+00   -.307E-01 0.307E-01 0.307E-01
   0.193E-04 -.261E-05 -.261E-05   0.460E-11 0.860E-11 0.873E-11   0.298E-18 0.271E-18 -.542E-18   -.168E-05 0.113E-05 0.113E-05
   -.598E+02 0.598E+02 0.598E+02   0.593E+02 -.593E+02 -.593E+02   0.426E+00 -.426E+00 -.426E+00   0.307E-01 -.307E-01 -.307E-01
   0.112E+03 -.112E+03 -.112E+03   -.111E+03 0.111E+03 0.111E+03   -.111E+01 0.111E+01 0.111E+01   -.538E-01 0.538E-01 0.538E-01
   -.112E+03 0.112E+03 0.112E+03   0.111E+03 -.111E+03 -.111E+03   0.111E+01 -.111E+01 -.111E+01   0.538E-01 -.538E-01 -.538E-01
   -.425E+02 0.425E+02 0.425E+02   0.422E+02 -.422E+02 -.422E+02   0.320E+00 -.320E+00 -.320E+00   0.325E-01 -.325E-01 -.325E-01
   0.425E+02 -.425E+02 -.425E+02   -.422E+02 0.422E+02 0.422E+02   -.320E+00 0.320E+00 0.320E+00   -.325E-01 0.325E-01 0.325E-01
   0.155E-06 0.549E-05 0.549E-05   0.225E-10 -.604E-11 -.602E-11   -.816E-20 0.201E-20 -.189E-20   0.849E-06 -.828E-06 -.828E-06
   0.497E+02 -.497E+02 -.497E+02   -.485E+02 0.485E+02 0.485E+02   -.121E+01 0.121E+01 0.121E+01   -.350E-01 0.350E-01 0.350E-01
   -.497E+02 0.497E+02 0.497E+02   0.485E+02 -.485E+02 -.485E+02   0.121E+01 -.121E+01 -.121E+01   0.350E-01 -.350E-01 -.350E-01
   0.324E+02 -.324E+02 -.775E+02   -.320E+02 0.320E+02 0.732E+02   -.300E+00 0.300E+00 0.422E+01   -.926E-03 0.926E-03 0.626E-01
   -.147E+02 0.147E+02 0.312E+02   0.143E+02 -.143E+02 -.322E+02   0.439E+00 -.439E+00 0.913E+00   0.108E-02 -.108E-02 0.545E-01
   -.195E-04 -.890E-05 -.106E-04   0.125E-10 -.678E-11 -.190E-11   0.110E-19 -.136E-19 -.119E-19   -.751E-06 0.796E-06 0.798E-06
   0.147E+02 -.147E+02 -.312E+02   -.143E+02 0.143E+02 0.322E+02   -.439E+00 0.439E+00 -.913E+00   -.108E-02 0.108E-02 -.545E-01
   -.324E+02 0.324E+02 0.775E+02   0.320E+02 -.320E+02 -.732E+02   0.300E+00 -.300E+00 -.422E+01   0.925E-03 -.925E-03 -.626E-01
   0.324E+02 -.775E+02 -.324E+02   -.320E+02 0.732E+02 0.320E+02   -.300E+00 0.422E+01 0.300E+00   -.926E-03 0.626E-01 0.926E-03
   -.147E+02 0.312E+02 0.147E+02   0.143E+02 -.322E+02 -.143E+02   0.439E+00 0.913E+00 -.439E+00   0.108E-02 0.545E-01 -.108E-02
   -.195E-04 -.106E-04 -.890E-05   0.129E-10 -.776E-11 -.128E-10   0.339E-20 -.407E-19 0.000E+00   -.751E-06 0.798E-06 0.796E-06
   0.147E+02 -.312E+02 -.147E+02   -.143E+02 0.322E+02 0.143E+02   -.439E+00 -.913E+00 0.439E+00   -.108E-02 -.545E-01 0.108E-02
   -.324E+02 0.775E+02 0.324E+02   0.320E+02 -.732E+02 -.320E+02   0.300E+00 -.422E+01 -.300E+00   0.925E-03 -.626E-01 -.925E-03
   0.312E+02 -.147E+02 -.147E+02   -.322E+02 0.143E+02 0.143E+02   0.913E+00 0.439E+00 0.439E+00   0.545E-01 0.108E-02 0.108E-02
   -.775E+02 0.324E+02 0.324E+02   0.732E+02 -.320E+02 -.320E+02   0.422E+01 -.300E+00 -.300E+00   0.626E-01 -.925E-03 -.925E-03
   0.775E+02 -.324E+02 -.324E+02   -.732E+02 0.320E+02 0.320E+02   -.422E+01 0.300E+00 0.300E+00   -.626E-01 0.925E-03 0.925E-03
   -.312E+02 0.147E+02 0.147E+02   0.322E+02 -.143E+02 -.143E+02   -.913E+00 -.439E+00 -.439E+00   -.545E-01 -.108E-02 -.108E-02
   -.265E-05 -.671E-05 -.671E-05   0.175E-10 -.244E-10 -.243E-10   0.610E-19 0.136E-19 -.678E-20   -.818E-06 0.767E-06 0.767E-06
   -.822E-05 0.403E-04 0.403E-04   0.549E-14 0.143E-13 0.330E-14   -.167E-14 0.161E-14 -.500E-15   -.114E-05 0.114E-05 0.114E-05

 POSITION                                       TOTAL-FORCE (eV/Angst)
      3.93677      7.73419      7.73419        -0.036683      0.036683      0.036683
      3.88878      3.89186      3.89186        -0.000000      0.000000      0.000000
     -0.05722      7.83786      7.83786         0.036683     -0.036683     -0.036683
      0.12066      3.76966      3.76966        -0.022484      0.022484      0.022484
      7.65690      4.01406      4.01406         0.022484     -0.022484     -0.022484
      1.94312      9.72785      9.72785         0.018890     -0.018890     -0.018890
      1.93643      5.84421      5.84421        -0.018890      0.018890      0.018890
     -1.95055      5.84087      5.84087        -0.000000      0.000000      0.000000
      5.82266      5.84830      5.84830        -0.009053      0.009053      0.009053
      1.95490      1.93542      1.93542         0.009053     -0.009053     -0.009053
      1.92654      5.85410      3.93258         0.033201     -0.033201      0.001060
      1.95014      9.72083      7.79395         0.031603     -0.031603     -0.009443
      1.94362      1.94670      3.89186        -0.000000      0.000000      0.000000
      1.92941      5.85123      7.77811        -0.031603      0.031603      0.009443
      1.95301      9.71795     11.63948        -0.033201      0.033201     -0.001060
      1.92654      3.93258      5.85410         0.033201      0.001060     -0.033201
      1.95014      7.79395      9.72083         0.031603     -0.009443     -0.031603
      1.94362      3.89186      1.94670        -0.000000      0.000000      0.000000
      1.92941      7.77811      5.85123        -0.031603      0.009443      0.031603
      1.95301     11.63948      9.71795        -0.033201     -0.001060      0.033201
      0.00253      5.85123      5.85123        -0.009443      0.031603      0.031603
      0.03149      9.71795      9.71795         0.001060      0.033201      0.033201
      3.84806      5.85410      5.85410        -0.001060     -0.033201     -0.033201
      3.87702      9.72083      9.72083         0.009443     -0.031603     -0.031603
     -0.00154      1.94670      1.94670        -0.000000      0.000000      0.000000
    total drift:                               -0.000009      0.000041      0.000041

  FREE ENERGIE OF THE ION-ELECTRON SYSTEM (eV)
  free  energy   TOTEN  =      -186.71363270 eV

  energy  without entropy=     -186.71363270  energy(sigma->0) =     -186.71363270

 total charge

[...]

 magnetization (x)

# of ion       s       p       d       f       tot
    1        0.000   0.001   0.012   0.006   0.020
    2       -0.000   0.000   0.003   0.002   0.005
    3        0.000   0.001   0.012   0.006   0.020
    4        0.000   0.001   0.006   0.003   0.009
    5        0.000   0.001   0.006   0.003   0.009
    6        0.025   0.027   3.419   0.000   3.471
    7        0.025   0.027   3.419   0.000   3.471
    8        0.019   0.019   3.702   0.000   3.740
    9        0.013   0.009   1.645   0.000   1.667
   10        0.013   0.009   1.645   0.000   1.667
   11        0.005  -0.034   0.000   0.000  -0.029
   12        0.003  -0.041   0.000   0.000  -0.038
   13        0.007   0.028   0.000   0.000   0.036
   14        0.003  -0.041   0.000   0.000  -0.038
   15        0.005  -0.034   0.000   0.000  -0.029
   16        0.005  -0.042   0.000   0.000  -0.037
   17        0.003  -0.043   0.000   0.000  -0.039
   18        0.007   0.015   0.000   0.000   0.021
   19        0.003  -0.043   0.000   0.000  -0.039
   20        0.005  -0.042   0.000   0.000  -0.037
   21        0.005  -0.040   0.000   0.000  -0.036
   22        0.005  -0.028   0.000   0.000  -0.022
   23        0.005  -0.028   0.000   0.000  -0.022
   24        0.005  -0.040   0.000   0.000  -0.036
   25        0.007   0.026   0.000   0.000   0.034
tot          0.171  -0.292  13.869   0.021  13.768

 BZINTS: Fermi energy:  7.773908;186.000000 electrons
         Band energy:-294.413929;  BLOECHL correction: -0.029514