 vasp.5.4.4.18Apr17-6-g9f103f2a35 (build Oct 03 2018 13:58:34) complex

 executed on             LinuxIFC date 2019.06.04  01:26:03

 INCAR:
 POTCAR:    PAW_PBE La 06Sep2000
 POTCAR:    PAW_PBE Mn 06Sep2000
 POTCAR:    PAW_PBE Ni 02Aug2007
 POTCAR:    PAW_PBE O 08Apr2002

 POTCAR:    PAW_PBE La 06Sep2000
   VRHFIN =La : [core=Kr4d]

   TITEL  = PAW_PBE La 06Sep2000
   POMASS =  138.900; ZVAL   =   11.000    mass and valenz
   ENMAX  =  219.292; ENMIN  =  164.469 eV

 POTCAR:    PAW_PBE Mn 06Sep2000
   VRHFIN =Mn: d6 s1

   TITEL  = PAW_PBE Mn 06Sep2000
   POMASS =   54.938; ZVAL   =    7.000    mass and valenz
   ENMAX  =  269.864; ENMIN  =  202.398 eV

 POTCAR:    PAW_PBE Ni 02Aug2007
   VRHFIN =Ni:

   TITEL  = PAW_PBE Ni 02Aug2007
   POMASS =   58.690; ZVAL   =   10.000    mass and valenz
   ENMAX  =  269.532; ENMIN  =  202.149 eV

 POTCAR:    PAW_PBE O 08Apr2002
   VRHFIN =O: s2p4

   TITEL  = PAW_PBE O 08Apr2002
   POMASS =   16.000; ZVAL   =    6.000    mass and valenz
   ENMAX  =  400.000; ENMIN  =  300.000 eV

 Optimization of the real space projectors (new method)

 maximal supplied QI-value         = 13.42
 optimisation between [QCUT,QGAM] = [ 11.67, 23.35] = [ 38.16,152.62] Ry
 Optimized for a Real-space Cutoff    1.63 Angstroem

   l    n(q)    QCUT    max X(q) W(low)/X(q) W(high)/X(q)  e(spline)
   0     11    11.673    13.882    0.27E-04    0.79E-05    0.11E-06
   0     11    11.673    12.184    0.39E-04    0.13E-04    0.19E-06
   1     11    11.673     4.523    0.73E-05    0.76E-05    0.12E-06
   1     11    11.673     4.424    0.87E-05    0.13E-04    0.19E-06
   2     10    11.673    52.481    0.65E-04    0.36E-04    0.18E-06
   2     10    11.673    38.501    0.61E-04    0.33E-04    0.17E-06
   3     10    11.673    65.631    0.17E-03    0.14E-03    0.37E-06
   3     10    11.673    56.854    0.17E-03    0.14E-03    0.37E-06
 Optimization of the real space projectors (new method)

[...]

   l    n(q)    QCUT    max X(q) W(low)/X(q) W(high)/X(q)  e(spline)
   2      9    11.539    60.317    0.19E-03    0.47E-04    0.16E-06
   2      9    11.539    55.921    0.19E-03    0.48E-04    0.16E-06
   0     10    11.539    51.690    0.80E-04    0.50E-04    0.24E-06
   0     10    11.539    30.015    0.73E-04    0.45E-04    0.22E-06
   1     10    11.539    18.849    0.87E-04    0.16E-03    0.71E-07
   1     10    11.539    14.624    0.73E-04    0.13E-03    0.64E-07
 Optimization of the real space projectors (new method)

 maximal supplied QI-value         = 24.76
 optimisation between [QCUT,QGAM] = [ 11.64, 23.27] = [ 37.91,151.63] Ry
 Optimized for a Real-space Cutoff    1.14 Angstroem

   l    n(q)    QCUT    max X(q) W(low)/X(q) W(high)/X(q)  e(spline)
   0      8    11.635    20.381    0.10E-03    0.33E-03    0.24E-06
   0      8    11.635    15.268    0.11E-03    0.35E-03    0.26E-06
   1      7    11.635     5.964    0.24E-03    0.31E-03    0.30E-06
   1      7    11.635     5.382    0.22E-03    0.25E-03    0.26E-06
  PAW_PBE La 06Sep2000                  :
  PAW_PBE Mn 06Sep2000                  :
  PAW_PBE Ni 02Aug2007                  :
  PAW_PBE O 08Apr2002                   :

 POSCAR: SCEL6_1_1_6_0_0_0/7
  positions in direct lattice
  velocities in cartesian coordinates
 exchange correlation table for  LEXCH =        8
   RHO(1)=    0.500       N(1)  =     2000
   RHO(2)=  100.500       N(2)  =     4000

 ion  position               nearest neighbor table
   1  0.000  0.000  0.168-  23 2.70  29 2.70  29 2.70  23 2.70  17 2.72  17 2.72  17 2.72  17 2.72
                            24 2.77  30 2.77  24 2.77  30 2.77  11 3.32  11 3.32  11 3.32  11 3.32
   2  0.000  0.000  0.334-  22 2.72  28 2.72  28 2.72  22 2.72  16 2.72  16 2.72  16 2.72  16 2.72
                            23 2.73  29 2.73  23 2.73  29 2.73  10 3.33  10 3.33  10 3.33  10 3.33
   3  0.000  0.000  0.500-  22 2.72  28 2.72  28 2.72  22 2.72  15 2.72  15 2.72  15 2.72  15 2.72
                            27 2.73  21 2.73  27 2.73  21 2.73  10 3.33  10 3.33  10 3.33  10 3.33
   4  0.000  0.000  0.665-  21 2.70  27 2.70  27 2.70  21 2.70  14 2.72  14 2.72  14 2.72  14 2.72
                            26 2.77  20 2.77  26 2.77  20 2.77   9 3.32   9 3.32   9 3.32   9 3.32
   5  0.000  0.000  0.828-  20 2.63  26 2.63  26 2.63  20 2.63  13 2.73  13 2.73  13 2.73  13 2.73
                            25 2.81  19 2.81  25 2.81  19 2.81   8 3.28   8 3.28   8 3.28   8 3.28
   6  0.000  0.000  0.005-  24 2.63  30 2.63  30 2.63  24 2.63  18 2.73  18 2.73  18 2.73  18 2.73
                            25 2.81  19 2.81  25 2.81  19 2.81  12 3.28  12 3.28  12 3.28  12 3.28
   7  0.500  0.500  0.917-  18 1.90  13 1.90  19 1.93  25 1.93  19 1.93  25 1.93   6 3.41   6 3.41
                             6 3.41   6 3.41   5 3.41   5 3.41   5 3.41   5 3.41
   8  0.500  0.500  0.749-  20 1.93  26 1.93  20 1.93  26 1.93  14 1.93  13 1.97   5 3.28   5 3.28
                             5 3.28   5 3.28   4 3.35   4 3.35   4 3.35   4 3.35
   9  0.500  0.500  0.583-  15 1.91  14 1.92  21 1.93  27 1.93  21 1.93  27 1.93   4 3.32   4 3.32
                             4 3.32   4 3.32   3 3.34   3 3.34   3 3.34   3 3.34
  10  0.500  0.500  0.417-  22 1.93  28 1.93  22 1.93  28 1.93  15 1.94  16 1.94   3 3.33   3 3.33
                             3 3.33   3 3.33   2 3.33   2 3.33   2 3.33   2 3.33
  11  0.500  0.500  0.250-  16 1.91  17 1.92  23 1.93  29 1.93  23 1.93  29 1.93   1 3.32   1 3.32
                             1 3.32   1 3.32   2 3.34   2 3.34   2 3.34   2 3.34
  12  0.500  0.500  0.084-  24 1.93  30 1.93  24 1.93  30 1.93  17 1.93  18 1.97   6 3.28   6 3.28
                             6 3.28   6 3.28   1 3.35   1 3.35   1 3.35   1 3.35
  13  0.500  0.500  0.835-   7 1.90   8 1.97   5 2.73   5 2.73   5 2.73   5 2.73
  14  0.500  0.500  0.666-   9 1.92   8 1.93   4 2.72   4 2.72   4 2.72   4 2.72
  15  0.500  0.500  0.500-   9 1.91  10 1.94   3 2.72   3 2.72   3 2.72   3 2.72
  16  0.500  0.500  0.333-  11 1.91  10 1.94   2 2.72   2 2.72   2 2.72   2 2.72
  17  0.500  0.500  0.167-  11 1.92  12 1.93   1 2.72   1 2.72   1 2.72   1 2.72
  18  0.500  0.500  0.999-   7 1.90  12 1.97   6 2.73   6 2.73   6 2.73   6 2.73
  19  0.500  0.000  0.917-   7 1.93   7 1.93   6 2.81   6 2.81   5 2.81   5 2.81
  20  0.500  0.000  0.751-   8 1.93   8 1.93   5 2.63   5 2.63   4 2.77   4 2.77
  21  0.500  0.000  0.584-   9 1.93   9 1.93   4 2.70   4 2.70   3 2.73   3 2.73
  22  0.500  0.000  0.417-  10 1.93  10 1.93   3 2.72   3 2.72   2 2.72   2 2.72
  23  0.500  0.000  0.250-  11 1.93  11 1.93   1 2.70   1 2.70   2 2.73   2 2.73
  24  0.500  0.000  0.082-  12 1.93  12 1.93   6 2.63   6 2.63   1 2.77   1 2.77
  25  0.000  0.500  0.917-   7 1.93   7 1.93   6 2.81   6 2.81   5 2.81   5 2.81
  26  0.000  0.500  0.751-   8 1.93   8 1.93   5 2.63   5 2.63   4 2.77   4 2.77
  27  0.000  0.500  0.584-   9 1.93   9 1.93   4 2.70   4 2.70   3 2.73   3 2.73
  28  0.000  0.500  0.417-  10 1.93  10 1.93   3 2.72   3 2.72   2 2.72   2 2.72
  29  0.000  0.500  0.250-  11 1.93  11 1.93   1 2.70   1 2.70   2 2.73   2 2.73
  30  0.000  0.500  0.082-  12 1.93  12 1.93   6 2.63   6 2.63   1 2.77   1 2.77

  LATTYP: Found a simple tetragonal cell.
 ALAT       =     3.8501347254
 C/A-ratio  =     6.0130297282

  Lattice vectors:

 A1 = (   3.8501347254,   0.0000000000,   0.0000000000)
 A2 = (   0.0000000000,   3.8501347254,   0.0000000000)
 A3 = (   0.0000000000,   0.0000000000,  23.1509745613)

Analysis of symmetry for initial positions (statically):
 Subroutine PRICEL returns:
 Original cell was already a primitive cell.

 Routine SETGRP: Setting up the symmetry group for a
 simple tetragonal supercell.

 Subroutine GETGRP returns: Found 16 space group operations
 (whereof  8 operations were pure point group operations)
 out of a pool of 16 trial point group operations.

The static configuration has the point symmetry C_4v.
 The point group associated with its full space group is D_4h.

Analysis of symmetry for dynamics (positions and initial velocities):
 Subroutine PRICEL returns:
 Original cell was already a primitive cell.

[...]

The dynamic configuration has the point symmetry C_4v.
 The point group associated with its full space group is D_4h.

Analysis of structural, dynamic, and magnetic symmetry:
 Subroutine PRICEL returns:
 Original cell was already a primitive cell.

 Routine SETGRP: Setting up the symmetry group for a
 simple tetragonal supercell.

 Subroutine GETGRP returns: Found 16 space group operations
 (whereof  8 operations were pure point group operations)
 out of a pool of 16 trial point group operations.

The magnetic configuration has the point symmetry C_4v.
 The point group associated with its full space group is D_4h.

 Subroutine INISYM returns: Found 16 space group operations
 (whereof  8 operations are pure point group operations),
 and found     1 'primitive' translations

 KPOINTS: Automatic mesh

Automatic generation of k-mesh.
 generate k-points for:    5    5    1
Space group operators:
 irot       det(A)        alpha          n_x          n_y          n_z        tau_x        tau_y        tau_z
    1     1.000000     0.000000     1.000000     0.000000     0.000000     0.000000     0.000000     0.000000
    2     1.000000    90.000000     0.000000     0.000000    -1.000000     0.000000     0.000000     0.000000
    3     1.000000   180.000000     0.000000     0.000000     1.000000     0.000000     0.000000     0.000000
    4     1.000000    90.000000     0.000000     0.000000     1.000000     0.000000     0.000000     0.000000
    5    -1.000000   180.000000     0.000000     1.000000     0.000000     0.000000     0.000000     0.000000
    6    -1.000000   180.000000     0.707107     0.707107     0.000000     0.000000     0.000000     0.000000
    7    -1.000000   180.000000     1.000000     0.000000     0.000000     0.000000     0.000000     0.000000
    8    -1.000000   180.000000     0.707107    -0.707107     0.000000     0.000000     0.000000     0.000000
    9    -1.000000     0.000000     1.000000     0.000000     0.000000     0.000000     0.000000     0.833333
   10    -1.000000    90.000000     0.000000     0.000000    -1.000000     0.000000     0.000000     0.833333
   11    -1.000000   180.000000     0.000000     0.000000     1.000000     0.000000     0.000000     0.833333
   12    -1.000000    90.000000     0.000000     0.000000     1.000000     0.000000     0.000000     0.833333
   13     1.000000   180.000000     0.000000     1.000000     0.000000     0.000000     0.000000     0.833333
   14     1.000000   180.000000     0.707107     0.707107     0.000000     0.000000     0.000000     0.833333
   15     1.000000   180.000000     1.000000     0.000000     0.000000     0.000000     0.000000     0.833333
   16     1.000000   180.000000     0.707107    -0.707107     0.000000     0.000000     0.000000     0.833333

 Subroutine IBZKPT returns following result:

 Found      6 irreducible k-points:

 Following reciprocal coordinates:
            Coordinates               Weight
  0.000000  0.000000  0.000000      1.000000
  0.200000  0.000000  0.000000      4.000000
  0.400000  0.000000  0.000000      4.000000
[...]
     30      -6.9355      1.00000
     31      -6.9355      1.00000
     32      -6.9032      1.00000
     33      -6.9032      1.00000
     34      -6.8681      1.00000
     35      -6.8681      1.00000
     36      -6.8352      1.00000
     37      -6.8352      1.00000
     38      -6.7373      1.00000
     39      -6.6703      1.00000
     40      -6.2921      1.00000
     41      -6.2579      1.00000
     42      -6.0910      1.00000
     43       0.5067      1.00000
     44       0.8552      1.00000
     45       1.0505      1.00000
     46       1.9766      1.00000
     47       2.1944      1.00000
     48       2.1944      1.00000
     49       2.2850      1.00000
     50       2.2850      1.00000
     51       2.3039      1.00000
     52       2.3540      1.00000
     53       2.3540      1.00000
     54       2.5078      1.00000
     55       2.5078      1.00000
     56       2.5133      1.00000
     57       2.5133      1.00000
     58       2.5369      1.00000
     59       2.5886      1.00000
     60       2.5892      1.00000
[...]
    134      11.2056      0.00000
    135      11.2511      0.00000
    136      11.4423      0.00000
    137      11.4529      0.00000
    138      11.4779      0.00000
    139      11.5194      0.00000
    140      11.5441      0.00000
    141      11.5731      0.00000
    142      11.5893      0.00000
    143      11.6029      0.00000
    144      11.6412      0.00000
    145      11.6788      0.00000
    146      11.6943      0.00000
    147      11.7641      0.00000
    148      11.7765      0.00000

[...]

 spin component 2

[...]

 k-point     6 :       0.4000    0.4000    0.0000
  band No.  band energies     occupation
      1     -23.3644      1.00000
      2     -23.3517      1.00000
      3     -23.3136      1.00000
      4     -23.2987      1.00000
      5     -23.2821      1.00000
      6     -23.2684      1.00000
      7     -10.4303      1.00000
      8     -10.2949      1.00000
      9     -10.2777      1.00000
     10     -10.0532      1.00000
     11     -10.0434      1.00000
     12      -9.9833      1.00000
     13      -9.9321      1.00000
     14      -9.8964      1.00000
     15      -9.7600      1.00000
     16      -9.6714      1.00000
     17      -9.6424      1.00000
     18      -9.6109      1.00000
     19      -9.5781      1.00000
     20      -9.4798      1.00000
     21      -9.4778      1.00000
     22      -9.4349      1.00000
     23      -9.3974      1.00000
     24      -9.3788      1.00000
     25      -7.4370      1.00000
     26      -7.3618      1.00000
     27      -7.3254      1.00000
     28      -7.2829      1.00000
     29      -7.2229      1.00000
     30      -7.2154      1.00000
     31      -7.1323      1.00000
     32      -7.0458      1.00000
     33      -6.9873      1.00000
     34      -6.9157      1.00000
     35      -6.8601      1.00000
     36      -6.7569      1.00000
     37      -6.7264      1.00000
     38      -6.6864      1.00000
     39      -6.5820      1.00000
     40      -6.5152      1.00000
     41      -6.5081      1.00000
     42      -6.4455      1.00000
     43       1.0786      1.00000
     44       1.2837      1.00000
     45       1.3653      1.00000
     46       1.7310      1.00000
     47       1.7464      1.00000
     48       1.8293      1.00000
     49       1.9785      1.00000
     50       2.0410      1.00000
     51       2.0852      1.00000
     52       2.2731      1.00000
     53       2.3669      1.00000
     54       2.3963      1.00000
     55       2.4698      1.00000
     56       2.4907      1.00000
     57       2.4939      1.00000
     58       2.5932      1.00000
     59       2.6052      1.00000
     60       2.6243      1.00000
[...]
    134      11.5551      0.00000
    135      11.5743      0.00000
    136      11.5836      0.00000
    137      11.5949      0.00000
    138      11.5990      0.00000
    139      11.6121      0.00000
    140      11.6313      0.00000
    141      11.6457      0.00000
    142      11.6485      0.00000
    143      11.6751      0.00000
    144      11.6885      0.00000
    145      11.7062      0.00000
    146      11.7299      0.00000
    147      11.7716      0.00000
    148      11.8190      0.00000

 soft charge-density along one line, spin component           1
         0         1         2         3         4         5         6         7         8         9
 total charge-density along one line

 soft charge-density along one line, spin component           2
         0         1         2         3         4         5         6         7         8         9
 total charge-density along one line

------------------------ aborting loop because EDIFF is reached ----------------------------------------

 total charge

# of ion       s       p       d       f       tot
    1        2.002   5.701   0.496   0.192   8.391
    2        2.002   5.702   0.500   0.197   8.402
    3        2.002   5.702   0.500   0.197   8.402
    4        2.002   5.701   0.496   0.192   8.391
    5        2.004   5.702   0.512   0.198   8.417
    6        2.004   5.702   0.512   0.198   8.417
    7        0.343   0.535   4.861   0.000   5.739
    8        0.424   0.637   8.321   0.000   9.382
    9        0.436   0.663   8.320   0.000   9.418
   10        0.429   0.644   8.321   0.000   9.394
   11        0.436   0.663   8.320   0.000   9.418
   12        0.424   0.637   8.321   0.000   9.382
   13        1.563   3.457   0.000   0.000   5.020
   14        1.563   3.431   0.000   0.000   4.994
   15        1.563   3.429   0.000   0.000   4.992
   16        1.563   3.429   0.000   0.000   4.992
   17        1.563   3.431   0.000   0.000   4.994
   18        1.563   3.457   0.000   0.000   5.020
   19        1.557   3.528   0.000   0.000   5.085
   20        1.558   3.514   0.000   0.000   5.072
   21        1.560   3.508   0.000   0.000   5.068
   22        1.559   3.502   0.000   0.000   5.061
   23        1.560   3.508   0.000   0.000   5.068
   24        1.558   3.514   0.000   0.000   5.072
   25        1.572   3.386   0.000   0.000   4.958
   26        1.565   3.376   0.000   0.000   4.941
   27        1.567   3.363   0.000   0.000   4.930
   28        1.566   3.362   0.000   0.000   4.928
   29        1.567   3.363   0.000   0.000   4.930
   30        1.565   3.376   0.000   0.000   4.941
tot         42.638  99.925  49.482   1.173 193.218

 magnetization (x)

[...]

  FORCE on cell =-STRESS in cart. coord.  units (eV):
  Direction    XX          YY          ZZ          XY          YZ          ZX
  Alpha Z   995.58675   995.58675   995.58675
  Ewald   -5333.01697 -5333.01697 -5645.43550    -0.00000    -0.00000     0.00000
  Hartree  1442.73656  1442.73656  1140.13407    -0.00000    -0.00000    -0.00000
  E(xc)   -1087.54035 -1087.54035 -1087.64061     0.00000    -0.00000    -0.00000
  Local   -1109.78906 -1109.78906  -495.96385     0.00000    -0.00000     0.00000
  n-local   450.99684   437.35579   444.05585    -3.66529     0.00055     0.00122
  augment   777.82583   777.82583   778.53911     0.00000    -0.00000    -0.00000
  Kinetic  3815.05668  3929.45520  3873.29510    -6.76251    -0.00084    -0.00020
  Fock        0.00000     0.00000     0.00000     0.00000     0.00000     0.00000
  Total       2.23502     2.23502     2.57092     0.00000     0.00000     0.00000
  in kB      10.43448    10.43448    12.00267     0.00000     0.00000     0.00000

 VOLUME and BASIS-vectors are now :
  energy-cutoff  :      520.00
  volume of cell :      343.18
      direct lattice vectors                 reciprocal lattice vectors
     3.850134725  0.000000000  0.000000000     0.259731171  0.000000000  0.000000000
     0.000000000  3.850134725  0.000000000     0.000000000  0.259731171  0.000000000
     0.000000000  0.000000000 23.150974561     0.000000000  0.000000000  0.043194726

  length of vectors
     3.850134725  3.850134725 23.150974561     0.259731171  0.259731171  0.043194726

 FORCES acting on ions
    electron-ion (+dipol)            ewald-force                    non-local-force                 convergence-correction
   0.151E-14 0.200E-13 0.133E+03   -.317E-13 0.335E-14 -.129E+03   0.000E+00 0.000E+00 -.460E+00   0.917E-16 0.123E-13 -.395E+01
   -.885E-14 -.889E-14 0.372E+02   0.171E-13 0.932E-14 -.352E+02   -.254E-20 0.000E+00 -.946E-01   0.729E-14 0.581E-14 -.188E+01
   -.432E-15 -.864E-14 -.372E+02   0.310E-13 -.112E-13 0.352E+02   0.169E-20 0.000E+00 0.946E-01   -.224E-14 0.504E-14 0.188E+01
   -.128E-13 0.276E-13 -.133E+03   -.304E-13 -.779E-14 0.129E+03   0.000E+00 0.000E+00 0.460E+00   0.739E-14 -.383E-14 0.395E+01
   0.324E-14 0.293E-13 -.224E+03   0.532E-14 0.415E-14 0.221E+03   0.000E+00 0.000E+00 0.125E+01   0.242E-13 0.928E-16 0.227E+01
   -.109E-13 0.166E-15 0.224E+03   -.732E-14 -.710E-14 -.221E+03   0.339E-20 0.000E+00 -.125E+01   0.111E-13 -.520E-14 -.227E+01
   0.489E-13 0.917E-12 0.170E-03   0.266E-13 -.943E-14 -.798E-03   -.212E-21 0.000E+00 0.339E-20   0.701E-14 0.399E-14 -.633E-05
   0.289E-12 0.139E-11 -.138E+03   -.441E-14 0.197E-13 0.134E+03   0.000E+00 0.185E-21 0.738E+00   0.562E-13 0.131E-13 0.304E+01
   0.283E-12 0.178E-11 -.673E+02   -.978E-15 -.107E-14 0.642E+02   -.265E-22 0.000E+00 0.104E+00   0.416E-13 -.750E-15 0.303E+01
   0.284E-12 0.372E-11 0.245E-03   0.311E-13 0.682E-14 -.107E-02   -.254E-20 0.000E+00 0.000E+00   0.490E-13 -.641E-15 -.121E-04
   0.294E-12 0.220E-11 0.673E+02   0.118E-13 0.771E-15 -.642E+02   0.000E+00 0.529E-22 -.104E+00   0.623E-13 0.102E-13 -.303E+01
   0.283E-12 0.169E-11 0.138E+03   0.181E-13 0.215E-13 -.134E+03   0.000E+00 -.212E-21 -.738E+00   0.554E-13 0.124E-13 -.304E+01
   0.104E-12 0.554E-12 -.130E+03   -.141E-13 -.263E-14 0.125E+03   0.000E+00 0.169E-20 0.414E+01   0.252E-13 -.245E-13 0.127E+01
   0.111E-12 0.173E-11 -.752E+02   0.102E-13 -.741E-15 0.737E+02   0.000E+00 -.424E-21 -.905E+00   0.483E-13 -.980E-14 0.225E+01
   0.116E-12 0.172E-11 -.133E+02   -.212E-13 0.180E-14 0.113E+02   -.339E-20 -.508E-20 0.878E+00   0.356E-13 -.302E-13 0.116E+01
   0.117E-12 0.120E-11 0.133E+02   -.210E-13 0.242E-15 -.113E+02   0.339E-20 0.508E-20 -.878E+00   0.284E-13 -.129E-13 -.116E+01
   0.122E-12 0.198E-11 0.752E+02   0.168E-13 -.148E-14 -.738E+02   0.000E+00 0.847E-21 0.905E+00   0.295E-13 -.104E-13 -.225E+01
   0.116E-12 0.120E-11 0.130E+03   0.132E-13 -.282E-14 -.125E+03   0.000E+00 -.127E-20 -.414E+01   0.361E-13 -.597E-14 -.127E+01
   0.114E-12 0.147E-13 0.964E-04   -.736E-14 0.122E-13 -.466E-03   0.265E-22 0.847E-21 -.305E-19   0.275E-13 0.159E-13 -.539E-05
   0.117E-12 0.443E-13 -.790E+02   0.622E-14 -.153E-13 0.763E+02   0.000E+00 0.000E+00 0.837E+00   0.264E-13 0.288E-13 0.180E+01
   0.124E-12 0.129E-13 -.405E+02   -.854E-14 0.388E-14 0.385E+02   0.000E+00 0.000E+00 0.167E+00   0.354E-13 0.338E-13 0.188E+01
   0.115E-12 0.168E-13 0.996E-04   -.176E-13 -.386E-14 -.452E-03   -.424E-21 0.000E+00 0.000E+00   0.511E-13 0.364E-13 -.702E-05
   0.109E-12 0.240E-13 0.405E+02   -.162E-13 0.457E-14 -.385E+02   0.000E+00 0.000E+00 -.167E+00   0.447E-13 0.403E-13 -.188E+01
   0.121E-12 0.960E-13 0.790E+02   -.131E-16 -.782E-14 -.763E+02   0.000E+00 0.000E+00 -.837E+00   0.400E-13 0.375E-13 -.180E+01
   0.592E-15 0.410E-12 0.964E-04   -.146E-13 0.648E-14 -.466E-03   0.000E+00 0.000E+00 -.305E-19   0.115E-13 -.205E-14 -.539E-05
   -.598E-14 0.144E-12 -.790E+02   0.127E-13 -.169E-14 0.763E+02   0.000E+00 0.169E-20 0.837E+00   -.824E-14 -.233E-13 0.180E+01
   -.908E-14 0.227E-12 -.405E+02   0.227E-13 0.110E-13 0.385E+02   0.000E+00 0.000E+00 0.167E+00   0.217E-14 -.800E-14 0.188E+01
   -.440E-14 -.265E-12 0.996E-04   0.278E-14 -.224E-15 -.452E-03   -.847E-21 0.000E+00 0.000E+00   0.351E-14 -.587E-14 -.702E-05
   -.548E-14 0.127E-12 0.405E+02   -.518E-14 -.114E-13 -.385E+02   0.662E-23 0.000E+00 -.167E+00   -.669E-14 -.296E-13 -.188E+01
   -.985E-14 0.225E-12 0.790E+02   0.158E-13 -.460E-14 -.763E+02   0.000E+00 -.169E-20 -.837E+00   -.802E-15 -.539E-14 -.180E+01
   0.281E-11 0.212E-10 0.211E-01   0.411E-13 0.165E-13 0.114E-12   -.148E-20 0.172E-20 0.266E-14   0.749E-12 0.773E-13 0.286E-04

 POSITION                                       TOTAL-FORCE (eV/Angst)
      0.00000      0.00000      3.89276         0.000000     -0.000000      0.157951
      0.00000      0.00000      7.72363        -0.000000     -0.000000      0.001918
      0.00000      0.00000     11.56884         0.000000     -0.000000     -0.001918
      0.00000      0.00000     15.39972        -0.000000     -0.000000     -0.157951
      0.00000      0.00000     19.17608        -0.000000     -0.000000      0.022003
      0.00000      0.00000      0.11640        -0.000000     -0.000000     -0.022003
      1.92507      1.92507     21.22173        -0.000000      0.000000     -0.000000
      1.92507      1.92507     17.35054        -0.000000      0.000000      0.001060
      1.92507      1.92507     13.50036        -0.000000     -0.000000      0.015967
      1.92507      1.92507      9.64624        -0.000000     -0.000000     -0.000000
      1.92507      1.92507      5.79212        -0.000000      0.000000     -0.015967
      1.92507      1.92507      1.94194        -0.000000     -0.000000     -0.001060
      1.92507      1.92507     19.32498        -0.000000     -0.000000     -0.139365
      1.92507      1.92507     15.41636        -0.000000      0.000000     -0.088472
      1.92507      1.92507     11.58677        -0.000000     -0.000000      0.015824
      1.92507      1.92507      7.70571        -0.000000      0.000000     -0.015824
      1.92507      1.92507      3.87612        -0.000000      0.000000      0.088472
      1.92507      1.92507     23.11847        -0.000000      0.000000      0.139365
      1.92507      0.00000     21.22173        -0.000000     -0.000000     -0.000000
      1.92507      0.00000     17.38779        -0.000000     -0.000000     -0.062119
      1.92507      0.00000     13.50934        -0.000000     -0.000000     -0.018329
      1.92507      0.00000      9.64624        -0.000000     -0.000000     -0.000000
      1.92507      0.00000      5.78314        -0.000000     -0.000000      0.018329
      1.92507      0.00000      1.90469        -0.000000     -0.000000      0.062119
      0.00000      1.92507     21.22173        -0.000000      0.000000     -0.000000
      0.00000      1.92507     17.38779        -0.000000      0.000000     -0.062119
      0.00000      1.92507     13.50934        -0.000000     -0.000000     -0.018329
      0.00000      1.92507      9.64624        -0.000000     -0.000000     -0.000000
      0.00000      1.92507      5.78314        -0.000000     -0.000000      0.018329
      0.00000      1.92507      1.90469        -0.000000     -0.000000      0.062119
    total drift:                                0.000000      0.000000      0.021137

  FREE ENERGIE OF THE ION-ELECTRON SYSTEM (eV)
  free  energy   TOTEN  =      -206.65619703 eV

  energy  without entropy=     -206.65619703  energy(sigma->0) =     -206.65619703

 total charge

[...]

 magnetization (x)

# of ion       s       p       d       f       tot
    1        0.001  -0.001   0.006   0.003   0.009
    2        0.001  -0.002   0.006   0.002   0.008
    3        0.001  -0.002   0.006   0.002   0.008
    4        0.001  -0.001   0.006   0.003   0.009
    5        0.001  -0.000   0.012   0.005   0.018
    6        0.001  -0.000   0.012   0.005   0.018
    7        0.022   0.020   3.396   0.000   3.438
    8        0.015   0.010   1.424   0.000   1.449
    9        0.019   0.013   1.312   0.000   1.344
   10        0.018   0.011   1.377   0.000   1.406
   11        0.019   0.013   1.312   0.000   1.344
   12        0.015   0.009   1.424   0.000   1.449
   13        0.004  -0.038   0.000   0.000  -0.034
   14        0.006  -0.103   0.000   0.000  -0.097
   15        0.006  -0.104   0.000   0.000  -0.098
   16        0.006  -0.104   0.000   0.000  -0.098
   17        0.006  -0.103   0.000   0.000  -0.097
   18        0.004  -0.038   0.000   0.000  -0.034
   19        0.006  -0.077   0.000   0.000  -0.070
   20        0.009  -0.057   0.000   0.000  -0.047
   21        0.011  -0.072   0.000   0.000  -0.061
   22        0.010  -0.077   0.000   0.000  -0.067
   23        0.011  -0.072   0.000   0.000  -0.061
   24        0.009  -0.057   0.000   0.000  -0.047
   25       -0.001  -0.042   0.000   0.000  -0.043
   26        0.001  -0.105   0.000   0.000  -0.104
   27        0.001  -0.127   0.000   0.000  -0.126
   28        0.001  -0.132   0.000   0.000  -0.131
   29        0.001  -0.127   0.000   0.000  -0.126
   30        0.001  -0.105   0.000   0.000  -0.104
tot          0.205  -1.467  10.297   0.020   9.054

 BZINTS: Fermi energy:  7.573737;231.000000 electrons
         Band energy:-250.172775;  BLOECHL correction: -0.178870