 vasp.5.4.4.18Apr17-6-g9f103f2a35 (build Oct 03 2018 13:58:34) complex

 executed on             LinuxIFC date 2019.06.04  00:55:50

 INCAR:
 POTCAR:    PAW_PBE La 06Sep2000
 POTCAR:    PAW_PBE Mn 06Sep2000
 POTCAR:    PAW_PBE Ni 02Aug2007
 POTCAR:    PAW_PBE O 08Apr2002

 POTCAR:    PAW_PBE La 06Sep2000
   VRHFIN =La : [core=Kr4d]

   TITEL  = PAW_PBE La 06Sep2000
   POMASS =  138.900; ZVAL   =   11.000    mass and valenz
   ENMAX  =  219.292; ENMIN  =  164.469 eV

 POTCAR:    PAW_PBE Mn 06Sep2000
   VRHFIN =Mn: d6 s1

   TITEL  = PAW_PBE Mn 06Sep2000
   POMASS =   54.938; ZVAL   =    7.000    mass and valenz
   ENMAX  =  269.864; ENMIN  =  202.398 eV

 POTCAR:    PAW_PBE Ni 02Aug2007
   VRHFIN =Ni:

   TITEL  = PAW_PBE Ni 02Aug2007
   POMASS =   58.690; ZVAL   =   10.000    mass and valenz
   ENMAX  =  269.532; ENMIN  =  202.149 eV

 POTCAR:    PAW_PBE O 08Apr2002
   VRHFIN =O: s2p4

   TITEL  = PAW_PBE O 08Apr2002
   POMASS =   16.000; ZVAL   =    6.000    mass and valenz
   ENMAX  =  400.000; ENMIN  =  300.000 eV

 Optimization of the real space projectors (new method)

 maximal supplied QI-value         = 13.42
 optimisation between [QCUT,QGAM] = [ 11.67, 23.35] = [ 38.16,152.62] Ry
 Optimized for a Real-space Cutoff    1.63 Angstroem

   l    n(q)    QCUT    max X(q) W(low)/X(q) W(high)/X(q)  e(spline)
   0     11    11.673    13.882    0.27E-04    0.79E-05    0.11E-06
   0     11    11.673    12.184    0.39E-04    0.13E-04    0.19E-06
   1     11    11.673     4.523    0.73E-05    0.76E-05    0.12E-06
   1     11    11.673     4.424    0.87E-05    0.13E-04    0.19E-06
   2     10    11.673    52.481    0.65E-04    0.36E-04    0.18E-06
   2     10    11.673    38.501    0.61E-04    0.33E-04    0.17E-06
   3     10    11.673    65.631    0.17E-03    0.14E-03    0.37E-06
   3     10    11.673    56.854    0.17E-03    0.14E-03    0.37E-06
 Optimization of the real space projectors (new method)

[...]

   l    n(q)    QCUT    max X(q) W(low)/X(q) W(high)/X(q)  e(spline)
   2      9    11.539    60.317    0.19E-03    0.47E-04    0.16E-06
   2      9    11.539    55.921    0.19E-03    0.48E-04    0.16E-06
   0     10    11.539    51.690    0.80E-04    0.50E-04    0.24E-06
   0     10    11.539    30.015    0.73E-04    0.45E-04    0.22E-06
   1     10    11.539    18.849    0.87E-04    0.16E-03    0.71E-07
   1     10    11.539    14.624    0.73E-04    0.13E-03    0.64E-07
 Optimization of the real space projectors (new method)

 maximal supplied QI-value         = 24.76
 optimisation between [QCUT,QGAM] = [ 11.64, 23.27] = [ 37.91,151.63] Ry
 Optimized for a Real-space Cutoff    1.14 Angstroem

   l    n(q)    QCUT    max X(q) W(low)/X(q) W(high)/X(q)  e(spline)
   0      8    11.635    20.381    0.10E-03    0.33E-03    0.24E-06
   0      8    11.635    15.268    0.11E-03    0.35E-03    0.26E-06
   1      7    11.635     5.964    0.24E-03    0.31E-03    0.30E-06
   1      7    11.635     5.382    0.22E-03    0.25E-03    0.26E-06
  PAW_PBE La 06Sep2000                  :
  PAW_PBE Mn 06Sep2000                  :
  PAW_PBE Ni 02Aug2007                  :
  PAW_PBE O 08Apr2002                   :

 POSCAR: SCEL5_1_5_1_4_0_0/0
  positions in direct lattice
  velocities in cartesian coordinates
 exchange correlation table for  LEXCH =        8
   RHO(1)=    0.500       N(1)  =     2000
   RHO(2)=  100.500       N(2)  =     4000

 ion  position               nearest neighbor table
   1  0.000  0.600  0.200-  25 2.77  25 2.77  24 2.78  21 2.78  19 2.79  19 2.79  14 2.79  14 2.79
                            20 2.79  20 2.79  15 2.79  15 2.79   9 3.40   9 3.40   7 3.40   7 3.40
   2  0.000  0.194  0.389-  25 2.61  19 2.69  14 2.69  14 2.69  19 2.69  24 2.77  24 2.77  10 3.27
                            10 3.27   9 3.40   9 3.40   9 3.40   9 3.40
   3  0.000  0.799  0.598-  24 2.73  13 2.75  13 2.75  18 2.75  18 2.75  23 2.77  23 2.77  22 2.78
                            17 2.79  17 2.79  12 2.79  12 2.79   9 3.37   9 3.37   8 3.40   8 3.40
   4  0.000  0.401  0.802-  21 2.73  16 2.75  16 2.75  11 2.75  11 2.75  22 2.77  22 2.77  23 2.78
                            17 2.79  17 2.79  12 2.79  12 2.79   7 3.37   7 3.37   6 3.40   6 3.40
   5  0.000  0.006  0.011-  25 2.61  15 2.69  15 2.69  20 2.69  20 2.69  21 2.77  21 2.77  10 3.27
                            10 3.27   7 3.40   7 3.40   7 3.40   7 3.40
   6  0.500  0.900  0.801-  12 1.96  17 1.96  22 1.97  22 1.97  11 1.97  16 1.97   4 3.40   4 3.40
                             4 3.40   4 3.40   3 3.43   3 3.43
   7  0.500  0.500  1.000-  15 1.92  20 1.92  16 1.93  11 1.93  21 1.97  21 1.97   4 3.37   4 3.37
                             1 3.40   1 3.40   5 3.40   5 3.40   5 3.40   5 3.40
   8  0.500  0.300  0.599-  12 1.96  17 1.96  23 1.97  23 1.97  18 1.97  13 1.97   3 3.40   3 3.40
                             3 3.40   3 3.40   4 3.43   4 3.43
   9  0.500  0.700  0.400-  14 1.92  19 1.92  18 1.93  13 1.93  24 1.97  24 1.97   3 3.37   3 3.37
                             1 3.40   1 3.40   2 3.40   2 3.40   2 3.40   2 3.40
  10  0.500  0.100  0.200-  25 1.97  25 1.97  14 1.99  19 1.99  15 1.99  20 1.99   2 3.27   2 3.27
                             5 3.27   5 3.27
  11  0.500  0.695  0.900-   7 1.93   6 1.97   4 2.75   4 2.75
  12  0.500  0.100  0.700-   6 1.96   8 1.96   4 2.79   4 2.79   3 2.79   3 2.79
  13  0.500  0.505  0.500-   9 1.93   8 1.97   3 2.75   3 2.75
  14  0.500  0.899  0.302-   9 1.92  10 1.99   2 2.69   2 2.69   1 2.79   1 2.79
  15  0.500  0.301  0.098-   7 1.92  10 1.99   5 2.69   5 2.69   1 2.79   1 2.79
  16  0.500  0.206  0.900-   7 1.93   6 1.97   4 2.75   4 2.75
  17  0.500  0.600  0.700-   6 1.96   8 1.96   4 2.79   4 2.79   3 2.79   3 2.79
  18  0.500  0.994  0.500-   9 1.93   8 1.97   3 2.75   3 2.75
  19  0.500  0.404  0.302-   9 1.92  10 1.99   2 2.69   2 2.69   1 2.79   1 2.79
  20  0.500  0.796  0.098-   7 1.92  10 1.99   5 2.69   5 2.69   1 2.79   1 2.79
  21  0.000  0.500  0.999-   7 1.97   7 1.97   4 2.73   5 2.77   5 2.77   1 2.78
  22  0.000  0.899  0.799-   6 1.97   6 1.97   4 2.77   4 2.77   3 2.78
  23  0.000  0.301  0.601-   8 1.97   8 1.97   3 2.77   3 2.77   4 2.78
  24  0.000  0.700  0.401-   9 1.97   9 1.97   3 2.73   2 2.77   2 2.77   1 2.78
  25  0.000  0.100  0.200-  10 1.97  10 1.97   2 2.61   5 2.61   1 2.77   1 2.77

  LATTYP: Found a base centered orthorhombic cell.
 ALAT       =     5.5348639044
 B/A-ratio  =     5.0007018346
 C/A-ratio  =     0.7111714237

  Lattice vectors:

 A1 = (   0.0000000000,  11.7425927983,   7.8288529985)
 A2 = (   0.0000000000,  -7.8288529985, -11.7425927983)
 A3 = (  -3.9362370429,   0.0000000000,   0.0000000000)

Analysis of symmetry for initial positions (statically):
 Subroutine PRICEL returns:
 Original cell was already a primitive cell.

 Routine SETGRP: Setting up the symmetry group for a
 base centered orthorhombic supercell.

 Subroutine GETGRP returns: Found  8 space group operations
 (whereof  4 operations were pure point group operations)
 out of a pool of  8 trial point group operations.

The static configuration has the point symmetry C_2v.
 The point group associated with its full space group is D_2h.

Analysis of symmetry for dynamics (positions and initial velocities):
 Subroutine PRICEL returns:
 Original cell was already a primitive cell.

[...]

The dynamic configuration has the point symmetry C_2v.
 The point group associated with its full space group is D_2h.

Analysis of structural, dynamic, and magnetic symmetry:
 Subroutine PRICEL returns:
 Original cell was already a primitive cell.

 Routine SETGRP: Setting up the symmetry group for a
 base centered orthorhombic supercell.

 Subroutine GETGRP returns: Found  8 space group operations
 (whereof  4 operations were pure point group operations)
 out of a pool of  8 trial point group operations.

The magnetic configuration has the point symmetry C_2v.
 The point group associated with its full space group is D_2h.

 Subroutine INISYM returns: Found  8 space group operations
 (whereof  4 operations are pure point group operations),
 and found     1 'primitive' translations

 KPOINTS: Automatic mesh

Automatic generation of k-mesh.
 generate k-points for:    5    4    1
Space group operators:
 irot       det(A)        alpha          n_x          n_y          n_z        tau_x        tau_y        tau_z
    1     1.000000     0.000000     1.000000     0.000000     0.000000     0.000000     0.000000     0.000000
    2    -1.000000   179.999999     1.000000     0.000000     0.000000     0.000000     0.000000     0.000000
    3     1.000000   180.000000     0.000000     0.707107     0.707107     0.000000     0.000000     0.000000
    4    -1.000000   180.000000     0.000000    -0.707107     0.707107     0.000000     0.000000     0.000000
    5    -1.000000     0.000000     1.000000     0.000000     0.000000     0.000000     0.200000    -0.600000
    6     1.000000   179.999999     1.000000     0.000000     0.000000     0.000000     0.200000    -0.600000
    7    -1.000000   180.000000     0.000000     0.707107     0.707107     0.000000     0.200000    -0.600000
    8     1.000000   180.000000     0.000000    -0.707107     0.707107     0.000000     0.200000    -0.600000

 Subroutine IBZKPT returns following result:

 Found      9 irreducible k-points:

 Following reciprocal coordinates:
            Coordinates               Weight
  0.000000  0.000000  0.000000      1.000000
  0.200000  0.000000  0.000000      2.000000
  0.400000  0.000000  0.000000      2.000000
  0.000000  0.250000  0.000000      2.000000
  0.200000  0.250000  0.000000      4.000000
  0.400000  0.250000  0.000000      4.000000
  0.000000  0.500000  0.000000      1.000000
  0.200000  0.500000  0.000000      2.000000
  0.400000  0.500000  0.000000      2.000000

 Following cartesian coordinates:
            Coordinates               Weight
  0.000000  0.000000  0.000000      1.000000
  0.050810  0.000000  0.000000      2.000000
  0.101620  0.000000  0.000000      2.000000
  0.000000  0.038326 -0.025552      2.000000
  0.050810  0.038326 -0.025552      4.000000
  0.101620  0.038326 -0.025552      4.000000
  0.000000  0.076651 -0.051104      1.000000
  0.050810  0.076651 -0.051104      2.000000
  0.101620  0.076651 -0.051104      2.000000

 TETIRR: Found     54 inequivalent tetrahedra from      120

 SYSTEM =  final
 POSCAR =  SCEL5_1_5_1_4_0_0/0

 Startparameter for this run:
   NWRITE =      2    write-flag & timer
   PREC   = accura    normal or accurate (medium, high low for compatibility)
   ISTART =      0    job   : 0-new  1-cont  2-samecut
   ICHARG =      1    charge: 1-file 2-atom 10-const
   ISPIN  =      2    spin polarized calculation?
   LNONCOLLINEAR =      F non collinear calculations
   LSORBIT =      F    spin-orbit coupling
   INIWAV =      1    electr: 0-lowe 1-rand  2-diag
   LASPH  =      F    aspherical Exc in radial PAW
   METAGGA=      F    non-selfconsistent MetaGGA calc.

 Electronic Relaxation 1
   ENCUT  =  520.0 eV  38.22 Ry    6.18 a.u.   7.32 10.29 26.24*2*pi/ulx,y,z
   ENINI  =  520.0     initial cutoff
   ENAUG  =  605.4 eV  augmentation charge cutoff
[...]
       1 -96.1112       2 -96.0231       3 -96.0523       4 -96.0524       5 -96.0231
       6 -42.4150       7 -42.8973       8 -42.4150       9 -42.8973      10 -83.7885
      11 -67.3087      12 -67.3311      13 -67.3087      14 -67.1908      15 -67.1907
      16 -67.3087      17 -67.3311      18 -67.3087      19 -67.1908      20 -67.1907
      21 -67.4062      22 -67.2641      23 -67.2641      24 -67.4062      25 -66.8204

 E-fermi :   7.9571     XC(G=0): -11.5573     alpha+bet :-15.9825

[...]

 k-point     1 :       0.0000    0.0000    0.0000
  band No.  band energies     occupation
      1     -24.5517      1.00000
      2     -24.5035      1.00000
      3     -24.4746      1.00000
      4     -24.4345      1.00000
      5     -24.4262      1.00000
      6     -11.3237      1.00000
      7     -11.1944      1.00000
      8     -11.1509      1.00000
      9     -10.9470      1.00000
     10     -10.8556      1.00000
     11     -10.5925      1.00000
     12     -10.5654      1.00000
     13     -10.2528      1.00000
     14     -10.2146      1.00000
     15     -10.1802      1.00000
     16     -10.1379      1.00000
     17     -10.0055      1.00000
     18      -9.9528      1.00000
     19      -9.9159      1.00000
     20      -9.8504      1.00000
     21      -8.0523      1.00000
     22      -8.0326      1.00000
     23      -8.0176      1.00000
     24      -7.9948      1.00000
     25      -7.9583      1.00000
     26      -7.8732      1.00000
     27      -7.8454      1.00000
     28      -7.8440      1.00000
     29      -7.7859      1.00000
     30      -7.6670      1.00000
     31      -7.6078      1.00000
     32      -7.6001      1.00000
     33      -7.5884      1.00000
     34      -7.5775      1.00000
     35      -7.4300      1.00000
     36       0.3834      1.00000
     37       0.5174      1.00000
     38       0.9531      1.00000
     39       0.9584      1.00000
     40       1.0655      1.00000
     41       1.3041      1.00000
     42       1.7851      1.00000
     43       1.8565      1.00000
     44       1.8639      1.00000
     45       1.8807      1.00000
     46       1.9781      1.00000
     47       1.9785      1.00000
     48       1.9870      1.00000
     49       2.2527      1.00000
     50       2.2758      1.00000
     51       2.3682      1.00000
     52       2.4207      1.00000
     53       2.4655      1.00000
     54       2.4780      1.00000
     55       2.5173      1.00000
     56       2.9626      1.00000
     57       2.9901      1.00000
     58       2.9935      1.00000
     59       3.0007      1.00000
     60       3.0117      1.00000
[...]
    106      10.0351      0.00000
    107      10.1354      0.00000
    108      10.1890      0.00000
    109      10.2246      0.00000
    110      10.2531      0.00000
    111      10.3396      0.00000
    112      10.3653      0.00000
    113      10.4175      0.00000
    114      10.4344      0.00000
    115      10.4470      0.00000
    116      10.4721      0.00000
    117      10.4880      0.00000
    118      10.5093      0.00000
    119      10.5325      0.00000
    120      10.5835      0.00000

[...]

 spin component 2

[...]

 k-point     9 :       0.4000    0.5000    0.0000
  band No.  band energies     occupation
      1     -24.4759      1.00000
      2     -24.4255      1.00000
      3     -24.4255      1.00000
      4     -24.4053      1.00000
      5     -24.4034      1.00000
      6     -11.0062      1.00000
      7     -10.9823      1.00000
      8     -10.8999      1.00000
      9     -10.8523      1.00000
     10     -10.8173      1.00000
     11     -10.5926      1.00000
     12     -10.5477      1.00000
     13     -10.5268      1.00000
     14     -10.4171      1.00000
     15     -10.2684      1.00000
     16     -10.1858      1.00000
     17     -10.1143      1.00000
     18      -9.9964      1.00000
     19      -9.9849      1.00000
     20      -9.9156      1.00000
     21      -8.1515      1.00000
     22      -8.1267      1.00000
     23      -7.9790      1.00000
     24      -7.8939      1.00000
     25      -7.8308      1.00000
     26      -7.8057      1.00000
     27      -7.7369      1.00000
     28      -7.6417      1.00000
     29      -7.6178      1.00000
     30      -7.5821      1.00000
     31      -7.5814      1.00000
     32      -7.5604      1.00000
     33      -7.5418      1.00000
     34      -7.5087      1.00000
     35      -7.3512      1.00000
     36       1.5822      1.00000
     37       1.6467      1.00000
     38       1.7274      1.00000
     39       1.7312      1.00000
     40       1.7710      1.00000
     41       1.9332      1.00000
     42       2.0375      1.00000
     43       2.3847      1.00000
     44       2.5921      1.00000
     45       2.6930      1.00000
     46       2.8174      1.00000
     47       2.9810      1.00000
     48       3.0905      1.00000
     49       3.1059      1.00000
     50       3.1186      1.00000
     51       3.2091      1.00000
     52       3.2309      1.00000
     53       3.2845      1.00000
     54       3.3463      1.00000
     55       3.4343      1.00000
     56       3.5176      1.00000
     57       3.5193      1.00000
     58       3.5810      1.00000
     59       3.6195      1.00000
     60       3.8391      1.00000
[...]
    106      10.4697      0.00000
    107      10.4707      0.00000
    108      10.4735      0.00000
    109      10.4789      0.00000
    110      10.4919      0.00000
    111      10.4947      0.00000
    112      10.5047      0.00000
    113      10.5121      0.00000
    114      10.5154      0.00000
    115      10.5534      0.00000
    116      10.5611      0.00000
    117      10.6437      0.00000
    118      10.6594      0.00000
    119      10.9218      0.00000
    120      11.0613      0.00000

 soft charge-density along one line, spin component           1
         0         1         2         3         4         5         6         7         8         9
 total charge-density along one line

 soft charge-density along one line, spin component           2
         0         1         2         3         4         5         6         7         8         9
 total charge-density along one line

------------------------ aborting loop because EDIFF is reached ----------------------------------------

 total charge

# of ion       s       p       d       f       tot
    1        1.998   5.694   0.469   0.182   8.343
    2        2.000   5.694   0.482   0.186   8.362
    3        1.999   5.696   0.476   0.184   8.355
    4        1.999   5.696   0.476   0.184   8.355
    5        2.000   5.694   0.482   0.186   8.362
    6        0.307   0.453   4.892   0.000   5.652
    7        0.330   0.510   4.872   0.000   5.713
    8        0.307   0.453   4.892   0.000   5.652
    9        0.330   0.510   4.872   0.000   5.713
   10        0.389   0.554   8.324   0.000   9.268
   11        1.563   3.458   0.000   0.000   5.021
   12        1.565   3.451   0.000   0.000   5.016
   13        1.563   3.458   0.000   0.000   5.021
   14        1.560   3.457   0.000   0.000   5.017
   15        1.560   3.457   0.000   0.000   5.017
   16        1.563   3.457   0.000   0.000   5.020
   17        1.566   3.449   0.000   0.000   5.014
   18        1.563   3.457   0.000   0.000   5.020
   19        1.560   3.457   0.000   0.000   5.017
   20        1.560   3.457   0.000   0.000   5.017
   21        1.565   3.453   0.000   0.000   5.018
   22        1.563   3.450   0.000   0.000   5.012
   23        1.563   3.450   0.000   0.000   5.013
   24        1.565   3.454   0.000   0.000   5.019
   25        1.555   3.458   0.000   0.000   5.013
tot         35.093  82.777  30.238   0.922 149.031

 magnetization (x)

[...]

  FORCE on cell =-STRESS in cart. coord.  units (eV):
  Direction    XX          YY          ZZ          XY          YZ          ZX
  Alpha Z   801.66733   801.66733   801.66733
  Ewald   -4015.98622 -4083.13954 -4083.13954     0.00000   -42.82856    -0.00000
  Hartree   919.59627   842.71866   842.71869    -0.00000   -46.31120    -0.00000
  E(xc)    -840.98725  -841.09378  -841.09379    -0.00000     0.02390    -0.00000
  Local    -570.53068  -422.29780  -422.29751     0.00000    89.16001    -0.00000
  n-local   326.05636   327.04793   326.98032    -0.34192    -0.36734     0.37736
  augment   190.45062   188.96769   188.96750     0.00000    -0.02203    -0.00000
  Kinetic  3188.52970  3185.66523  3186.15745     0.59210     0.31013    -0.73001
  Fock        0.00000     0.00000     0.00000     0.00000     0.00000     0.00000
  Total      -1.20388    -0.25191    -0.25191     0.00000    -0.03198     0.00000
  in kB      -6.39729    -1.33861    -1.33861     0.00000    -0.16992     0.00000

 VOLUME and BASIS-vectors are now :
  energy-cutoff  :      520.00
  volume of cell :      301.51
      direct lattice vectors                 reciprocal lattice vectors
     3.936237043  0.000000000  0.000000000     0.254049741  0.000000000  0.000000000
     0.000000000  3.913739800 -3.913739800     0.000000000  0.153302467 -0.102207621
     0.000000000  7.828852999 11.742592798     0.000000000  0.051094846  0.051094846

  length of vectors
     3.936237043  5.534863904 14.113094094     0.254049741  0.184249950  0.072259024

 FORCES acting on ions
    electron-ion (+dipol)            ewald-force                    non-local-force                 convergence-correction
   -.437E-14 -.292E-04 -.260E-04   0.168E-13 -.500E-11 -.189E-10   0.000E+00 -.434E-18 0.651E-18   0.180E-13 0.311E-05 0.237E-05
   0.723E-15 -.124E+03 -.124E+03   0.304E-13 0.123E+03 0.123E+03   0.000E+00 0.967E+00 0.967E+00   0.202E-13 0.431E-01 0.431E-01
   -.575E-14 -.361E+02 -.361E+02   -.156E-13 0.361E+02 0.361E+02   0.000E+00 0.155E+00 0.155E+00   0.357E-13 -.563E-01 -.563E-01
   0.258E-16 0.361E+02 0.361E+02   0.691E-14 -.361E+02 -.361E+02   0.000E+00 -.155E+00 -.155E+00   0.101E-13 0.563E-01 0.563E-01
   -.184E-14 0.124E+03 0.124E+03   -.271E-13 -.123E+03 -.123E+03   0.000E+00 -.967E+00 -.967E+00   0.134E-13 -.431E-01 -.431E-01
   0.457E-13 0.907E+01 0.907E+01   -.519E-13 -.922E+01 -.922E+01   0.000E+00 0.105E+00 0.105E+00   0.647E-14 0.388E-01 0.388E-01
   0.529E-13 0.460E+02 0.460E+02   0.305E-13 -.458E+02 -.458E+02   0.000E+00 -.307E+00 -.307E+00   -.593E-14 -.122E-01 -.122E-01
   0.525E-13 -.907E+01 -.907E+01   0.512E-13 0.922E+01 0.922E+01   0.000E+00 -.105E+00 -.105E+00   0.229E-13 -.388E-01 -.388E-01
   0.629E-13 -.460E+02 -.460E+02   -.741E-13 0.458E+02 0.458E+02   0.000E+00 0.307E+00 0.307E+00   0.110E-13 0.122E-01 0.122E-01
   0.284E-12 0.397E-04 -.378E-04   0.269E-13 -.387E-10 -.533E-10   0.000E+00 0.678E-20 -.678E-20   0.588E-13 0.220E-05 0.224E-05
   0.114E-12 0.210E+02 0.485E+02   -.867E-14 -.203E+02 -.504E+02   0.000E+00 -.699E+00 0.190E+01   0.340E-13 0.158E-01 0.338E-01
   0.115E-12 0.345E-04 -.139E-04   0.142E-14 -.295E-11 -.465E-10   0.000E+00 0.542E-19 0.217E-18   0.198E-13 -.923E-06 -.896E-06
   0.110E-12 -.210E+02 -.485E+02   -.122E-13 0.203E+02 0.504E+02   0.000E+00 0.699E+00 -.190E+01   0.184E-13 -.158E-01 -.338E-01
   0.114E-12 -.182E+02 -.716E+02   0.127E-13 0.176E+02 0.672E+02   0.000E+00 0.560E+00 0.430E+01   0.226E-13 0.501E-02 0.107E+00
   0.119E-12 0.182E+02 0.716E+02   -.227E-13 -.176E+02 -.672E+02   0.000E+00 -.560E+00 -.430E+01   0.280E-13 -.500E-02 -.107E+00
   0.119E-12 0.485E+02 0.210E+02   0.967E-14 -.504E+02 -.203E+02   0.000E+00 0.190E+01 -.699E+00   0.327E-14 0.338E-01 0.158E-01
   0.115E-12 0.324E-04 -.113E-04   -.460E-14 -.258E-10 0.106E-10   0.000E+00 0.000E+00 -.108E-18   0.141E-13 -.894E-06 -.919E-06
   0.116E-12 -.485E+02 -.210E+02   0.206E-13 0.504E+02 0.203E+02   0.000E+00 -.190E+01 0.699E+00   0.171E-13 -.338E-01 -.158E-01
   0.118E-12 -.716E+02 -.182E+02   -.236E-13 0.672E+02 0.176E+02   0.000E+00 0.430E+01 0.560E+00   0.174E-13 0.107E+00 0.501E-02
   0.123E-12 0.716E+02 0.182E+02   0.139E-13 -.672E+02 -.176E+02   0.000E+00 -.430E+01 -.560E+00   0.121E-13 -.107E+00 -.500E-02
   -.422E-14 0.395E+02 0.395E+02   0.148E-13 -.395E+02 -.395E+02   0.000E+00 0.122E+00 0.122E+00   0.387E-13 -.675E-02 -.675E-02
   -.582E-14 0.810E+01 0.810E+01   0.372E-13 -.783E+01 -.783E+01   0.000E+00 -.322E+00 -.322E+00   0.285E-13 0.299E-01 0.299E-01
   -.382E-14 -.810E+01 -.810E+01   -.482E-13 0.783E+01 0.783E+01   0.000E+00 0.322E+00 0.322E+00   0.451E-15 -.299E-01 -.299E-01
   -.350E-14 -.395E+02 -.395E+02   0.452E-14 0.395E+02 0.395E+02   0.000E+00 -.122E+00 -.122E+00   0.134E-13 0.675E-02 0.675E-02
   -.547E-14 0.249E-04 -.248E-04   -.107E-13 -.276E-10 -.178E-10   0.000E+00 0.000E+00 0.000E+00   0.121E-13 0.134E-05 0.139E-05
   0.163E-11 0.177E-03 -.966E-04   -.216E-13 -.212E-13 -.211E-13   0.000E+00 0.874E-15 0.107E-14   0.471E-12 0.430E-05 0.218E-05

 POSITION                                       TOTAL-FORCE (eV/Angst)
      0.00000      3.91401      0.00027         0.000000      0.000000     -0.000000
      0.00000      3.80520      3.80520         0.000000     -0.069607     -0.069607
      0.00000      7.80872      3.89498         0.000000      0.021997      0.021997
      0.00000      7.84817      7.84817         0.000000     -0.021997     -0.021997
      0.00000      0.10909      0.10909         0.000000      0.069607      0.069607
      1.96812      9.79137      5.87764         0.000000     -0.003737     -0.003737
      1.96812      9.78469      9.78469         0.000000     -0.064830     -0.064830
      1.96812      5.86551      5.86551         0.000000      0.003737      0.003737
      1.96812      5.87219      1.95845         0.000000      0.064830      0.064830
      1.96812      1.95714      1.95714         0.000000      0.000000     -0.000000
      1.96812      9.76546      7.85228         0.000000     -0.009690      0.055968
      1.96812      5.87157      7.82844         0.000000      0.000000     -0.000000
      1.96812      5.89143      3.89086         0.000000      0.009690     -0.055968
      1.96812      5.88438      0.03502         0.000000     -0.019185     -0.010899
      1.96812      1.94365     -0.03447         0.000000      0.019185      0.010899
      1.96812      7.85228      9.76546         0.000000      0.055968     -0.009690
      1.96812      7.82844      5.87157         0.000000      0.000000     -0.000000
      1.96812      7.80460      1.97769         0.000000     -0.055968      0.009690
      1.96812      3.94876      1.97064         0.000000     -0.010899     -0.019185
      1.96812      3.87927     -1.97009         0.000000      0.010899      0.019185
      0.00000      9.77750      9.77750         0.000000      0.077360      0.077360
      0.00000      9.77360      5.85986         0.000000     -0.022113     -0.022113
      0.00000      5.88329      5.88329         0.000000      0.022113      0.022113
      0.00000      5.87939      1.96565         0.000000     -0.077360     -0.077360
      0.00000      1.95714      1.95714         0.000000      0.000000     -0.000000
    total drift:                                0.000000      0.000181     -0.000094

  FREE ENERGIE OF THE ION-ELECTRON SYSTEM (eV)
  free  energy   TOTEN  =      -192.65689336 eV

  energy  without entropy=     -192.65689336  energy(sigma->0) =     -192.65689336

 total charge

[...]

 magnetization (x)

# of ion       s       p       d       f       tot
    1        0.000   0.000   0.007   0.004   0.011
    2        0.001   0.001   0.009   0.005   0.015
    3        0.001   0.001   0.013   0.007   0.022
    4        0.001   0.001   0.013   0.007   0.022
    5        0.001   0.001   0.009   0.005   0.015
    6        0.024   0.022   3.847   0.000   3.893
    7        0.026   0.033   3.606   0.000   3.665
    8        0.025   0.022   3.847   0.000   3.894
    9        0.026   0.033   3.606   0.000   3.665
   10        0.012   0.004   1.717   0.000   1.733
   11        0.005  -0.032   0.000   0.000  -0.027
   12        0.006  -0.058   0.000   0.000  -0.051
   13        0.005  -0.032   0.000   0.000  -0.027
   14        0.005  -0.006   0.000   0.000  -0.001
   15        0.005  -0.006   0.000   0.000  -0.001
   16        0.005  -0.033   0.000   0.000  -0.028
   17        0.006  -0.060   0.000   0.000  -0.053
   18        0.005  -0.033   0.000   0.000  -0.028
   19        0.005  -0.007   0.000   0.000  -0.001
   20        0.005  -0.007   0.000   0.000  -0.001
   21        0.007  -0.040   0.000   0.000  -0.033
   22        0.004  -0.045   0.000   0.000  -0.041
   23        0.005  -0.045   0.000   0.000  -0.040
   24        0.007  -0.039   0.000   0.000  -0.033
   25        0.006   0.033   0.000   0.000   0.040
tot          0.198  -0.292  16.673   0.030  16.608

 BZINTS: Fermi energy:  7.957101;183.000000 electrons
         Band energy:-348.389282;  BLOECHL correction: -0.106035