 vasp.5.4.4.18Apr17-6-g9f103f2a35 (build Oct 03 2018 13:58:34) complex

 executed on             LinuxIFC date 2019.06.04  01:51:04

 INCAR:
 POTCAR:    PAW_PBE La 06Sep2000
 POTCAR:    PAW_PBE Mn 06Sep2000
 POTCAR:    PAW_PBE Ni 02Aug2007
 POTCAR:    PAW_PBE O 08Apr2002

 POTCAR:    PAW_PBE La 06Sep2000
   VRHFIN =La : [core=Kr4d]

   TITEL  = PAW_PBE La 06Sep2000
   POMASS =  138.900; ZVAL   =   11.000    mass and valenz
   ENMAX  =  219.292; ENMIN  =  164.469 eV

 POTCAR:    PAW_PBE Mn 06Sep2000
   VRHFIN =Mn: d6 s1

   TITEL  = PAW_PBE Mn 06Sep2000
   POMASS =   54.938; ZVAL   =    7.000    mass and valenz
   ENMAX  =  269.864; ENMIN  =  202.398 eV

 POTCAR:    PAW_PBE Ni 02Aug2007
   VRHFIN =Ni:

   TITEL  = PAW_PBE Ni 02Aug2007
   POMASS =   58.690; ZVAL   =   10.000    mass and valenz
   ENMAX  =  269.532; ENMIN  =  202.149 eV

 POTCAR:    PAW_PBE O 08Apr2002
   VRHFIN =O: s2p4

   TITEL  = PAW_PBE O 08Apr2002
   POMASS =   16.000; ZVAL   =    6.000    mass and valenz
   ENMAX  =  400.000; ENMIN  =  300.000 eV

 Optimization of the real space projectors (new method)

 maximal supplied QI-value         = 13.42
 optimisation between [QCUT,QGAM] = [ 11.67, 23.35] = [ 38.16,152.62] Ry
 Optimized for a Real-space Cutoff    1.63 Angstroem

   l    n(q)    QCUT    max X(q) W(low)/X(q) W(high)/X(q)  e(spline)
   0     11    11.673    13.882    0.27E-04    0.79E-05    0.11E-06
   0     11    11.673    12.184    0.39E-04    0.13E-04    0.19E-06
   1     11    11.673     4.523    0.73E-05    0.76E-05    0.12E-06
   1     11    11.673     4.424    0.87E-05    0.13E-04    0.19E-06
   2     10    11.673    52.481    0.65E-04    0.36E-04    0.18E-06
   2     10    11.673    38.501    0.61E-04    0.33E-04    0.17E-06
   3     10    11.673    65.631    0.17E-03    0.14E-03    0.37E-06
   3     10    11.673    56.854    0.17E-03    0.14E-03    0.37E-06
 Optimization of the real space projectors (new method)

[...]

   l    n(q)    QCUT    max X(q) W(low)/X(q) W(high)/X(q)  e(spline)
   2      9    11.539    60.317    0.19E-03    0.47E-04    0.16E-06
   2      9    11.539    55.921    0.19E-03    0.48E-04    0.16E-06
   0     10    11.539    51.690    0.80E-04    0.50E-04    0.24E-06
   0     10    11.539    30.015    0.73E-04    0.45E-04    0.22E-06
   1     10    11.539    18.849    0.87E-04    0.16E-03    0.71E-07
   1     10    11.539    14.624    0.73E-04    0.13E-03    0.64E-07
 Optimization of the real space projectors (new method)

 maximal supplied QI-value         = 24.76
 optimisation between [QCUT,QGAM] = [ 11.64, 23.27] = [ 37.91,151.63] Ry
 Optimized for a Real-space Cutoff    1.14 Angstroem

   l    n(q)    QCUT    max X(q) W(low)/X(q) W(high)/X(q)  e(spline)
   0      8    11.635    20.381    0.10E-03    0.33E-03    0.24E-06
   0      8    11.635    15.268    0.11E-03    0.35E-03    0.26E-06
   1      7    11.635     5.964    0.24E-03    0.31E-03    0.30E-06
   1      7    11.635     5.382    0.22E-03    0.25E-03    0.26E-06
  PAW_PBE La 06Sep2000                  :
  PAW_PBE Mn 06Sep2000                  :
  PAW_PBE Ni 02Aug2007                  :
  PAW_PBE O 08Apr2002                   :

 POSCAR: SCEL6_3_1_2_0_2_1/4
  positions in direct lattice
  velocities in cartesian coordinates
 exchange correlation table for  LEXCH =        8
   RHO(1)=    0.500       N(1)  =     2000
   RHO(2)=  100.500       N(2)  =     4000

 ion  position               nearest neighbor table
   1  0.834  0.824  0.508-  27 2.69  23 2.69  15 2.70  19 2.75  29 2.75  17 2.75  17 2.75  28 2.76
                            24 2.76  13 2.80  30 2.82  20 2.82  10 3.29  11 3.33  11 3.33   9 3.35
   2  0.672  0.666  0.990-  23 2.66  27 2.66  29 2.71  19 2.71  14 2.72  16 2.75  16 2.75  18 2.78
                            26 2.79  22 2.79  28 2.82  24 2.82  10 3.31  11 3.32  11 3.32   8 3.34
   3  0.490  0.511  0.509-  27 2.65  23 2.65  17 2.65  28 2.75  24 2.75  15 2.75  15 2.75  25 2.76
                            21 2.76  11 3.24  10 3.32  10 3.32  12 3.32   9 3.41   9 3.41   8 3.41
   4  0.334  0.342  0.989-  27 2.65  23 2.65  25 2.71  21 2.71  16 2.71  14 2.75  14 2.75  22 2.78
                            26 2.78  18 2.78  30 2.82  20 2.82  11 3.29  10 3.32  10 3.32   8 3.34
   5  0.169  0.159  0.502-  17 2.67  29 2.70  19 2.70  20 2.73  30 2.73  13 2.75  13 2.75  25 2.76
                            21 2.76  26 2.78  22 2.78  15 2.79  11 3.30  12 3.33   8 3.36   8 3.36
   6  0.001  0.999  0.000-  16 2.73  29 2.73  19 2.73  28 2.73  24 2.73  25 2.74  21 2.74  18 2.74
                            18 2.74  30 2.75  20 2.75  14 2.75  11 3.34   9 3.35  12 3.35  12 3.35
   7  0.751  0.249  0.249-  14 1.88  30 1.88  20 1.88  26 1.94  22 1.94  13 1.95   6 3.36   5 3.38
                             5 3.38   2 3.39   4 3.41   4 3.41
   8  0.582  0.084  0.751-  18 1.89  25 1.89  21 1.89  19 1.90  29 1.90  13 1.95   4 3.34   2 3.34
                             6 3.36   6 3.36   5 3.36   5 3.36   1 3.39   3 3.41
   9  0.083  0.584  0.250-  28 1.89  24 1.89  16 1.89  15 1.89  22 1.95  26 1.95   6 3.35   1 3.35
                             4 3.38   2 3.41   2 3.41   3 3.41   3 3.41   5 3.42
  10  0.918  0.414  0.749-  23 1.95  27 1.95  25 1.97  21 1.97  15 1.99  14 2.00   1 3.29   2 3.31
                             4 3.32   4 3.32   3 3.32   3 3.32   6 3.35   5 3.38
  11  0.249  0.751  0.750-  27 1.96  23 1.96  17 1.97  29 1.98  19 1.98  16 1.99   3 3.24   4 3.29
                             5 3.30   2 3.32   2 3.32   1 3.33   1 3.33   6 3.34
  12  0.417  0.918  0.248-  17 1.93  18 1.97  20 1.99  30 1.99  28 1.99  24 1.99   3 3.32   5 3.33
                             6 3.35   6 3.35
  13  0.666  0.167  0.501-   8 1.95   7 1.95   5 2.75   5 2.75   1 2.80
  14  0.831  0.331  0.007-   7 1.88  10 2.00   2 2.72   4 2.75   4 2.75   6 2.75
  15  0.003  0.501  0.493-   9 1.89  10 1.99   1 2.70   3 2.75   3 2.75   5 2.79
  16  0.164  0.665  0.006-   9 1.89  11 1.99   4 2.71   6 2.73   2 2.75   2 2.75
  17  0.333  0.836  0.497-  12 1.93  11 1.97   3 2.65   5 2.67   1 2.75   1 2.75
  18  0.501  0.002  0.995-   8 1.89  12 1.97   6 2.74   6 2.74   2 2.78   4 2.78
  19  0.419  0.921  0.751-   8 1.90  11 1.98   5 2.70   2 2.71   6 2.73   1 2.75
  20  0.587  0.088  0.250-   7 1.88  12 1.99   5 2.73   6 2.75   4 2.82   1 2.82
  21  0.747  0.246  0.750-   8 1.89  10 1.97   4 2.71   6 2.74   5 2.76   3 2.76
  22  0.918  0.416  0.249-   7 1.94   9 1.95   4 2.78   5 2.78   2 2.79
  23  0.083  0.581  0.752-  10 1.95  11 1.96   3 2.65   4 2.65   2 2.66   1 2.69
  24  0.246  0.746  0.249-   9 1.89  12 1.99   6 2.73   3 2.75   1 2.76   2 2.82
  25  0.257  0.246  0.750-   8 1.89  10 1.97   4 2.71   6 2.74   5 2.76   3 2.76
  26  0.417  0.416  0.249-   7 1.94   9 1.95   4 2.78   5 2.78   2 2.79
  27  0.584  0.581  0.752-  10 1.95  11 1.96   3 2.65   4 2.65   2 2.66   1 2.69
  28  0.758  0.746  0.249-   9 1.89  12 1.99   6 2.73   3 2.75   1 2.76   2 2.82
  29  0.909  0.921  0.751-   8 1.90  11 1.98   5 2.70   2 2.71   6 2.73   1 2.75
  30  0.075  0.088  0.250-   7 1.88  12 1.99   5 2.73   6 2.75   4 2.82   1 2.82

  LATTYP: Found a base centered monoclinic cell.
 ALAT       =    16.4667772140
 B/A-ratio  =     0.3333538101
 C/A-ratio  =     0.8167616078
 COS(beta)  =    -0.7747559514

  Lattice vectors:

 A1 = (  -7.7626320207,   3.8811369741,   0.0031227867)
 A2 = (  -3.8811369838,   7.7626320111,   0.0031227867)
 A3 = (   7.7645951073,  -7.7645950976,  -7.7659082964)

Analysis of symmetry for initial positions (statically):
 Subroutine PRICEL returns:
 Original cell was already a primitive cell.

 Routine SETGRP: Setting up the symmetry group for a
 base centered monoclinic supercell.

 Subroutine GETGRP returns: Found  2 space group operations
 (whereof  2 operations were pure point group operations)
 out of a pool of  4 trial point group operations.

The static configuration has the point symmetry C_1h.

Analysis of symmetry for dynamics (positions and initial velocities):
 Subroutine PRICEL returns:
 Original cell was already a primitive cell.

[...]

The dynamic configuration has the point symmetry C_1h.

Analysis of structural, dynamic, and magnetic symmetry:
 Subroutine PRICEL returns:
 Original cell was already a primitive cell.

 Routine SETGRP: Setting up the symmetry group for a
 base centered monoclinic supercell.

 Subroutine GETGRP returns: Found  2 space group operations
 (whereof  2 operations were pure point group operations)
 out of a pool of  4 trial point group operations.

The magnetic configuration has the point symmetry C_1h.

 Subroutine INISYM returns: Found  2 space group operations
 (whereof  2 operations are pure point group operations),
 and found     1 'primitive' translations

 KPOINTS: Automatic mesh

Automatic generation of k-mesh.
 generate k-points for:    4    3    3
Space group operators:
 irot       det(A)        alpha          n_x          n_y          n_z        tau_x        tau_y        tau_z
    1     1.000000     0.000001     1.000000     0.000000     0.000000     0.000000     0.000000     0.000000
    2    -1.000000   180.000000     0.707107     0.707107    -0.000000     0.000000     0.000000     0.000000

 Subroutine IBZKPT returns following result:

 Found     19 irreducible k-points:

 Following reciprocal coordinates:
            Coordinates               Weight
  0.000000  0.000000  0.000000      1.000000
  0.250000  0.000000 -0.000000      2.000000
  0.500000  0.000000 -0.000000      1.000000
  0.000000  0.333333  0.000000      2.000000
  0.250000  0.333333  0.000000      2.000000
  0.500000  0.333333  0.000000      2.000000
 -0.250000  0.333333  0.000000      2.000000
  0.000000 -0.000000  0.333333      2.000000
  0.250000  0.000000  0.333333      2.000000
  0.500000  0.000000  0.333333      2.000000
 -0.250000 -0.000000  0.333333      2.000000
  0.000000  0.333333  0.333333      2.000000
  0.250000  0.333333  0.333333      2.000000
  0.500000  0.333333  0.333333      2.000000
 -0.250000  0.333333  0.333333      2.000000
 -0.000000 -0.333333  0.333333      2.000000
  0.250000 -0.333333  0.333333      2.000000
  0.500000 -0.333333  0.333333      2.000000
 -0.250000 -0.333333  0.333333      2.000000

 Following cartesian coordinates:
            Coordinates               Weight
  0.000000  0.000000  0.000000      1.000000
  0.042937  0.021472 -0.010731      2.000000
  0.085873  0.042943 -0.021461      1.000000
 -0.028631  0.028631 -0.014331      2.000000
  0.014305  0.050103 -0.025061      2.000000
  0.057242  0.071575 -0.035792      2.000000
 -0.071568  0.007160 -0.003600      2.000000
  0.000012 -0.000012  0.042946      2.000000
  0.042948  0.021460  0.032215      2.000000
  0.085885  0.042932  0.021484      2.000000
 -0.042925 -0.021483  0.053676      2.000000
 -0.028620  0.028620  0.028615      2.000000
  0.014317  0.050092  0.017884      2.000000
  0.057253  0.071563  0.007154      2.000000
 -0.071557  0.007148  0.039346      2.000000
  0.028643 -0.028643  0.057276      2.000000
  0.071580 -0.007171  0.046546      2.000000
  0.114516  0.014300  0.035815      2.000000
 -0.014294 -0.050115  0.068007      2.000000

 TETIRR: Found    106 inequivalent tetrahedra from      216

 SYSTEM =  final
[...]
     30      -7.4588      1.00000
     31      -7.4459      1.00000
     32      -7.4363      1.00000
     33      -7.4257      1.00000
     34      -7.3356      1.00000
     35      -7.3237      1.00000
     36      -7.2506      1.00000
     37      -7.1613      1.00000
     38      -7.1434      1.00000
     39      -7.0523      1.00000
     40      -6.8888      1.00000
     41      -6.8643      1.00000
     42      -6.5544      1.00000
     43       0.3443      1.00000
     44       0.4658      1.00000
     45       0.5815      1.00000
     46       0.6221      1.00000
     47       0.8757      1.00000
     48       1.0160      1.00000
     49       1.1911      1.00000
     50       1.2088      1.00000
     51       1.3503      1.00000
     52       1.4078      1.00000
     53       1.5598      1.00000
     54       1.6163      1.00000
     55       1.6651      1.00000
     56       1.6993      1.00000
     57       1.7167      1.00000
     58       1.7495      1.00000
     59       1.8130      1.00000
     60       1.8135      1.00000
[...]
    132      10.8862      0.00000
    133      10.9115      0.00000
    134      10.9323      0.00000
    135      10.9623      0.00000
    136      10.9716      0.00000
    137      11.0207      0.00000
    138      11.0336      0.00000
    139      11.0523      0.00000
    140      11.0703      0.00000
    141      11.0857      0.00000
    142      11.1011      0.00000
    143      11.1132      0.00000
    144      11.1436      0.00000
    145      11.1659      0.00000
    146      11.1988      0.00000

[...]

 spin component 2

[...]

 k-point    19 :      -0.2500   -0.3333    0.3333
  band No.  band energies     occupation
      1     -23.9174      1.00000
      2     -23.8843      1.00000
      3     -23.8647      1.00000
      4     -23.8356      1.00000
      5     -23.8074      1.00000
      6     -23.7726      1.00000
      7     -11.1347      1.00000
      8     -11.0053      1.00000
      9     -10.9319      1.00000
     10     -10.7550      1.00000
     11     -10.5254      1.00000
     12     -10.2027      1.00000
     13     -10.1282      1.00000
     14     -10.0716      1.00000
     15      -9.9994      1.00000
     16      -9.9005      1.00000
     17      -9.8514      1.00000
     18      -9.8138      1.00000
     19      -9.7493      1.00000
     20      -9.7048      1.00000
     21      -9.6003      1.00000
     22      -9.5331      1.00000
     23      -9.3399      1.00000
     24      -9.1827      1.00000
     25      -7.7072      1.00000
     26      -7.4995      1.00000
     27      -7.4467      1.00000
     28      -7.4165      1.00000
     29      -7.3962      1.00000
     30      -7.3718      1.00000
     31      -7.3414      1.00000
     32      -7.3010      1.00000
     33      -7.2189      1.00000
     34      -7.1872      1.00000
     35      -7.1617      1.00000
     36      -7.1063      1.00000
     37      -7.0496      1.00000
     38      -6.9938      1.00000
     39      -6.9549      1.00000
     40      -6.8915      1.00000
     41      -6.7685      1.00000
     42      -6.6722      1.00000
     43       1.3748      1.00000
     44       1.7475      1.00000
     45       2.0580      1.00000
     46       2.2521      1.00000
     47       2.2665      1.00000
     48       2.3678      1.00000
     49       2.3992      1.00000
     50       2.4685      1.00000
     51       2.6054      1.00000
     52       2.8907      1.00000
     53       2.9194      1.00000
     54       2.9396      1.00000
     55       2.9940      1.00000
     56       3.0474      1.00000
     57       3.0941      1.00000
     58       3.1212      1.00000
     59       3.1531      1.00000
     60       3.1757      1.00000
[...]
    132      11.0845      0.00000
    133      11.0916      0.00000
    134      11.1047      0.00000
    135      11.1083      0.00000
    136      11.1224      0.00000
    137      11.1263      0.00000
    138      11.1415      0.00000
    139      11.1550      0.00000
    140      11.1668      0.00000
    141      11.1724      0.00000
    142      11.1933      0.00000
    143      11.2065      0.00000
    144      11.2190      0.00000
    145      11.2343      0.00000
    146      11.2721      0.00000

 soft charge-density along one line, spin component           1
         0         1         2         3         4         5         6         7         8         9
 total charge-density along one line

 soft charge-density along one line, spin component           2
         0         1         2         3         4         5         6         7         8         9
 total charge-density along one line

------------------------ aborting loop because EDIFF is reached ----------------------------------------

 total charge

# of ion       s       p       d       f       tot
    1        2.000   5.697   0.492   0.190   8.379
    2        2.000   5.699   0.493   0.191   8.382
    3        2.000   5.697   0.494   0.191   8.382
    4        2.000   5.699   0.497   0.193   8.389
    5        1.999   5.699   0.486   0.190   8.375
    6        1.999   5.699   0.487   0.191   8.376
    7        0.351   0.552   4.854   0.000   5.757
    8        0.360   0.581   4.863   0.000   5.804
    9        0.354   0.564   4.854   0.000   5.772
   10        0.395   0.571   8.338   0.000   9.305
   11        0.395   0.573   8.343   0.000   9.310
   12        0.387   0.550   8.308   0.000   9.245
   13        1.561   3.463   0.000   0.000   5.024
   14        1.565   3.450   0.000   0.000   5.015
   15        1.562   3.459   0.000   0.000   5.020
   16        1.562   3.461   0.000   0.000   5.023
   17        1.556   3.456   0.000   0.000   5.012
   18        1.561   3.456   0.000   0.000   5.016
   19        1.561   3.464   0.000   0.000   5.025
   20        1.563   3.446   0.000   0.000   5.010
   21        1.561   3.463   0.000   0.000   5.024
   22        1.561   3.461   0.000   0.000   5.022
   23        1.555   3.468   0.000   0.000   5.024
   24        1.563   3.447   0.000   0.000   5.010
   25        1.561   3.463   0.000   0.000   5.024
   26        1.561   3.461   0.000   0.000   5.022
   27        1.555   3.468   0.000   0.000   5.024
   28        1.563   3.447   0.000   0.000   5.010
   29        1.561   3.464   0.000   0.000   5.025
   30        1.563   3.446   0.000   0.000   5.010
tot         42.337  99.825  42.509   1.146 185.818

 magnetization (x)

[...]

  FORCE on cell =-STRESS in cart. coord.  units (eV):
  Direction    XX          YY          ZZ          XY          YZ          ZX
  Alpha Z   984.42765   984.42765   984.42765
  Ewald   -5160.67041 -5160.67041 -5190.25058    11.52693    -5.46381     5.46380
  Hartree  1168.32836  1168.32827  1139.32360    11.94437    -4.70758     4.70757
  E(xc)   -1046.19636 -1046.19637 -1046.19190    -0.01784     0.00386    -0.00384
  Local    -699.97214  -699.97134  -639.56963   -23.64790    10.02161   -10.02126
  n-local   415.84883   415.85548   415.91125     0.16352    -0.08517     0.08733
  augment   489.98049   489.98045   489.42491     0.04469     0.02187    -0.02180
  Kinetic  3848.25182  3848.26971  3846.82137    -0.01717     0.22537    -0.20786
  Fock        0.00000     0.00000     0.00000     0.00000     0.00000     0.00000
  Total       0.01084     0.01084    -0.10334    -0.00356     0.00613    -0.00613
  in kB       0.04950     0.04950    -0.47200    -0.01627     0.02802    -0.02802

 VOLUME and BASIS-vectors are now :
  energy-cutoff  :      520.00
  volume of cell :      350.79
      direct lattice vectors                 reciprocal lattice vectors
     3.881495037  3.881495037 -0.000000000     0.171746254  0.085886434 -0.042922636
    -3.881136984  7.762632011  0.003122787    -0.085894374  0.085894374 -0.042991762
    -0.001963087  3.883458123  7.762785510     0.000034553 -0.000034553  0.128837033

  length of vectors
     5.489262924  8.678806933  8.679982127     0.196762822  0.128856427  0.128837042

 FORCES acting on ions
    electron-ion (+dipol)            ewald-force                    non-local-force                 convergence-correction
   0.307E+02 -.307E+02 0.522E+02   -.303E+02 0.303E+02 -.517E+02   -.373E+00 0.373E+00 -.493E+00   -.242E-02 0.242E-02 -.128E-01
   0.102E+02 -.102E+02 -.802E+02   -.992E+01 0.992E+01 0.794E+02   -.238E+00 0.238E+00 0.804E+00   -.398E-02 0.398E-02 0.110E-01
   -.624E+02 0.624E+02 0.754E+02   0.616E+02 -.616E+02 -.747E+02   0.734E+00 -.734E+00 -.727E+00   0.550E-02 -.549E-02 -.104E-01
   -.155E+02 0.155E+02 -.785E+02   0.152E+02 -.152E+02 0.776E+02   0.305E+00 -.305E+00 0.823E+00   0.691E-02 -.691E-02 0.114E-01
   0.325E+02 -.325E+02 0.394E+02   -.320E+02 0.320E+02 -.393E+02   -.381E+00 0.381E+00 -.173E+00   -.292E-02 0.292E-02 -.491E-02
   0.572E+01 -.572E+01 -.164E+02   -.564E+01 0.564E+01 0.164E+02   -.838E-01 0.838E-01 0.554E-01   -.285E-02 0.285E-02 0.735E-02
   0.216E+02 -.216E+02 -.293E+02   -.212E+02 0.212E+02 0.289E+02   -.415E+00 0.415E+00 0.418E+00   0.232E-02 -.232E-02 -.338E-02
   0.435E+01 -.435E+01 0.229E+02   -.437E+01 0.437E+01 -.225E+02   0.420E-01 -.420E-01 -.353E+00   -.118E-02 0.118E-02 0.255E-02
   -.242E+02 0.242E+02 -.507E+01   0.238E+02 -.238E+02 0.511E+01   0.383E+00 -.383E+00 -.393E-01   -.121E-02 0.121E-02 -.374E-03
   -.351E+02 0.351E+02 0.475E+01   0.336E+02 -.336E+02 -.526E+01   0.148E+01 -.148E+01 0.525E+00   0.139E-01 -.139E-01 0.421E-02
   0.281E+02 -.281E+02 -.151E+02   -.267E+02 0.267E+02 0.139E+02   -.145E+01 0.145E+01 0.118E+01   -.121E-01 0.121E-01 0.120E-01
   0.332E+01 -.332E+01 0.303E+02   -.337E+01 0.337E+01 -.282E+02   0.555E-01 -.555E-01 -.208E+01   -.153E-02 0.153E-02 -.146E-01
   0.119E+02 -.119E+02 0.206E+02   -.122E+02 0.122E+02 -.210E+02   0.359E+00 -.359E+00 0.439E+00   -.101E-02 0.101E-02 -.403E-02
   -.321E+01 0.321E+01 -.483E+02   0.311E+01 -.311E+01 0.417E+02   0.743E-01 -.743E-01 0.657E+01   0.399E-02 -.399E-02 -.103E-01
   -.225E+02 0.225E+02 0.503E+02   0.230E+02 -.230E+02 -.450E+02   -.608E+00 0.608E+00 -.527E+01   0.278E-02 -.278E-02 0.110E-01
   0.161E+01 -.161E+01 -.536E+02   -.158E+01 0.158E+01 0.481E+02   -.204E-01 0.204E-01 0.550E+01   -.314E-02 0.314E-02 -.900E-02
   0.107E+02 -.107E+02 0.120E+02   -.109E+02 0.109E+02 -.109E+02   0.236E+00 -.236E+00 -.109E+01   -.218E-02 0.218E-02 -.691E-02
   0.142E+01 -.142E+01 0.187E+02   -.142E+01 0.142E+01 -.133E+02   -.116E-01 0.116E-01 -.537E+01   -.391E-03 0.391E-03 0.181E-01
   0.969E+01 -.409E+02 0.278E+01   -.960E+01 0.357E+02 -.297E+01   -.792E-01 0.526E+01 0.175E+00   -.339E-02 -.106E-01 0.295E-02
   0.847E+01 -.349E+02 -.105E+01   -.850E+01 0.288E+02 0.141E+01   0.253E-01 0.612E+01 -.342E+00   0.140E-02 -.144E-01 -.425E-02
   -.985E+01 0.380E+02 0.127E+02   0.997E+01 -.330E+02 -.132E+02   -.145E+00 -.504E+01 0.446E+00   0.338E-02 0.137E-01 0.258E-02
   0.336E+01 0.462E+01 -.162E+02   -.369E+01 -.453E+01 0.167E+02   0.346E+00 -.797E-01 -.532E+00   0.298E-03 -.160E-02 0.439E-03
   0.730E+00 0.276E+01 -.613E+01   -.100E+01 -.248E+01 0.628E+01   0.279E+00 -.285E+00 -.151E+00   0.320E-03 -.304E-02 0.186E-02
   -.124E+02 0.297E+02 0.794E+01   0.128E+02 -.238E+02 -.790E+01   -.414E+00 -.593E+01 0.588E-03   -.177E-02 0.157E-01 -.421E-02
   -.380E+02 0.985E+01 0.127E+02   0.330E+02 -.997E+01 -.132E+02   0.504E+01 0.145E+00 0.446E+00   -.137E-01 -.338E-02 0.258E-02
   -.462E+01 -.336E+01 -.162E+02   0.453E+01 0.369E+01 0.167E+02   0.797E-01 -.346E+00 -.532E+00   0.160E-02 -.298E-03 0.439E-03
   -.276E+01 -.729E+00 -.613E+01   0.248E+01 0.100E+01 0.628E+01   0.285E+00 -.279E+00 -.151E+00   0.304E-02 -.320E-03 0.186E-02
   -.297E+02 0.124E+02 0.794E+01   0.238E+02 -.128E+02 -.790E+01   0.593E+01 0.414E+00 0.588E-03   -.157E-01 0.177E-02 -.421E-02
   0.409E+02 -.969E+01 0.278E+01   -.357E+02 0.960E+01 -.297E+01   -.526E+01 0.792E-01 0.175E+00   0.106E-01 0.339E-02 0.295E-02
   0.349E+02 -.847E+01 -.105E+01   -.288E+02 0.850E+01 0.141E+01   -.612E+01 -.253E-01 -.342E+00   0.144E-01 -.140E-02 -.425E-02
   -.809E-01 0.808E-01 0.774E-01   -.888E-13 -.249E-13 0.355E-13   0.583E-01 -.583E-01 -.841E-01   0.956E-03 -.948E-03 -.375E-03

 POSITION                                       TOTAL-FORCE (eV/Angst)
      0.04073     11.60375      3.94220         0.007937     -0.007937     -0.022573
      0.02102     11.62346      7.68456         0.032799     -0.032799     -0.020064
     -0.08133      7.84432      3.95607        -0.064734      0.064734     -0.020791
     -0.03017      7.79316      7.68006        -0.024821      0.024821     -0.016281
      0.03750      3.84400      3.90049         0.055694     -0.055694     -0.061820
     -3.87410      7.75559      0.00423         0.000277     -0.000277      0.075097
      1.94809      5.81490      1.93469         0.011217     -0.011217      0.011478
      1.93364      5.82935      5.83304         0.016637     -0.016637      0.012276
     -1.94412      5.82562      1.94019        -0.017400      0.017400     -0.002963
      1.95427      9.69022      5.81869         0.013853     -0.013853      0.021384
     -1.95038      9.71337      5.82573        -0.014120      0.014120      0.004782
     -1.94509      9.70808      1.93075        -0.001260      0.001260     -0.018934
      1.93898      5.82401      3.88769         0.018034     -0.018034     -0.032170
      1.94309      5.81990      0.05748        -0.015045      0.015045      0.002956
     -1.93242      5.81391      3.83209        -0.028470      0.028470      0.018786
     -1.94424      5.82573      0.04929         0.010938     -0.010938      0.020251
     -1.95338      9.71637      3.85978         0.010079     -0.010079     -0.012364
      1.93686      5.82613      7.72507        -0.003908      0.003908      0.000479
     -1.94895     11.69485      5.83161         0.016707      0.005780     -0.004116
      1.93659      3.93396      1.93802         0.001884     -0.003337      0.021761
      1.94497      7.72220      5.82592        -0.020864      0.006779      0.011089
      1.94672      7.75852      1.93721         0.018823      0.003552     -0.044757
     -1.93785      7.75581      5.84145         0.006554     -0.002333      0.001170
     -1.94287      7.71578      1.93907        -0.013634      0.006735      0.035089
      0.04079      5.81802      5.82592        -0.006779      0.020864      0.011089
      0.00447      5.81627      1.93721        -0.003552     -0.018823     -0.044757
      0.00718      9.70084      5.84145         0.002333     -0.006554      0.001170
      0.04721      9.70586      1.93907        -0.006735      0.013634      0.035089
     -0.05037     13.59343      5.83161        -0.005780     -0.016707     -0.004116
     -0.05246      1.94490      1.93802         0.003337     -0.001884      0.021761
    total drift:                               -0.021702      0.021535     -0.007044

  FREE ENERGIE OF THE ION-ELECTRON SYSTEM (eV)
  free  energy   TOTEN  =      -220.79609796 eV

  energy  without entropy=     -220.79609796  energy(sigma->0) =     -220.79609796

 total charge

[...]

 magnetization (x)

# of ion       s       p       d       f       tot
    1        0.000   0.001   0.005   0.002   0.008
    2        0.001   0.001   0.007   0.003   0.012
    3        0.000   0.001   0.005   0.002   0.009
    4        0.001   0.001   0.007   0.003   0.012
    5        0.001   0.001   0.009   0.004   0.014
    6        0.001   0.001   0.011   0.004   0.017
    7        0.022   0.024   3.237   0.000   3.282
    8        0.023   0.035   3.193   0.000   3.251
    9        0.023   0.030   3.222   0.000   3.275
   10        0.010   0.003   1.687   0.000   1.700
   11        0.011   0.007   1.703   0.000   1.721
   12        0.009  -0.006   1.659   0.000   1.662
   13        0.002  -0.012   0.000   0.000  -0.010
   14        0.005  -0.049   0.000   0.000  -0.044
   15        0.005  -0.006   0.000   0.000  -0.000
   16        0.005  -0.008   0.000   0.000  -0.003
   17        0.006   0.014   0.000   0.000   0.020
   18        0.003  -0.035   0.000   0.000  -0.032
   19        0.005  -0.009   0.000   0.000  -0.005
   20        0.005  -0.041   0.000   0.000  -0.036
   21        0.005  -0.009   0.000   0.000  -0.005
   22        0.002  -0.011   0.000   0.000  -0.009
   23        0.007   0.039   0.000   0.000   0.046
   24        0.004  -0.042   0.000   0.000  -0.037
   25        0.005  -0.009   0.000   0.000  -0.005
   26        0.002  -0.011   0.000   0.000  -0.009
   27        0.007   0.039   0.000   0.000   0.046
   28        0.004  -0.042   0.000   0.000  -0.037
   29        0.005  -0.009   0.000   0.000  -0.005
   30        0.005  -0.041   0.000   0.000  -0.037
tot          0.183  -0.144  14.744   0.019  14.802

 BZINTS: Fermi energy:  7.995133;225.000000 electrons
         Band energy:-327.528522;  BLOECHL correction:  0.000000